 Entering Gaussian System, Link 0=/applications/g16/g16/g16
 Initial command:
 /applications/g16/g16/l1.exe "/scratch/g98/Gau-45946.inp" -scrdir="/scratch/g98/"
 Entering Link 1 = /applications/g16/g16/l1.exe PID=     45947.
  
 Copyright (c) 1988,1990,1992,1993,1995,1998,2003,2009,2016,
            Gaussian, Inc.  All Rights Reserved.
  
 This is part of the Gaussian(R) 16 program.  It is based on
 the Gaussian(R) 09 system (copyright 2009, Gaussian, Inc.),
 the Gaussian(R) 03 system (copyright 2003, Gaussian, Inc.),
 the Gaussian(R) 98 system (copyright 1998, Gaussian, Inc.),
 the Gaussian(R) 94 system (copyright 1995, Gaussian, Inc.),
 the Gaussian 92(TM) system (copyright 1992, Gaussian, Inc.),
 the Gaussian 90(TM) system (copyright 1990, Gaussian, Inc.),
 the Gaussian 88(TM) system (copyright 1988, Gaussian, Inc.),
 the Gaussian 86(TM) system (copyright 1986, Carnegie Mellon
 University), and the Gaussian 82(TM) system (copyright 1983,
 Carnegie Mellon University). Gaussian is a federally registered
 trademark of Gaussian, Inc.
  
 This software contains proprietary and confidential information,
 including trade secrets, belonging to Gaussian, Inc.
  
 This software is provided under written license and may be
 used, copied, transmitted, or stored only in accord with that
 written license.
  
 The following legend is applicable only to US Government
 contracts under FAR:
  
                    RESTRICTED RIGHTS LEGEND
  
 Use, reproduction and disclosure by the US Government is
 subject to restrictions as set forth in subparagraphs (a)
 and (c) of the Commercial Computer Software - Restricted
 Rights clause in FAR 52.227-19.
  
 Gaussian, Inc.
 340 Quinnipiac St., Bldg. 40, Wallingford CT 06492
  
  
 ---------------------------------------------------------------
 Warning -- This program may not be used in any manner that
 competes with the business of Gaussian, Inc. or will provide
 assistance to any competitor of Gaussian, Inc.  The licensee
 of this program is prohibited from giving any competitor of
 Gaussian, Inc. access to this program.  By using this program,
 the user acknowledges that Gaussian, Inc. is engaged in the
 business of creating and licensing software in the field of
 computational chemistry and represents and warrants to the
 licensee that it is not a competitor of Gaussian, Inc. and that
 it will not use this program in any manner prohibited above.
 ---------------------------------------------------------------
  

 Cite this work as:
 Gaussian 16, Revision A.03,
 M. J. Frisch, G. W. Trucks, H. B. Schlegel, G. E. Scuseria, 
 M. A. Robb, J. R. Cheeseman, G. Scalmani, V. Barone, 
 G. A. Petersson, H. Nakatsuji, X. Li, M. Caricato, A. V. Marenich, 
 J. Bloino, B. G. Janesko, R. Gomperts, B. Mennucci, H. P. Hratchian, 
 J. V. Ortiz, A. F. Izmaylov, J. L. Sonnenberg, D. Williams-Young, 
 F. Ding, F. Lipparini, F. Egidi, J. Goings, B. Peng, A. Petrone, 
 T. Henderson, D. Ranasinghe, V. G. Zakrzewski, J. Gao, N. Rega, 
 G. Zheng, W. Liang, M. Hada, M. Ehara, K. Toyota, R. Fukuda, 
 J. Hasegawa, M. Ishida, T. Nakajima, Y. Honda, O. Kitao, H. Nakai, 
 T. Vreven, K. Throssell, J. A. Montgomery, Jr., J. E. Peralta, 
 F. Ogliaro, M. J. Bearpark, J. J. Heyd, E. N. Brothers, K. N. Kudin, 
 V. N. Staroverov, T. A. Keith, R. Kobayashi, J. Normand, 
 K. Raghavachari, A. P. Rendell, J. C. Burant, S. S. Iyengar, 
 J. Tomasi, M. Cossi, J. M. Millam, M. Klene, C. Adamo, R. Cammi, 
 J. W. Ochterski, R. L. Martin, K. Morokuma, O. Farkas, 
 J. B. Foresman, and D. J. Fox, Gaussian, Inc., Wallingford CT, 2016.
 
 ******************************************
 Gaussian 16:  EM64M-G16RevA.03 25-Dec-2016
                 6-Feb-2021 
 ******************************************
 %mem=24GB
 %nprocshared=8
 Will use up to    8 processors via shared memory.
 %chk=1_pentane.chk
 ----------------------------------------------
 # freq wb97xd/6-311+g(2d,2p) geom=connectivity
 ----------------------------------------------
 1/10=4,30=1,38=1,57=2/1,3;
 2/12=2,17=6,18=5,40=1/2;
 3/5=4,6=6,7=212,11=2,25=1,30=1,71=2,74=-58,140=1/1,2,3;
 4//1;
 5/5=2,38=5,98=1/2;
 8/6=4,10=90,11=11/1;
 11/6=1,8=1,9=11,15=111,16=1/1,2,10;
 10/6=1/2;
 6/7=2,8=2,9=2,10=2,28=1/1;
 7/8=1,10=1,25=1/1,2,3,16;
 1/10=4,30=1/3;
 99//99;
 -------------------
 Title Card Required
 -------------------
 Symbolic Z-matrix:
 Charge =  0 Multiplicity = 1
 C                    -1.07117   0.53478  -0.02608 
 F                    -1.06788   1.2523    1.10614 
 F                    -1.11293   1.36495  -1.07299 
 C                     0.23448  -0.31159  -0.10399 
 F                     0.11189  -1.38154   0.69238 
 F                     0.39255  -0.73433  -1.37037 
 C                     1.52054   0.46851   0.30053 
 F                     1.57302   0.5713    1.63929 
 F                     1.4713    1.6943   -0.22659 
 C                     2.8055   -0.23223  -0.21288 
 O                     3.51192   0.24014  -1.04483 
 O                     2.98373  -1.39309   0.40787 
 H                     3.78662  -1.79813   0.05909 
 C                    -2.37887  -0.3106   -0.04217 
 F                    -2.52767  -0.97482   1.09432 
 F                    -2.3621   -1.17313  -1.05199 
 F                    -3.41315   0.50635  -0.19418 
 

 GradGradGradGradGradGradGradGradGradGradGradGradGradGradGradGradGradGrad
 Berny optimization.
 Initialization pass.
 Trust Radius=3.00D-01 FncErr=1.00D-07 GrdErr=1.00D-07 EigMax=2.50D+02 EigMin=1.00D-04
 Number of steps in this run=      2 maximum allowed number of steps=      2.
 GradGradGradGradGradGradGradGradGradGradGradGradGradGradGradGradGradGrad

                          Input orientation:                          
 ---------------------------------------------------------------------
 Center     Atomic      Atomic             Coordinates (Angstroms)
 Number     Number       Type             X           Y           Z
 ---------------------------------------------------------------------
      1          6           0       -1.071165    0.534775   -0.026083
      2          9           0       -1.067883    1.252301    1.106137
      3          9           0       -1.112934    1.364949   -1.072987
      4          6           0        0.234483   -0.311591   -0.103990
      5          9           0        0.111889   -1.381537    0.692383
      6          9           0        0.392547   -0.734333   -1.370366
      7          6           0        1.520544    0.468514    0.300528
      8          9           0        1.573018    0.571300    1.639290
      9          9           0        1.471302    1.694303   -0.226594
     10          6           0        2.805501   -0.232225   -0.212882
     11          8           0        3.511919    0.240143   -1.044829
     12          8           0        2.983730   -1.393089    0.407870
     13          1           0        3.786615   -1.798126    0.059094
     14          6           0       -2.378867   -0.310603   -0.042167
     15          9           0       -2.527667   -0.974815    1.094321
     16          9           0       -2.362096   -1.173134   -1.051989
     17          9           0       -3.413153    0.506352   -0.194179
 ---------------------------------------------------------------------
                    Distance matrix (angstroms):
                    1          2          3          4          5
     1  C    0.000000
     2  F    1.340439   0.000000
     3  F    1.336765   2.182499   0.000000
     4  C    1.557922   2.367767   2.359083   0.000000
     5  F    2.363908   2.915503   3.487106   1.339412   0.000000
     6  F    2.358004   3.494658   2.600364   1.344397   2.180040
     7  C    2.613048   2.821929   3.102474   1.557611   2.358081
     8  F    3.125141   2.778916   3.898803   2.368586   2.616315
     9  F    2.801580   2.901551   2.739184   2.359738   3.486160
    10  C    3.956226   4.352784   4.317972   2.574547   3.065284
    11  O    4.704180   5.160010   4.759753   3.454153   4.148247
    12  O    4.510781   4.888889   5.155809   2.998332   2.885923
    13  H    5.389593   5.828169   5.940726   3.854092   3.752094
    14  C    1.557243   2.340929   2.339370   2.614081   2.808973
    15  F    2.378143   2.662922   3.489010   3.083065   2.700784
    16  F    2.374013   3.495029   2.828906   2.895372   3.034282
    17  F    2.348185   2.783443   2.607777   3.739307   4.095856
                    6          7          8          9         10
     6  F    0.000000
     7  C    2.347574   0.000000
     8  F    3.486577   1.343727   0.000000
     9  F    2.893130   1.335231   2.180139   0.000000
    10  C    2.722908   1.551045   2.365419   2.343456   0.000000
    11  O    3.284214   2.414066   3.327686   2.635945   1.189241
    12  O    3.210967   2.370232   2.713914   3.495994   1.328422
    13  H    3.833368   3.214191   3.607106   4.199923   1.867780
    14  C    3.102321   3.991224   4.384341   4.344820   5.187770
    15  F    3.828859   4.370505   4.416229   4.986057   5.541020
    16  F    2.807484   4.427099   5.076530   4.857820   5.319161
    17  F    4.172058   4.958582   5.312977   5.026945   6.262388
                   11         12         13         14         15
    11  O    0.000000
    12  O    2.248725   0.000000
    13  H    2.334233   0.964533   0.000000
    14  C    6.000834   5.489240   6.343197   0.000000
    15  F    6.521402   5.569710   6.451333   1.324735   0.000000
    16  F    6.041643   5.545938   6.279472   1.328150   2.161803
    17  F    6.982198   6.700034   7.563823   1.326752   2.153642
                   16         17
    16  F    0.000000
    17  F    2.158989   0.000000
 Stoichiometry    C5HF9O2
 Framework group  C1[X(C5HF9O2)]
 Deg. of freedom    45
 Full point group                 C1      NOp   1
 Largest Abelian subgroup         C1      NOp   1
 Largest concise Abelian subgroup C1      NOp   1
                         Standard orientation:                         
 ---------------------------------------------------------------------
 Center     Atomic      Atomic             Coordinates (Angstroms)
 Number     Number       Type             X           Y           Z
 ---------------------------------------------------------------------
      1          6           0       -1.071165    0.534775   -0.026083
      2          9           0       -1.067883    1.252301    1.106137
      3          9           0       -1.112934    1.364949   -1.072987
      4          6           0        0.234483   -0.311591   -0.103990
      5          9           0        0.111889   -1.381537    0.692383
      6          9           0        0.392547   -0.734333   -1.370366
      7          6           0        1.520544    0.468514    0.300528
      8          9           0        1.573018    0.571300    1.639290
      9          9           0        1.471302    1.694303   -0.226594
     10          6           0        2.805501   -0.232225   -0.212882
     11          8           0        3.511919    0.240143   -1.044829
     12          8           0        2.983730   -1.393089    0.407870
     13          1           0        3.786615   -1.798126    0.059094
     14          6           0       -2.378867   -0.310603   -0.042167
     15          9           0       -2.527667   -0.974815    1.094321
     16          9           0       -2.362096   -1.173134   -1.051989
     17          9           0       -3.413153    0.506352   -0.194179
 ---------------------------------------------------------------------
 Rotational constants (GHZ):           1.0663385           0.3738345           0.3586362
 Standard basis: 6-311+G(2d,2p) (5D, 7F)
 There are   473 symmetry adapted cartesian basis functions of A   symmetry.
 There are   441 symmetry adapted basis functions of A   symmetry.
   441 basis functions,   683 primitive gaussians,   473 cartesian basis functions
    64 alpha electrons       64 beta electrons
       nuclear repulsion energy      1423.5374596615 Hartrees.
 NAtoms=   17 NActive=   17 NUniq=   17 SFac= 1.00D+00 NAtFMM=   60 NAOKFM=F Big=F
 Integral buffers will be    131072 words long.
 Raffenetti 2 integral format.
 Two-electron integral symmetry is turned on.
 Nuclear repulsion after empirical dispersion term =     1423.5270244747 Hartrees.
 One-electron integrals computed using PRISM.
 NBasis=   441 RedAO= T EigKep=  7.31D-06  NBF=   441
 NBsUse=   441 1.00D-06 EigRej= -1.00D+00 NBFU=   441
 ExpMin= 4.38D-02 ExpMax= 1.14D+04 ExpMxC= 1.72D+03 IAcc=3 IRadAn=         5 AccDes= 0.00D+00
 Harris functional with IExCor= 4639 and IRadAn=       5 diagonalized for initial guess.
 HarFok:  IExCor= 4639 AccDes= 0.00D+00 IRadAn=         5 IDoV= 1 UseB2=F ITyADJ=14
 ICtDFT=  3500011 ScaDFX=  1.000000  1.000000  1.000000  1.000000
 FoFCou: FMM=F IPFlag=           0 FMFlag=      100000 FMFlg1=           0
         NFxFlg=           0 DoJE=T BraDBF=F KetDBF=T FulRan=T
         wScrn=  0.000000 ICntrl=       500 IOpCl=  0 I1Cent=   200000004 NGrid=           0
         NMat0=    1 NMatS0=      1 NMatT0=    0 NMatD0=    1 NMtDS0=    0 NMtDT0=    0
 Petite list used in FoFCou.
 Requested convergence on RMS density matrix=1.00D-08 within 128 cycles.
 Requested convergence on MAX density matrix=1.00D-06.
 Requested convergence on             energy=1.00D-06.
 No special actions if energy rises.
 SCF Done:  E(RwB97XD) =  -1240.21876156     A.U. after   14 cycles
            NFock= 14  Conv=0.57D-08     -V/T= 2.0026
 DoSCS=F DFT=T ScalE2(SS,OS)=  1.000000  1.000000
 Range of M.O.s used for correlation:     1   441
 NBasis=   441 NAE=    64 NBE=    64 NFC=     0 NFV=     0
 NROrb=    441 NOA=    64 NOB=    64 NVA=   377 NVB=   377

 **** Warning!!: The largest alpha MO coefficient is  0.10273472D+03

 Symmetrizing basis deriv contribution to polar:
 IMax=3 JMax=2 DiffMx= 0.00D+00
 G2DrvN: will do    18 centers at a time, making    1 passes.
 Calling FoFCou, ICntrl=  3107 FMM=F I1Cent=   0 AccDes= 0.00D+00.
 End of G2Drv F.D. properties file   721 does not exist.
 End of G2Drv F.D. properties file   722 does not exist.
 End of G2Drv F.D. properties file   788 does not exist.
          IDoAtm=11111111111111111
          Differentiating once with respect to electric field.
                with respect to dipole field.
          Differentiating once with respect to nuclear coordinates.
 CalDSu exits because no D1Ps are significant.
          There are    54 degrees of freedom in the 1st order CPHF.  IDoFFX=6 NUNeed=     3.
     51 vectors produced by pass  0 Test12= 4.47D-14 1.85D-09 XBig12= 2.36D+01 1.17D+00.
 AX will form    51 AO Fock derivatives at one time.
     51 vectors produced by pass  1 Test12= 4.47D-14 1.85D-09 XBig12= 4.20D+00 3.73D-01.
     51 vectors produced by pass  2 Test12= 4.47D-14 1.85D-09 XBig12= 1.58D-01 6.02D-02.
     51 vectors produced by pass  3 Test12= 4.47D-14 1.85D-09 XBig12= 4.04D-03 8.22D-03.
     51 vectors produced by pass  4 Test12= 4.47D-14 1.85D-09 XBig12= 6.08D-05 1.01D-03.
     51 vectors produced by pass  5 Test12= 4.47D-14 1.85D-09 XBig12= 4.80D-07 1.09D-04.
     51 vectors produced by pass  6 Test12= 4.47D-14 1.85D-09 XBig12= 3.33D-09 7.97D-06.
     29 vectors produced by pass  7 Test12= 4.47D-14 1.85D-09 XBig12= 2.08D-11 4.45D-07.
      3 vectors produced by pass  8 Test12= 4.47D-14 1.85D-09 XBig12= 1.23D-13 3.02D-08.
      3 vectors produced by pass  9 Test12= 4.47D-14 1.85D-09 XBig12= 9.02D-16 3.31D-09.
 InvSVY:  IOpt=1 It=  1 EMax= 7.11D-15
 Solved reduced A of dimension   392 with    54 vectors.
 Isotropic polarizability for W=    0.000000       71.92 Bohr**3.
 End of Minotr F.D. properties file   721 does not exist.
 End of Minotr F.D. properties file   722 does not exist.
 End of Minotr F.D. properties file   788 does not exist.

 **********************************************************************

            Population analysis using the SCF density.

 **********************************************************************

 Orbital symmetries:
       Occupied  (A) (A) (A) (A) (A) (A) (A) (A) (A) (A) (A) (A)
                 (A) (A) (A) (A) (A) (A) (A) (A) (A) (A) (A) (A)
                 (A) (A) (A) (A) (A) (A) (A) (A) (A) (A) (A) (A)
                 (A) (A) (A) (A) (A) (A) (A) (A) (A) (A) (A) (A)
                 (A) (A) (A) (A) (A) (A) (A) (A) (A) (A) (A) (A)
                 (A) (A) (A) (A)
       Virtual   (A) (A) (A) (A) (A) (A) (A) (A) (A) (A) (A) (A)
                 (A) (A) (A) (A) (A) (A) (A) (A) (A) (A) (A) (A)
                 (A) (A) (A) (A) (A) (A) (A) (A) (A) (A) (A) (A)
                 (A) (A) (A) (A) (A) (A) (A) (A) (A) (A) (A) (A)
                 (A) (A) (A) (A) (A) (A) (A) (A) (A) (A) (A) (A)
                 (A) (A) (A) (A) (A) (A) (A) (A) (A) (A) (A) (A)
                 (A) (A) (A) (A) (A) (A) (A) (A) (A) (A) (A) (A)
                 (A) (A) (A) (A) (A) (A) (A) (A) (A) (A) (A) (A)
                 (A) (A) (A) (A) (A) (A) (A) (A) (A) (A) (A) (A)
                 (A) (A) (A) (A) (A) (A) (A) (A) (A) (A) (A) (A)
                 (A) (A) (A) (A) (A) (A) (A) (A) (A) (A) (A) (A)
                 (A) (A) (A) (A) (A) (A) (A) (A) (A) (A) (A) (A)
                 (A) (A) (A) (A) (A) (A) (A) (A) (A) (A) (A) (A)
                 (A) (A) (A) (A) (A) (A) (A) (A) (A) (A) (A) (A)
                 (A) (A) (A) (A) (A) (A) (A) (A) (A) (A) (A) (A)
                 (A) (A) (A) (A) (A) (A) (A) (A) (A) (A) (A) (A)
                 (A) (A) (A) (A) (A) (A) (A) (A) (A) (A) (A) (A)
                 (A) (A) (A) (A) (A) (A) (A) (A) (A) (A) (A) (A)
                 (A) (A) (A) (A) (A) (A) (A) (A) (A) (A) (A) (A)
                 (A) (A) (A) (A) (A) (A) (A) (A) (A) (A) (A) (A)
                 (A) (A) (A) (A) (A) (A) (A) (A) (A) (A) (A) (A)
                 (A) (A) (A) (A) (A) (A) (A) (A) (A) (A) (A) (A)
                 (A) (A) (A) (A) (A) (A) (A) (A) (A) (A) (A) (A)
                 (A) (A) (A) (A) (A) (A) (A) (A) (A) (A) (A) (A)
                 (A) (A) (A) (A) (A) (A) (A) (A) (A) (A) (A) (A)
                 (A) (A) (A) (A) (A) (A) (A) (A) (A) (A) (A) (A)
                 (A) (A) (A) (A) (A) (A) (A) (A) (A) (A) (A) (A)
                 (A) (A) (A) (A) (A) (A) (A) (A) (A) (A) (A) (A)
                 (A) (A) (A) (A) (A) (A) (A) (A) (A) (A) (A) (A)
                 (A) (A) (A) (A) (A) (A) (A) (A) (A) (A) (A) (A)
                 (A) (A) (A) (A) (A) (A) (A) (A) (A) (A) (A) (A)
                 (A) (A) (A) (A) (A)
 The electronic state is 1-A.
 Alpha  occ. eigenvalues --  -24.88032 -24.87972 -24.87898 -24.87884 -24.87817
 Alpha  occ. eigenvalues --  -24.87812 -24.87644 -24.86931 -24.86907 -19.34680
 Alpha  occ. eigenvalues --  -19.28936 -10.58335 -10.52786 -10.52738 -10.51968
 Alpha  occ. eigenvalues --  -10.47185  -1.47379  -1.44422  -1.42598  -1.42040
 Alpha  occ. eigenvalues --   -1.38254  -1.37608  -1.37352  -1.36546  -1.35958
 Alpha  occ. eigenvalues --   -1.27050  -1.18133  -0.95307  -0.91626  -0.85764
 Alpha  occ. eigenvalues --   -0.80485  -0.77726  -0.75258  -0.74900  -0.74163
 Alpha  occ. eigenvalues --   -0.72610  -0.71926  -0.71580  -0.70066  -0.68607
 Alpha  occ. eigenvalues --   -0.68087  -0.62509  -0.61478  -0.61123  -0.60451
 Alpha  occ. eigenvalues --   -0.60050  -0.59649  -0.59052  -0.58665  -0.57798
 Alpha  occ. eigenvalues --   -0.57292  -0.56893  -0.55996  -0.55705  -0.54940
 Alpha  occ. eigenvalues --   -0.54617  -0.53957  -0.53841  -0.53652  -0.52904
 Alpha  occ. eigenvalues --   -0.50422  -0.46049  -0.45742  -0.41223
 Alpha virt. eigenvalues --    0.01504   0.04988   0.07449   0.08205   0.08527
 Alpha virt. eigenvalues --    0.09772   0.10701   0.10932   0.11589   0.12586
 Alpha virt. eigenvalues --    0.12884   0.13337   0.13836   0.14583   0.15461
 Alpha virt. eigenvalues --    0.16611   0.16750   0.17605   0.18072   0.18858
 Alpha virt. eigenvalues --    0.20312   0.21347   0.22166   0.22830   0.23043
 Alpha virt. eigenvalues --    0.24332   0.25163   0.25728   0.26748   0.27119
 Alpha virt. eigenvalues --    0.27466   0.28277   0.30151   0.30341   0.30752
 Alpha virt. eigenvalues --    0.31283   0.31668   0.32074   0.33012   0.33299
 Alpha virt. eigenvalues --    0.33619   0.34103   0.34806   0.34898   0.35849
 Alpha virt. eigenvalues --    0.36464   0.36683   0.37204   0.38361   0.39419
 Alpha virt. eigenvalues --    0.39866   0.40314   0.40799   0.41760   0.42204
 Alpha virt. eigenvalues --    0.42638   0.43535   0.43854   0.44054   0.44200
 Alpha virt. eigenvalues --    0.45180   0.46126   0.46441   0.47557   0.47836
 Alpha virt. eigenvalues --    0.48108   0.49291   0.49690   0.50311   0.50846
 Alpha virt. eigenvalues --    0.52478   0.53031   0.54017   0.54698   0.55185
 Alpha virt. eigenvalues --    0.56494   0.57290   0.57955   0.58858   0.59288
 Alpha virt. eigenvalues --    0.62450   0.63214   0.66461   0.67015   0.69015
 Alpha virt. eigenvalues --    0.69771   0.71168   0.71621   0.73294   0.73999
 Alpha virt. eigenvalues --    0.74719   0.77044   0.79022   0.80856   0.81188
 Alpha virt. eigenvalues --    0.82115   0.84359   0.85661   0.87426   0.90141
 Alpha virt. eigenvalues --    0.91949   0.94973   0.95674   0.98928   1.02439
 Alpha virt. eigenvalues --    1.02975   1.05106   1.09462   1.10181   1.11153
 Alpha virt. eigenvalues --    1.12145   1.13383   1.14942   1.15865   1.16404
 Alpha virt. eigenvalues --    1.18528   1.19988   1.21139   1.22777   1.25698
 Alpha virt. eigenvalues --    1.26885   1.27826   1.30993   1.31416   1.33330
 Alpha virt. eigenvalues --    1.34622   1.36191   1.37723   1.39391   1.39790
 Alpha virt. eigenvalues --    1.41219   1.42265   1.42337   1.43409   1.44695
 Alpha virt. eigenvalues --    1.45064   1.45215   1.46439   1.46538   1.47693
 Alpha virt. eigenvalues --    1.48080   1.49001   1.50184   1.50538   1.51926
 Alpha virt. eigenvalues --    1.52143   1.53046   1.53804   1.54465   1.54752
 Alpha virt. eigenvalues --    1.56511   1.57339   1.58107   1.58897   1.60583
 Alpha virt. eigenvalues --    1.61436   1.61596   1.64202   1.65346   1.67138
 Alpha virt. eigenvalues --    1.69144   1.71368   1.74815   1.75692   1.76493
 Alpha virt. eigenvalues --    1.83073   1.83726   1.87254   1.92925   1.93929
 Alpha virt. eigenvalues --    1.98557   2.01196   2.01868   2.03380   2.04700
 Alpha virt. eigenvalues --    2.06336   2.07060   2.08105   2.09642   2.11765
 Alpha virt. eigenvalues --    2.12765   2.13182   2.13794   2.14886   2.15435
 Alpha virt. eigenvalues --    2.17447   2.19314   2.19640   2.21501   2.24923
 Alpha virt. eigenvalues --    2.25796   2.26180   2.27721   2.31656   2.32910
 Alpha virt. eigenvalues --    2.34914   2.35888   2.36662   2.38885   2.40165
 Alpha virt. eigenvalues --    2.40820   2.45248   2.45613   2.47367   2.49671
 Alpha virt. eigenvalues --    2.55248   2.56268   2.57581   2.60049   2.62529
 Alpha virt. eigenvalues --    2.64369   2.65168   2.68593   2.70316   2.71576
 Alpha virt. eigenvalues --    2.74800   2.76218   2.77541   2.79484   2.82435
 Alpha virt. eigenvalues --    2.84174   2.86944   2.89682   2.90430   2.94361
 Alpha virt. eigenvalues --    2.99737   3.01483   3.08289   3.12812   3.14788
 Alpha virt. eigenvalues --    3.23909   3.24968   3.25782   3.37201   3.40730
 Alpha virt. eigenvalues --    3.41555   3.47750   3.48319   3.50671   3.51917
 Alpha virt. eigenvalues --    3.53235   3.54426   3.55266   3.58336   3.59105
 Alpha virt. eigenvalues --    3.61507   3.62732   3.64357   3.66815   3.70274
 Alpha virt. eigenvalues --    3.72905   3.74616   3.75380   3.77450   3.79306
 Alpha virt. eigenvalues --    3.81389   3.83077   3.86317   3.90532   3.96010
 Alpha virt. eigenvalues --    4.00965   4.07095   4.11809   4.26005   4.30935
 Alpha virt. eigenvalues --    4.32102   4.35287   4.37081   4.38400   4.39478
 Alpha virt. eigenvalues --    4.41753   4.45768   4.50868   5.10904   5.15310
 Alpha virt. eigenvalues --    5.32374   5.62645   5.99011   6.31802   6.41104
 Alpha virt. eigenvalues --    6.43068   6.43940   6.44331   6.45415   6.47790
 Alpha virt. eigenvalues --    6.48185   6.49664   6.50981   6.51228   6.52251
 Alpha virt. eigenvalues --    6.52737   6.53790   6.54875   6.55200   6.56962
 Alpha virt. eigenvalues --    6.59469   6.61001   6.66576   6.69717   6.70699
 Alpha virt. eigenvalues --    6.74399   6.82822   6.87150   6.88329   6.90062
 Alpha virt. eigenvalues --    6.91916   6.93497   6.94737   6.99398   7.04960
 Alpha virt. eigenvalues --    7.15231   7.18346   7.24816   7.29021   7.44761
 Alpha virt. eigenvalues --    7.52896   9.08618   9.09597   9.10565   9.11009
 Alpha virt. eigenvalues --    9.11830   9.12874   9.15302   9.17584   9.18702
 Alpha virt. eigenvalues --    9.19854   9.20205   9.21523   9.21740   9.23037
 Alpha virt. eigenvalues --    9.24444   9.25943   9.26220   9.26456   9.27183
 Alpha virt. eigenvalues --    9.28611   9.28898   9.29727   9.34918   9.35582
 Alpha virt. eigenvalues --    9.40549   9.42468   9.44182   9.45924   9.51144
 Alpha virt. eigenvalues --    9.54532   9.64222   9.65675   9.67718   9.68753
 Alpha virt. eigenvalues --    9.72017   9.73550   9.76583   9.77849   9.78054
 Alpha virt. eigenvalues --    9.80040   9.82183   9.84457   9.88251   9.90185
 Alpha virt. eigenvalues --    9.92132  23.95842  23.98523  24.01037  24.06639
 Alpha virt. eigenvalues --   24.20782  50.06150  50.14215  66.93527  66.94804
 Alpha virt. eigenvalues --   66.95266  66.97124  66.99033  67.00588  67.01849
 Alpha virt. eigenvalues --   67.04796  67.05705
          Condensed to atoms (all electrons):
               1          2          3          4          5          6
     1  C    9.692411   0.308474   0.375392  -4.124161  -0.202129  -0.098621
     2  F    0.308474   9.117936   0.002666  -0.094884   0.011695  -0.000741
     3  F    0.375392   0.002666   9.076176  -0.087216   0.000324   0.021406
     4  C   -4.124161  -0.094884  -0.087216  11.925500   0.401713   0.348713
     5  F   -0.202129   0.011695   0.000324   0.401713   9.096011   0.011685
     6  F   -0.098621  -0.000741   0.021406   0.348713   0.011685   9.101907
     7  C    1.863530  -0.013418  -0.014754  -4.038498  -0.121885  -0.195978
     8  F   -0.012713   0.007854  -0.001217  -0.102658   0.021451  -0.000018
     9  F   -0.040037   0.016040   0.008065  -0.065214  -0.000616   0.010187
    10  C   -0.542204   0.025960  -0.009692   0.639520  -0.030198   0.061720
    11  O    0.010744   0.000105  -0.000223  -0.096005   0.000983   0.004174
    12  O    0.016503  -0.000074  -0.000070  -0.015870   0.004429   0.003026
    13  H   -0.002155   0.000003  -0.000007   0.008437   0.000144  -0.000554
    14  C   -1.435986  -0.148168  -0.155226   0.943587   0.041936  -0.019144
    15  F   -0.070943   0.021969  -0.000954   0.019173   0.006314  -0.002658
    16  F   -0.073031   0.000968   0.015771  -0.017756   0.007942   0.004378
    17  F   -0.127947   0.018593   0.021292   0.043125   0.000006  -0.001031
               7          8          9         10         11         12
     1  C    1.863530  -0.012713  -0.040037  -0.542204   0.010744   0.016503
     2  F   -0.013418   0.007854   0.016040   0.025960   0.000105  -0.000074
     3  F   -0.014754  -0.001217   0.008065  -0.009692  -0.000223  -0.000070
     4  C   -4.038498  -0.102658  -0.065214   0.639520  -0.096005  -0.015870
     5  F   -0.121885   0.021451  -0.000616  -0.030198   0.000983   0.004429
     6  F   -0.195978  -0.000018   0.010187   0.061720   0.004174   0.003026
     7  C    9.450225   0.317696   0.284778  -1.223881   0.088696  -0.112580
     8  F    0.317696   9.095114  -0.003254  -0.070705  -0.005698   0.012487
     9  F    0.284778  -0.003254   9.136543  -0.113251  -0.000538   0.005152
    10  C   -1.223881  -0.070705  -0.113251   5.920738   0.407009   0.361801
    11  O    0.088696  -0.005698  -0.000538   0.407009   8.038206  -0.094553
    12  O   -0.112580   0.012487   0.005152   0.361801  -0.094553   7.920274
    13  H   -0.038615  -0.001162  -0.000111   0.027123   0.015510   0.236471
    14  C   -0.666285  -0.010436   0.031066  -0.004603  -0.000982   0.002089
    15  F   -0.016016  -0.000586   0.000091   0.002711  -0.000010   0.000058
    16  F    0.040082  -0.000028  -0.000020   0.003135  -0.000006   0.000006
    17  F    0.008512   0.000040  -0.000001   0.000119   0.000000  -0.000014
              13         14         15         16         17
     1  C   -0.002155  -1.435986  -0.070943  -0.073031  -0.127947
     2  F    0.000003  -0.148168   0.021969   0.000968   0.018593
     3  F   -0.000007  -0.155226  -0.000954   0.015771   0.021292
     4  C    0.008437   0.943587   0.019173  -0.017756   0.043125
     5  F    0.000144   0.041936   0.006314   0.007942   0.000006
     6  F   -0.000554  -0.019144  -0.002658   0.004378  -0.001031
     7  C   -0.038615  -0.666285  -0.016016   0.040082   0.008512
     8  F   -0.001162  -0.010436  -0.000586  -0.000028   0.000040
     9  F   -0.000111   0.031066   0.000091  -0.000020  -0.000001
    10  C    0.027123  -0.004603   0.002711   0.003135   0.000119
    11  O    0.015510  -0.000982  -0.000010  -0.000006   0.000000
    12  O    0.236471   0.002089   0.000058   0.000006  -0.000014
    13  H    0.466423  -0.000172  -0.000004  -0.000002  -0.000000
    14  C   -0.000172   5.610279   0.275090   0.216097   0.217852
    15  F   -0.000004   0.275090   9.037951   0.006708  -0.007520
    16  F   -0.000002   0.216097   0.006708   9.082080   0.003805
    17  F   -0.000000   0.217852  -0.007520   0.003805   9.115246
 Mulliken charges:
               1
     1  C    0.462873
     2  F   -0.274979
     3  F   -0.251734
     4  C    0.312494
     5  F   -0.249803
     6  F   -0.248450
     7  C    0.388394
     8  F   -0.246166
     9  F   -0.268879
    10  C    0.544699
    11  O   -0.367412
    12  O   -0.339136
    13  H    0.288673
    14  C    1.103006
    15  F   -0.271372
    16  F   -0.290130
    17  F   -0.292077
 Sum of Mulliken charges =  -0.00000
 Mulliken charges with hydrogens summed into heavy atoms:
               1
     1  C    0.462873
     2  F   -0.274979
     3  F   -0.251734
     4  C    0.312494
     5  F   -0.249803
     6  F   -0.248450
     7  C    0.388394
     8  F   -0.246166
     9  F   -0.268879
    10  C    0.544699
    11  O   -0.367412
    12  O   -0.050464
    14  C    1.103006
    15  F   -0.271372
    16  F   -0.290130
    17  F   -0.292077
 APT charges:
               1
     1  C    0.920456
     2  F   -0.465635
     3  F   -0.460868
     4  C    0.894101
     5  F   -0.455299
     6  F   -0.464760
     7  C    0.944214
     8  F   -0.474415
     9  F   -0.454584
    10  C    1.068479
    11  O   -0.691498
    12  O   -0.679265
    13  H    0.317764
    14  C    1.553282
    15  F   -0.501744
    16  F   -0.504078
    17  F   -0.546151
 Sum of APT charges =   0.00000
 APT charges with hydrogens summed into heavy atoms:
               1
     1  C    0.920456
     2  F   -0.465635
     3  F   -0.460868
     4  C    0.894101
     5  F   -0.455299
     6  F   -0.464760
     7  C    0.944214
     8  F   -0.474415
     9  F   -0.454584
    10  C    1.068479
    11  O   -0.691498
    12  O   -0.361502
    14  C    1.553282
    15  F   -0.501744
    16  F   -0.504078
    17  F   -0.546151
 Electronic spatial extent (au):  <R**2>=           3014.8079
 Charge=             -0.0000 electrons
 Dipole moment (field-independent basis, Debye):
    X=              1.1945    Y=             -1.9608    Z=              0.5185  Tot=              2.3538
 Quadrupole moment (field-independent basis, Debye-Ang):
   XX=            -79.9089   YY=            -83.8961   ZZ=            -88.6801
   XY=             -8.3598   XZ=              3.1311   YZ=              1.6902
 Traceless Quadrupole moment (field-independent basis, Debye-Ang):
   XX=              4.2528   YY=              0.2656   ZZ=             -4.5184
   XY=             -8.3598   XZ=              3.1311   YZ=              1.6902
 Octapole moment (field-independent basis, Debye-Ang**2):
  XXX=              7.2445  YYY=             -5.7801  ZZZ=              2.6664  XYY=              5.9477
  XXY=            -36.4036  XXZ=             16.0239  XZZ=            -15.5430  YZZ=              0.6385
  YYZ=             -0.2200  XYZ=              4.8603
 Hexadecapole moment (field-independent basis, Debye-Ang**3):
 XXXX=          -2158.9984 YYYY=           -491.8144 ZZZZ=           -398.8549 XXXY=           -139.4528
 XXXZ=             71.8171 YYYX=            -25.9578 YYYZ=              3.5906 ZZZX=             11.0171
 ZZZY=              0.6401 XXYY=           -401.9191 XXZZ=           -476.4505 YYZZ=           -152.4775
 XXYZ=             16.6036 YYXZ=             -0.8531 ZZXY=              0.8595
 N-N= 1.423527024475D+03 E-N=-5.789900904389D+03  KE= 1.236982428043D+03
  Exact polarizability:  80.265  -2.260  68.337  -3.927  -3.479  67.152
 Approx polarizability:  74.535  -0.699  78.736  -5.077  -6.298  83.183
 Calling FoFJK, ICntrl=    100127 FMM=F ISym2X=0 I1Cent= 0 IOpClX= 0 NMat=1 NMatS=1 NMatT=0.
 Full mass-weighted force constant matrix:
 Low frequencies ---   -6.5390   -3.7941   -0.0011   -0.0006    0.0010    2.7298
 Low frequencies ---   33.9277   44.6381   51.2253
 Diagonal vibrational polarizability:
       31.7032158      27.2050847      47.6688946
 Harmonic frequencies (cm**-1), IR intensities (KM/Mole), Raman scattering
 activities (A**4/AMU), depolarization ratios for plane and unpolarized
 incident light, reduced masses (AMU), force constants (mDyne/A),
 and normal coordinates:
                      1                      2                      3
                      A                      A                      A
 Frequencies --     33.9062                44.6094                51.2198
 Red. masses --     13.5129                15.2592                15.3023
 Frc consts  --      0.0092                 0.0179                 0.0237
 IR Inten    --      1.1939                 0.2423                 0.8807
  Atom  AN      X      Y      Z        X      Y      Z        X      Y      Z
     1   6    -0.01  -0.01   0.07     0.02  -0.04   0.05    -0.01  -0.02   0.02
     2   9    -0.04  -0.12   0.14    -0.08  -0.05   0.06    -0.01  -0.03   0.02
     3   9    -0.01   0.10   0.15     0.16  -0.04   0.04    -0.05  -0.01   0.03
     4   6     0.00   0.03  -0.00     0.00  -0.06   0.21     0.00   0.01  -0.01
     5   9     0.07   0.02  -0.00     0.00   0.11   0.43     0.05   0.04   0.05
     6   9    -0.04   0.04  -0.01    -0.02  -0.32   0.29    -0.04  -0.04   0.00
     7   6     0.01   0.04  -0.05     0.02   0.02   0.03     0.00   0.05  -0.11
     8   9    -0.02   0.19  -0.07     0.20   0.03   0.02    -0.01   0.25  -0.12
     9   9     0.06  -0.02  -0.20    -0.09   0.01   0.03     0.02  -0.04  -0.30
    10   6    -0.01  -0.07   0.05    -0.02   0.07  -0.15     0.05  -0.02   0.08
    11   8    -0.13  -0.33  -0.21    -0.10   0.14  -0.17     0.40   0.11   0.46
    12   8     0.13   0.15   0.43     0.03   0.01  -0.27    -0.31  -0.21  -0.17
    13   1     0.10   0.07   0.46    -0.01   0.03  -0.38    -0.24  -0.22   0.00
    14   6    -0.00  -0.01  -0.04    -0.02   0.02  -0.11    -0.01  -0.03   0.02
    15   9     0.04  -0.24  -0.17    -0.12  -0.10  -0.20     0.09  -0.19  -0.06
    16   9    -0.04   0.18  -0.21    -0.01   0.14  -0.21    -0.10   0.12  -0.10
    17   9    -0.01   0.01   0.15     0.03   0.10  -0.08    -0.02  -0.00   0.23
                      4                      5                      6
                      A                      A                      A
 Frequencies --     66.3449               102.2913               172.3170
 Red. masses --     16.3782                12.3592                11.6605
 Frc consts  --      0.0425                 0.0762                 0.2040
 IR Inten    --      0.1941                 0.5059                 1.1034
  Atom  AN      X      Y      Z        X      Y      Z        X      Y      Z
     1   6     0.03  -0.05  -0.14     0.03  -0.10   0.05    -0.08   0.14   0.01
     2   9     0.09   0.14  -0.27     0.12  -0.23   0.13    -0.11   0.18  -0.02
     3   9     0.03  -0.23  -0.29     0.08   0.02   0.14    -0.14   0.13   0.00
     4   6     0.02  -0.10  -0.04    -0.00  -0.15  -0.06    -0.10   0.05  -0.01
     5   9    -0.01  -0.08  -0.03     0.02  -0.16  -0.07    -0.18   0.12   0.09
     6   9     0.09  -0.13  -0.01    -0.06  -0.14  -0.07    -0.29  -0.07   0.01
     7   6    -0.04  -0.05   0.06    -0.03  -0.07  -0.10     0.05  -0.14  -0.09
     8   9    -0.11  -0.15   0.07    -0.08   0.01  -0.10     0.07  -0.23  -0.07
     9   9    -0.09  -0.01   0.15    -0.14  -0.11  -0.18     0.13  -0.11  -0.03
    10   6     0.03   0.08   0.06     0.11   0.10   0.03     0.16  -0.05  -0.02
    11   8    -0.04   0.14   0.03     0.14   0.23   0.12     0.20   0.09   0.09
    12   8     0.19   0.13   0.10     0.26   0.16   0.09     0.35   0.02   0.05
    13   1     0.23   0.21   0.10     0.40   0.32   0.21     0.51   0.22   0.19
    14   6    -0.03   0.05   0.04    -0.07   0.06   0.01    -0.02   0.01  -0.00
    15   9     0.17  -0.12  -0.03    -0.23   0.17   0.05     0.06  -0.04  -0.02
    16   9    -0.32   0.22  -0.10    -0.14  -0.01   0.07     0.12   0.05  -0.03
    17   9     0.01   0.17   0.41     0.06   0.21  -0.12    -0.15  -0.16   0.01
                      7                      8                      9
                      A                      A                      A
 Frequencies --    180.3318               209.2675               236.2460
 Red. masses --     17.3285                16.9902                16.3663
 Frc consts  --      0.3320                 0.4384                 0.5382
 IR Inten    --      0.0253                 2.3414                 0.7813
  Atom  AN      X      Y      Z        X      Y      Z        X      Y      Z
     1   6     0.11   0.11   0.01    -0.01   0.01   0.18     0.01  -0.03   0.05
     2   9     0.28   0.07   0.04    -0.05   0.32  -0.02     0.46   0.05  -0.01
     3   9     0.18   0.16   0.06     0.01  -0.27  -0.05    -0.40  -0.14  -0.03
     4   6    -0.07  -0.11  -0.03    -0.02  -0.06   0.18     0.01   0.02  -0.10
     5   9    -0.16  -0.07   0.01    -0.06  -0.29  -0.14    -0.00   0.11   0.04
     6   9    -0.12  -0.21  -0.00     0.01   0.32   0.06     0.04  -0.12  -0.04
     7   6    -0.18  -0.06  -0.03    -0.00  -0.10   0.11     0.01   0.07  -0.09
     8   9    -0.32  -0.02  -0.02     0.19   0.20   0.08     0.08  -0.15  -0.07
     9   9    -0.32  -0.09  -0.09    -0.17  -0.23  -0.19    -0.05   0.16   0.11
    10   6    -0.15   0.04   0.03    -0.00  -0.06   0.03     0.00   0.06  -0.05
    11   8    -0.19   0.07   0.02    -0.10   0.07   0.01     0.14  -0.08  -0.01
    12   8    -0.15   0.02   0.00     0.16  -0.09  -0.07    -0.19   0.12   0.12
    13   1    -0.15   0.02  -0.01     0.18   0.03  -0.16    -0.19  -0.02   0.27
    14   6     0.20   0.08   0.01    -0.00   0.03   0.10    -0.02  -0.01   0.12
    15   9     0.34   0.03  -0.00    -0.24  -0.12  -0.02    -0.37  -0.17  -0.03
    16   9     0.41   0.12  -0.02     0.27   0.17  -0.02     0.25   0.13  -0.01
    17   9     0.07  -0.10   0.03     0.01   0.02  -0.01     0.04   0.04  -0.01
                     10                     11                     12
                      A                      A                      A
 Frequencies --    245.7391               253.1999               291.9825
 Red. masses --     18.3718                12.9506                18.2768
 Frc consts  --      0.6537                 0.4892                 0.9180
 IR Inten    --      0.1646                 0.7776                 3.9050
  Atom  AN      X      Y      Z        X      Y      Z        X      Y      Z
     1   6    -0.02   0.05  -0.15     0.00   0.01  -0.01     0.07  -0.02  -0.01
     2   9     0.18  -0.17  -0.00    -0.12   0.01  -0.00    -0.25  -0.05   0.01
     3   9    -0.24   0.23   0.02     0.17   0.01  -0.01    -0.21  -0.04  -0.01
     4   6    -0.01   0.00  -0.02    -0.03  -0.04   0.04    -0.01   0.09  -0.01
     5   9    -0.51   0.05  -0.03    -0.01  -0.10  -0.06    -0.32   0.15   0.03
     6   9     0.54  -0.03   0.06    -0.12   0.05  -0.01    -0.09   0.09  -0.02
     7   6     0.01  -0.06   0.10    -0.01   0.01  -0.08    -0.00  -0.03  -0.01
     8   9     0.29   0.13   0.07     0.46  -0.14  -0.08    -0.03  -0.05  -0.01
     9   9    -0.13  -0.13  -0.09    -0.38   0.06   0.08    -0.08  -0.04  -0.04
    10   6     0.00  -0.03   0.02    -0.01   0.07  -0.08     0.01   0.00  -0.01
    11   8    -0.05   0.03   0.01     0.22  -0.11   0.02     0.01   0.00  -0.01
    12   8     0.10  -0.04  -0.01    -0.24   0.17   0.20     0.01   0.01   0.01
    13   1     0.11   0.02  -0.05    -0.20   0.01   0.51     0.01   0.00   0.03
    14   6    -0.04   0.01  -0.04     0.01   0.01  -0.05     0.26  -0.14   0.01
    15   9     0.10   0.06   0.01     0.14   0.06   0.00     0.08  -0.16  -0.03
    16   9    -0.10  -0.03  -0.02    -0.05  -0.02  -0.01     0.03  -0.20   0.06
    17   9    -0.13  -0.09   0.04    -0.02  -0.02  -0.01     0.66   0.35   0.03
                     13                     14                     15
                      A                      A                      A
 Frequencies --    323.7564               333.2620               361.4322
 Red. masses --     18.2556                17.5358                17.8999
 Frc consts  --      1.1274                 1.1475                 1.3777
 IR Inten    --      0.0714                 0.1325                 0.2936
  Atom  AN      X      Y      Z        X      Y      Z        X      Y      Z
     1   6    -0.09   0.03   0.01     0.01   0.01   0.06    -0.08  -0.09  -0.01
     2   9    -0.38   0.03   0.02    -0.30   0.06   0.03    -0.25  -0.24   0.08
     3   9    -0.39   0.07   0.05     0.39  -0.00   0.04    -0.18  -0.21  -0.10
     4   6     0.11  -0.03  -0.00     0.03  -0.01  -0.04    -0.07  -0.10  -0.04
     5   9     0.41  -0.03   0.05    -0.31   0.00  -0.08    -0.15  -0.23  -0.21
     6   9     0.34  -0.10   0.05     0.34  -0.09   0.01    -0.10  -0.29   0.01
     7   6    -0.02  -0.06  -0.04     0.03   0.05  -0.12     0.03   0.05   0.01
     8   9    -0.15  -0.18  -0.03    -0.24  -0.11  -0.12     0.18   0.15  -0.00
     9   9    -0.30  -0.09  -0.06     0.07   0.10  -0.03     0.38   0.10   0.08
    10   6     0.07  -0.06  -0.03     0.12   0.10  -0.15    -0.07   0.06   0.01
    11   8     0.12  -0.14  -0.03     0.26  -0.09  -0.15    -0.10   0.14   0.02
    12   8     0.07  -0.08  -0.04    -0.09   0.15  -0.03    -0.12   0.09   0.05
    13   1     0.06  -0.06  -0.08    -0.13  -0.04   0.08    -0.12   0.03   0.12
    14   6     0.02   0.11   0.01    -0.04  -0.01   0.13     0.04   0.10   0.02
    15   9     0.10   0.20   0.06    -0.28  -0.10   0.07     0.14   0.23   0.10
    16   9     0.15   0.19  -0.04     0.17   0.04   0.11     0.27   0.23  -0.07
    17   9    -0.00   0.09  -0.01    -0.08  -0.04   0.21     0.00   0.06   0.04
                     16                     17                     18
                      A                      A                      A
 Frequencies --    371.9584               381.9639               418.1278
 Red. masses --     13.2833                17.7890                15.3639
 Frc consts  --      1.0828                 1.5291                 1.5826
 IR Inten    --      1.6198                 0.2075                 2.3427
  Atom  AN      X      Y      Z        X      Y      Z        X      Y      Z
     1   6     0.01   0.02   0.01    -0.00   0.12   0.00    -0.01   0.02  -0.19
     2   9     0.04   0.07  -0.02    -0.07   0.40  -0.16    -0.11  -0.19  -0.11
     3   9    -0.10   0.05   0.04    -0.07   0.39   0.21     0.15   0.16  -0.13
     4   6     0.02  -0.07   0.02     0.04  -0.09  -0.04    -0.02   0.06  -0.21
     5   9    -0.11  -0.16  -0.12     0.15  -0.25  -0.22     0.13   0.20  -0.05
     6   9    -0.17  -0.15   0.03     0.07  -0.38   0.05    -0.08  -0.13  -0.19
     7   6     0.09   0.08   0.10     0.03  -0.01   0.01    -0.05   0.01  -0.00
     8   9    -0.13   0.35   0.10     0.14   0.02   0.01     0.18   0.16  -0.02
     9   9    -0.17   0.15   0.27     0.15  -0.02  -0.01    -0.20   0.07   0.15
    10   6     0.26   0.02  -0.01    -0.09   0.04   0.04    -0.08  -0.17   0.13
    11   8     0.32  -0.28  -0.15    -0.16   0.14   0.04    -0.16  -0.03   0.15
    12   8     0.17  -0.07  -0.14    -0.14   0.05   0.06     0.20  -0.24   0.00
    13   1    -0.02  -0.19  -0.45    -0.16  -0.03   0.11     0.30   0.08  -0.15
    14   6     0.01  -0.01  -0.02     0.00  -0.06   0.01    -0.01   0.01   0.04
    15   9     0.04  -0.00  -0.02    -0.11  -0.20  -0.08    -0.25  -0.02  -0.00
    16   9    -0.06  -0.02  -0.02    -0.10  -0.17   0.09     0.25  -0.04   0.10
    17   9     0.00  -0.02  -0.05     0.11   0.06  -0.00    -0.02   0.05   0.27
                     19                     20                     21
                      A                      A                      A
 Frequencies --    489.2188               522.2702               540.9850
 Red. masses --      7.1775                 5.3306                 8.5723
 Frc consts  --      1.0121                 0.8567                 1.4782
 IR Inten    --      6.9547                 8.5908                 8.4605
  Atom  AN      X      Y      Z        X      Y      Z        X      Y      Z
     1   6     0.04   0.00  -0.13     0.08  -0.00   0.07    -0.06   0.12   0.03
     2   9     0.00  -0.11  -0.10    -0.05   0.07   0.06    -0.00  -0.04   0.19
     3   9    -0.04   0.13  -0.07     0.03  -0.08   0.05     0.01  -0.07  -0.16
     4   6     0.07  -0.03   0.04     0.10   0.05  -0.11    -0.01   0.07  -0.03
     5   9     0.04  -0.03   0.05    -0.03   0.15  -0.08     0.02   0.06  -0.11
     6   9    -0.12   0.05  -0.01    -0.02  -0.11  -0.12     0.00  -0.09   0.03
     7   6     0.11  -0.04   0.15     0.10   0.02   0.03     0.03   0.05   0.04
     8   9    -0.01  -0.04   0.21     0.04  -0.04   0.06     0.02  -0.07   0.08
     9   9     0.02  -0.19  -0.11    -0.07  -0.02  -0.06    -0.03   0.00  -0.10
    10   6     0.16   0.17   0.04     0.08   0.05   0.14     0.06   0.06   0.09
    11   8     0.07   0.02  -0.13    -0.08   0.03  -0.00    -0.00  -0.02  -0.00
    12   8    -0.13   0.14   0.01     0.01  -0.03   0.04     0.03   0.01   0.01
    13   1    -0.56  -0.42  -0.34    -0.46  -0.44  -0.56    -0.38  -0.31  -0.56
    14   6     0.01  -0.00  -0.05     0.05  -0.06   0.07    -0.09   0.17   0.03
    15   9    -0.11   0.08  -0.03    -0.04   0.01   0.14     0.14  -0.20  -0.19
    16   9     0.09  -0.06  -0.02    -0.11   0.13  -0.09     0.03  -0.04   0.29
    17   9    -0.03  -0.01   0.16     0.06  -0.13  -0.09    -0.17   0.18  -0.12
                     22                     23                     24
                      A                      A                      A
 Frequencies --    572.5947               593.1481               606.8525
 Red. masses --      6.8932                 2.6463                13.7911
 Frc consts  --      1.3316                 0.5485                 2.9924
 IR Inten    --     17.7962                68.8593                15.3667
  Atom  AN      X      Y      Z        X      Y      Z        X      Y      Z
     1   6    -0.00   0.01   0.01     0.02   0.07  -0.01    -0.08  -0.07  -0.19
     2   9     0.05   0.00   0.02     0.01  -0.02   0.08    -0.01  -0.20  -0.28
     3   9    -0.01  -0.01  -0.01     0.01   0.01  -0.09     0.04   0.22  -0.06
     4   6    -0.03   0.09   0.11     0.02   0.10   0.01    -0.11  -0.03   0.07
     5   9    -0.02  -0.08  -0.11     0.03   0.05  -0.12     0.01  -0.13   0.05
     6   9    -0.02  -0.00   0.22    -0.03  -0.06   0.09    -0.04   0.08   0.11
     7   6    -0.03   0.17  -0.04     0.00   0.02   0.06    -0.10   0.12   0.04
     8   9     0.01  -0.16  -0.04    -0.01  -0.02   0.11     0.02  -0.09   0.07
     9   9    -0.02   0.23  -0.17    -0.02  -0.03  -0.05     0.03   0.12  -0.13
    10   6    -0.05   0.01   0.12    -0.02  -0.01  -0.05    -0.09   0.04   0.03
    11   8    -0.04  -0.08   0.09     0.02  -0.03  -0.02     0.05  -0.12   0.06
    12   8     0.13  -0.05   0.00    -0.04  -0.00  -0.07     0.08   0.05  -0.06
    13   1    -0.23  -0.13  -0.75     0.51   0.46   0.66    -0.01   0.18  -0.44
    14   6     0.03  -0.05  -0.09     0.03  -0.02   0.01    -0.03  -0.03   0.23
    15   9    -0.05   0.13  -0.04    -0.04   0.00   0.02     0.01  -0.26   0.30
    16   9     0.02  -0.11  -0.11    -0.03   0.02  -0.02    -0.01   0.31   0.10
    17   9     0.03  -0.03   0.14     0.04  -0.05   0.00     0.09  -0.01  -0.25
                     25                     26                     27
                      A                      A                      A
 Frequencies --    635.8904               680.5232               700.1695
 Red. masses --      7.1962                 4.8577                 9.7263
 Frc consts  --      1.7144                 1.3255                 2.8093
 IR Inten    --     17.0264               150.2198                15.3989
  Atom  AN      X      Y      Z        X      Y      Z        X      Y      Z
     1   6    -0.06  -0.17   0.05    -0.09   0.03   0.02    -0.08  -0.17  -0.01
     2   9    -0.00   0.06  -0.13     0.03   0.03   0.06     0.04  -0.07  -0.24
     3   9     0.02  -0.11   0.25     0.03  -0.01  -0.02     0.05  -0.07   0.21
     4   6    -0.04  -0.04  -0.09    -0.14   0.05  -0.03    -0.03   0.21   0.05
     5   9    -0.04   0.08   0.02     0.06   0.08  -0.06     0.03   0.19  -0.24
     6   9    -0.00  -0.05  -0.17     0.04  -0.03   0.01    -0.04  -0.01   0.27
     7   6    -0.05   0.12   0.11    -0.18  -0.08   0.02     0.03  -0.05  -0.01
     8   9     0.05  -0.06   0.22     0.02   0.06   0.02    -0.04   0.02  -0.02
     9   9     0.01   0.06  -0.14     0.05  -0.16   0.07    -0.05  -0.08   0.05
    10   6    -0.07   0.09   0.07    -0.21   0.00  -0.12     0.12  -0.12  -0.14
    11   8     0.03  -0.14   0.02     0.11  -0.10   0.09     0.02   0.16  -0.08
    12   8     0.01   0.04  -0.13     0.06   0.20  -0.03    -0.02  -0.08   0.12
    13   1     0.44   0.62   0.19    -0.34   0.04  -0.78    -0.23  -0.58   0.23
    14   6    -0.08   0.00  -0.04    -0.03  -0.05  -0.01    -0.12  -0.05   0.00
    15   9     0.08   0.03  -0.03    -0.00   0.01   0.05     0.07  -0.03   0.08
    16   9     0.07  -0.06  -0.02     0.01  -0.04  -0.07     0.09  -0.02  -0.05
    17   9    -0.07   0.11   0.02     0.05   0.01   0.01    -0.08   0.14  -0.03
                     28                     29                     30
                      A                      A                      A
 Frequencies --    757.3876               784.1252               867.6679
 Red. masses --     13.0076                 7.8734                11.2640
 Frc consts  --      4.3963                 2.8522                 4.9963
 IR Inten    --     20.1235                19.4594                72.6008
  Atom  AN      X      Y      Z        X      Y      Z        X      Y      Z
     1   6    -0.23   0.11   0.01     0.02   0.00  -0.00     0.37   0.01  -0.00
     2   9     0.06   0.09   0.21     0.01  -0.01  -0.01    -0.05  -0.01   0.00
     3   9     0.06   0.09  -0.19     0.00   0.01  -0.01    -0.06   0.02  -0.03
     4   6    -0.14  -0.05  -0.04     0.09   0.02   0.01     0.48  -0.01   0.07
     5   9     0.02  -0.08   0.10    -0.00   0.04  -0.05    -0.07  -0.03   0.01
     6   9     0.05  -0.02  -0.12    -0.01   0.03   0.11    -0.07   0.00  -0.02
     7   6    -0.01   0.04   0.02     0.09  -0.07  -0.06     0.27   0.02   0.01
     8   9     0.01  -0.02   0.09     0.01   0.00  -0.25    -0.06   0.00   0.02
     9   9    -0.01   0.09  -0.06     0.01  -0.15   0.11    -0.04   0.02  -0.01
    10   6     0.17  -0.02   0.00     0.09   0.28   0.40    -0.32  -0.18  -0.24
    11   8     0.00   0.10  -0.10    -0.11  -0.17   0.02    -0.01  -0.02   0.16
    12   8    -0.02  -0.13   0.06    -0.07   0.07  -0.17     0.04   0.12   0.01
    13   1     0.00  -0.33   0.36     0.28   0.65  -0.04    -0.04   0.26  -0.33
    14   6    -0.25  -0.19  -0.00    -0.07  -0.04  -0.00    -0.01  -0.02  -0.00
    15   9     0.06  -0.10   0.34     0.02  -0.04   0.09     0.01  -0.08   0.14
    16   9     0.10  -0.19  -0.33     0.04  -0.05  -0.07     0.04  -0.08  -0.10
    17   9    -0.04   0.24  -0.02    -0.07   0.09  -0.02    -0.22   0.16  -0.03
                     31                     32                     33
                      A                      A                      A
 Frequencies --   1072.2512              1158.1711              1170.4837
 Red. masses --     12.0915                10.8339                12.4821
 Frc consts  --      8.1908                 8.5621                10.0756
 IR Inten    --     19.9731                34.1537               199.4456
  Atom  AN      X      Y      Z        X      Y      Z        X      Y      Z
     1   6    -0.53  -0.09   0.03    -0.02   0.46   0.10    -0.01   0.25  -0.09
     2   9     0.07   0.01   0.01     0.00  -0.14  -0.16     0.02  -0.06  -0.06
     3   9     0.06   0.03  -0.03     0.01  -0.13   0.11     0.00  -0.09   0.09
     4   6     0.09   0.16   0.08    -0.25   0.21  -0.06    -0.04   0.40   0.34
     5   9    -0.03  -0.06   0.03     0.03  -0.10   0.06    -0.00  -0.12   0.04
     6   9     0.00  -0.03  -0.07     0.04  -0.02  -0.03     0.01  -0.12  -0.24
     7   6     0.58   0.08   0.00     0.21  -0.22  -0.14    -0.07   0.28   0.39
     8   9    -0.07  -0.01  -0.04    -0.01   0.02   0.09    -0.01  -0.05  -0.23
     9   9    -0.07  -0.05   0.02    -0.03   0.10  -0.02     0.01  -0.13   0.02
    10   6    -0.09  -0.14  -0.05     0.10  -0.18   0.07    -0.07   0.13  -0.05
    11   8    -0.06  -0.02   0.10    -0.09  -0.05   0.10     0.08   0.04  -0.08
    12   8    -0.02   0.11  -0.03    -0.01   0.22  -0.14     0.00  -0.16   0.10
    13   1     0.02   0.24  -0.11    -0.12  -0.34   0.30     0.10   0.24  -0.17
    14   6    -0.27  -0.13  -0.02     0.23   0.14   0.03     0.18  -0.08  -0.08
    15   9     0.04   0.08  -0.10    -0.03  -0.05   0.05    -0.02  -0.02   0.04
    16   9     0.02   0.09   0.08    -0.03  -0.08  -0.07    -0.01   0.01   0.02
    17   9     0.18  -0.08   0.02    -0.05   0.02  -0.01    -0.07   0.04  -0.00
                     34                     35                     36
                      A                      A                      A
 Frequencies --   1192.9457              1199.0987              1210.4368
 Red. masses --      4.6825                 9.2574                 6.4986
 Frc consts  --      3.9262                 7.8424                 5.6099
 IR Inten    --    155.2077                86.9441               161.1968
  Atom  AN      X      Y      Z        X      Y      Z        X      Y      Z
     1   6     0.01  -0.08  -0.25     0.02  -0.03  -0.01    -0.06   0.13  -0.26
     2   9    -0.00   0.06   0.09     0.01  -0.00   0.00    -0.01   0.00   0.03
     3   9     0.01  -0.02   0.04    -0.02   0.02  -0.02     0.00  -0.08   0.10
     4   6     0.03   0.05  -0.12    -0.04  -0.25   0.59    -0.07  -0.20  -0.05
     5   9     0.00  -0.02   0.02     0.02   0.18  -0.14     0.02   0.06  -0.03
     6   9    -0.02   0.01   0.03     0.02  -0.04  -0.16    -0.01   0.03   0.06
     7   6    -0.05  -0.10   0.32    -0.02  -0.12   0.02     0.19  -0.07   0.16
     8   9     0.01  -0.01  -0.12    -0.01  -0.00  -0.03    -0.02  -0.00  -0.05
     9   9    -0.00   0.07  -0.04     0.01   0.09  -0.02    -0.01   0.04  -0.02
    10   6     0.04  -0.09   0.01     0.06  -0.06   0.04    -0.09   0.08  -0.06
    11   8    -0.03  -0.04   0.06    -0.05  -0.04   0.05     0.04   0.04  -0.04
    12   8     0.03   0.14  -0.11     0.02   0.11  -0.09    -0.03  -0.10   0.10
    13   1    -0.13  -0.65   0.51    -0.09  -0.44   0.36     0.11   0.59  -0.44
    14   6    -0.02  -0.06   0.05    -0.08   0.15  -0.27    -0.06   0.36   0.11
    15   9     0.00   0.01  -0.02    -0.01  -0.06   0.10    -0.01  -0.05   0.04
    16   9     0.01   0.02   0.01     0.01   0.01   0.04    -0.00  -0.09  -0.09
    17   9    -0.00   0.01  -0.00     0.05  -0.04   0.02     0.08  -0.07   0.00
                     37                     38                     39
                      A                      A                      A
 Frequencies --   1230.8974              1245.3641              1256.1270
 Red. masses --     12.0279                 6.5103                12.0211
 Frc consts  --     10.7370                 5.9490                11.1753
 IR Inten    --    194.3188               167.2984               464.7494
  Atom  AN      X      Y      Z        X      Y      Z        X      Y      Z
     1   6    -0.02  -0.02   0.67     0.04  -0.07  -0.03    -0.04   0.02   0.10
     2   9    -0.01  -0.10  -0.18    -0.01  -0.01  -0.00    -0.00  -0.04  -0.06
     3   9    -0.00   0.10  -0.15    -0.00   0.01  -0.01     0.01   0.06  -0.06
     4   6     0.07  -0.02  -0.19     0.04   0.08   0.09    -0.03  -0.13   0.30
     5   9    -0.01   0.02   0.01    -0.02  -0.03   0.01     0.02   0.10  -0.08
     6   9    -0.00  -0.01   0.02    -0.00  -0.02  -0.04     0.01  -0.02  -0.09
     7   6    -0.05  -0.07   0.44    -0.08   0.35  -0.13     0.02  -0.26   0.10
     8   9     0.01  -0.01  -0.16     0.00  -0.02   0.01    -0.01   0.01  -0.03
     9   9     0.00   0.06  -0.05     0.00  -0.14   0.05     0.00   0.12  -0.04
    10   6    -0.05   0.03  -0.04     0.03  -0.06   0.03    -0.01   0.04  -0.01
    11   8     0.03  -0.00  -0.00    -0.04  -0.03   0.04     0.01   0.01  -0.02
    12   8     0.02  -0.00  -0.01     0.05   0.06  -0.08    -0.02  -0.02   0.03
    13   1    -0.02  -0.22   0.17    -0.08  -0.58   0.45     0.03   0.25  -0.18
    14   6    -0.14   0.26  -0.05    -0.11   0.30   0.32     0.11  -0.28   0.68
    15   9     0.02  -0.02   0.02     0.01  -0.00  -0.05     0.03   0.14  -0.23
    16   9    -0.01  -0.07  -0.05    -0.00  -0.11  -0.12    -0.01  -0.05  -0.11
    17   9     0.08  -0.06   0.01     0.06  -0.05  -0.01    -0.08   0.07  -0.05
                     40                     41                     42
                      A                      A                      A
 Frequencies --   1278.3355              1313.7792              1367.9234
 Red. masses --     11.9342                 7.1544                 6.9871
 Frc consts  --     11.4904                 7.2756                 7.7032
 IR Inten    --    104.1389                12.6839                80.0692
  Atom  AN      X      Y      Z        X      Y      Z        X      Y      Z
     1   6    -0.08   0.26  -0.09     0.39  -0.23  -0.00    -0.25  -0.33  -0.01
     2   9     0.01  -0.05  -0.04    -0.03   0.04   0.03     0.02   0.05   0.05
     3   9     0.01  -0.08   0.07    -0.03   0.04  -0.04     0.01   0.06  -0.04
     4   6     0.49   0.26   0.07    -0.32   0.30   0.06     0.15   0.19   0.05
     5   9    -0.04  -0.08   0.04     0.02  -0.07   0.03    -0.02  -0.03   0.02
     6   9    -0.03  -0.03  -0.04     0.03  -0.04  -0.06    -0.01  -0.02  -0.03
     7   6    -0.37  -0.35  -0.14     0.10  -0.15   0.01    -0.10  -0.14  -0.01
     8   9     0.03   0.03   0.08    -0.01   0.01   0.01     0.01   0.01   0.01
     9   9     0.03   0.11  -0.02    -0.02   0.04  -0.02     0.00   0.04  -0.01
    10   6     0.03   0.06   0.03     0.07  -0.07   0.03     0.13  -0.13   0.03
    11   8     0.02   0.00  -0.04     0.00   0.02  -0.02    -0.00   0.03  -0.02
    12   8    -0.02  -0.04   0.03    -0.06   0.01   0.03    -0.07   0.04   0.02
    13   1     0.01   0.17  -0.17     0.05   0.55  -0.40     0.04   0.56  -0.41
    14   6    -0.42   0.05   0.02    -0.26   0.05   0.02     0.35   0.25  -0.00
    15   9     0.03   0.01  -0.03     0.02   0.01  -0.02    -0.03  -0.05   0.05
    16   9     0.03   0.01   0.01     0.02   0.00   0.00    -0.03  -0.06  -0.05
    17   9     0.14  -0.07   0.01     0.04  -0.04   0.00    -0.07   0.01  -0.01
                     43                     44                     45
                      A                      A                      A
 Frequencies --   1427.1888              1896.5438              3833.7051
 Red. masses --      4.1252                11.5000                 1.0644
 Frc consts  --      4.9507                24.3710                 9.2175
 IR Inten    --     38.7480               335.8775               118.2095
  Atom  AN      X      Y      Z        X      Y      Z        X      Y      Z
     1   6    -0.02  -0.12  -0.02    -0.00  -0.01   0.00    -0.00   0.00   0.00
     2   9     0.00   0.02   0.02     0.00   0.00   0.00     0.00  -0.00  -0.00
     3   9     0.00   0.02  -0.01    -0.00   0.00  -0.00     0.00  -0.00   0.00
     4   6    -0.03   0.13   0.02     0.01  -0.00   0.01    -0.00  -0.00   0.00
     5   9     0.00  -0.03   0.01    -0.00   0.00  -0.00     0.00  -0.00  -0.00
     6   9     0.01  -0.01  -0.02     0.00  -0.00  -0.00     0.00  -0.00  -0.00
     7   6     0.11  -0.16  -0.08     0.04  -0.02  -0.02     0.00  -0.00  -0.00
     8   9    -0.01   0.01   0.04     0.00  -0.00  -0.00     0.00  -0.00  -0.00
     9   9    -0.00   0.03  -0.01    -0.01   0.02  -0.00     0.00  -0.00  -0.00
    10   6    -0.22   0.33  -0.04    -0.47  -0.30   0.54    -0.00   0.00   0.00
    11   8     0.02  -0.05   0.02     0.30   0.19  -0.35    -0.00  -0.00   0.00
    12   8     0.09  -0.10  -0.00     0.03   0.05  -0.05    -0.05   0.03   0.02
    13   1    -0.04  -0.70   0.49    -0.04  -0.30   0.22     0.83  -0.44  -0.34
    14   6     0.06   0.07  -0.00     0.00   0.00   0.00    -0.00  -0.00  -0.00
    15   9    -0.01  -0.01   0.01    -0.00   0.00  -0.00     0.00   0.00  -0.00
    16   9    -0.00  -0.01  -0.01    -0.00  -0.00  -0.00     0.00   0.00   0.00
    17   9    -0.02   0.00  -0.00    -0.00   0.00  -0.00     0.00  -0.00   0.00

 -------------------
 - Thermochemistry -
 -------------------
 Temperature   298.150 Kelvin.  Pressure   1.00000 Atm.
 Atom     1 has atomic number  6 and mass  12.00000
 Atom     2 has atomic number  9 and mass  18.99840
 Atom     3 has atomic number  9 and mass  18.99840
 Atom     4 has atomic number  6 and mass  12.00000
 Atom     5 has atomic number  9 and mass  18.99840
 Atom     6 has atomic number  9 and mass  18.99840
 Atom     7 has atomic number  6 and mass  12.00000
 Atom     8 has atomic number  9 and mass  18.99840
 Atom     9 has atomic number  9 and mass  18.99840
 Atom    10 has atomic number  6 and mass  12.00000
 Atom    11 has atomic number  8 and mass  15.99491
 Atom    12 has atomic number  8 and mass  15.99491
 Atom    13 has atomic number  1 and mass   1.00783
 Atom    14 has atomic number  6 and mass  12.00000
 Atom    15 has atomic number  9 and mass  18.99840
 Atom    16 has atomic number  9 and mass  18.99840
 Atom    17 has atomic number  9 and mass  18.99840
 Molecular mass:   263.98328 amu.
 Principal axes and moments of inertia in atomic units:
                           1         2         3
     Eigenvalues --  1692.465634827.647725032.23384
           X            0.99993  -0.01197  -0.00200
           Y            0.01194   0.99986  -0.01173
           Z            0.00214   0.01171   0.99993
 This molecule is an asymmetric top.
 Rotational symmetry number  1.
 Warning -- assumption of classical behavior for rotation
           may cause significant error
 Rotational temperatures (Kelvin)      0.05118     0.01794     0.01721
 Rotational constants (GHZ):           1.06634     0.37383     0.35864
 Zero-point vibrational energy     201463.3 (Joules/Mol)
                                   48.15089 (Kcal/Mol)
 Warning -- explicit consideration of  24 degrees of freedom as
           vibrations may cause significant error
 Vibrational temperatures:     48.78    64.18    73.69    95.46   147.17
          (Kelvin)            247.93   259.46   301.09   339.91   353.56
                              364.30   420.10   465.81   479.49   520.02
                              535.17   549.56   601.59   703.88   751.43
                              778.36   823.84   853.41   873.13   914.90
                              979.12  1007.39  1089.71  1128.18  1248.38
                             1542.73  1666.35  1684.06  1716.38  1725.24
                             1741.55  1770.99  1791.80  1807.29  1839.24
                             1890.24  1968.14  2053.41  2728.70  5515.85
 
 Zero-point correction=                           0.076733 (Hartree/Particle)
 Thermal correction to Energy=                    0.091316
 Thermal correction to Enthalpy=                  0.092261
 Thermal correction to Gibbs Free Energy=         0.033649
 Sum of electronic and zero-point Energies=          -1240.142028
 Sum of electronic and thermal Energies=             -1240.127445
 Sum of electronic and thermal Enthalpies=           -1240.126501
 Sum of electronic and thermal Free Energies=        -1240.185112
 
                     E (Thermal)             CV                S
                      KCal/Mol        Cal/Mol-Kelvin    Cal/Mol-Kelvin
 Total                   57.302             51.477            123.358
 Electronic               0.000              0.000              0.000
 Translational            0.889              2.981             42.612
 Rotational               0.889              2.981             32.086
 Vibrational             55.524             45.516             48.661
 Vibration     1          0.594              1.983              5.587
 Vibration     2          0.595              1.980              5.043
 Vibration     3          0.595              1.977              4.770
 Vibration     4          0.598              1.970              4.259
 Vibration     5          0.604              1.947              3.410
 Vibration     6          0.626              1.877              2.410
 Vibration     7          0.629              1.866              2.325
 Vibration     8          0.642              1.827              2.050
 Vibration     9          0.655              1.785              1.831
 Vibration    10          0.660              1.770              1.761
 Vibration    11          0.664              1.757              1.708
 Vibration    12          0.687              1.689              1.462
 Vibration    13          0.708              1.628              1.291
 Vibration    14          0.715              1.609              1.244
 Vibration    15          0.736              1.552              1.116
 Vibration    16          0.744              1.530              1.072
 Vibration    17          0.751              1.509              1.031
 Vibration    18          0.781              1.431              0.898
 Vibration    19          0.845              1.274              0.686
 Vibration    20          0.877              1.201              0.605
 Vibration    21          0.896              1.159              0.563
 Vibration    22          0.929              1.091              0.499
 Vibration    23          0.951              1.046              0.462
 Vibration    24          0.966              1.017              0.438
                       Q            Log10(Q)             Ln(Q)
 Total Bot       0.333049D-15        -15.477492        -35.638243
 Total V=0       0.656689D+20         19.817360         45.631157
 Vib (Bot)       0.860667D-30        -30.065165        -69.227600
 Vib (Bot)    1  0.610488D+01          0.785677          1.809089
 Vib (Bot)    2  0.463636D+01          0.666177          1.533930
 Vib (Bot)    3  0.403551D+01          0.605899          1.395133
 Vib (Bot)    4  0.311015D+01          0.492781          1.134669
 Vib (Bot)    5  0.200541D+01          0.302202          0.695846
 Vib (Bot)    6  0.116862D+01          0.067672          0.155820
 Vib (Bot)    7  0.111366D+01          0.046751          0.107648
 Vib (Bot)    8  0.949379D+00         -0.022560         -0.051947
 Vib (Bot)    9  0.831395D+00         -0.080192         -0.184650
 Vib (Bot)   10  0.795814D+00         -0.099188         -0.228390
 Vib (Bot)   11  0.769645D+00         -0.113710         -0.261826
 Vib (Bot)   12  0.654237D+00         -0.184265         -0.424285
 Vib (Bot)   13  0.579320D+00         -0.237082         -0.545901
 Vib (Bot)   14  0.559530D+00         -0.252177         -0.580659
 Vib (Bot)   15  0.506638D+00         -0.295302         -0.679958
 Vib (Bot)   16  0.488805D+00         -0.310865         -0.715792
 Vib (Bot)   17  0.472706D+00         -0.325409         -0.749281
 Vib (Bot)   18  0.420541D+00         -0.376191         -0.866213
 Vib (Bot)   19  0.339150D+00         -0.469608         -1.081312
 Vib (Bot)   20  0.308418D+00         -0.510861         -1.176301
 Vib (Bot)   21  0.292590D+00         -0.533740         -1.228982
 Vib (Bot)   22  0.268096D+00         -0.571709         -1.316410
 Vib (Bot)   23  0.253513D+00         -0.596000         -1.372340
 Vib (Bot)   24  0.244320D+00         -0.612041         -1.409277
 Vib (V=0)       0.169702D+06          5.229688         12.041801
 Vib (V=0)    1  0.662533D+01          0.821207          1.890900
 Vib (V=0)    2  0.516324D+01          0.712923          1.641565
 Vib (V=0)    3  0.456637D+01          0.659571          1.518718
 Vib (V=0)    4  0.365008D+01          0.562302          1.294749
 Vib (V=0)    5  0.256680D+01          0.409392          0.942659
 Vib (V=0)    6  0.177109D+01          0.248240          0.571594
 Vib (V=0)    7  0.172075D+01          0.235718          0.542760
 Vib (V=0)    8  0.157300D+01          0.196728          0.452982
 Vib (V=0)    9  0.147016D+01          0.167366          0.385374
 Vib (V=0)   10  0.143985D+01          0.158318          0.364540
 Vib (V=0)   11  0.141780D+01          0.151614          0.349105
 Vib (V=0)   12  0.132342D+01          0.121699          0.280222
 Vib (V=0)   13  0.126525D+01          0.102177          0.235272
 Vib (V=0)   14  0.125038D+01          0.097043          0.223449
 Vib (V=0)   15  0.121182D+01          0.083437          0.192120
 Vib (V=0)   16  0.119924D+01          0.078904          0.181684
 Vib (V=0)   17  0.118808D+01          0.074845          0.172337
 Vib (V=0)   18  0.115334D+01          0.061958          0.142663
 Vib (V=0)   19  0.110417D+01          0.043036          0.099095
 Vib (V=0)   20  0.108747D+01          0.036417          0.083854
 Vib (V=0)   21  0.107932D+01          0.033149          0.076329
 Vib (V=0)   22  0.106734D+01          0.028303          0.065170
 Vib (V=0)   23  0.106060D+01          0.025550          0.058832
 Vib (V=0)   24  0.105650D+01          0.023869          0.054962
 Electronic      0.100000D+01          0.000000          0.000000
 Translational   0.168585D+09          8.226819         18.942950
 Rotational      0.229538D+07          6.360854         14.646407
 ***** Axes restored to original set *****
 -------------------------------------------------------------------
 Center     Atomic                   Forces (Hartrees/Bohr)
 Number     Number              X              Y              Z
 -------------------------------------------------------------------
      1        6          -0.000022216    0.000059044   -0.000024779
      2        9          -0.000001802    0.000002254    0.000005488
      3        9           0.000011765   -0.000016378    0.000024208
      4        6           0.000017358   -0.000027677   -0.000006693
      5        9          -0.000003329    0.000001558   -0.000004107
      6        9          -0.000001450    0.000001621    0.000003647
      7        6           0.000008393    0.000018334    0.000005541
      8        9           0.000001338   -0.000002689   -0.000001117
      9        9          -0.000000665   -0.000012113   -0.000006550
     10        6          -0.000006801   -0.000013524   -0.000006627
     11        8           0.000000959    0.000006041   -0.000001203
     12        8           0.000000408    0.000003453   -0.000000260
     13        1          -0.000007154    0.000002864    0.000000496
     14        6          -0.000010052   -0.000027006    0.000014912
     15        9           0.000001427    0.000014349   -0.000019801
     16        9          -0.000008812    0.000007723    0.000010672
     17        9           0.000020631   -0.000017854    0.000006173
 -------------------------------------------------------------------
 Cartesian Forces:  Max     0.000059044 RMS     0.000014344

 GradGradGradGradGradGradGradGradGradGradGradGradGradGradGradGradGradGrad
 Berny optimization.
 Search for a local minimum.
 Step number   1 out of a maximum of    2
 All quantities printed in internal units (Hartrees-Bohrs-Radians)
 Second derivative matrix not updated -- analytic derivatives used.
 ITU=  0
     Eigenvalues ---    0.00059   0.00123   0.00153   0.00274   0.00520
     Eigenvalues ---    0.01433   0.02138   0.02299   0.03050   0.03643
     Eigenvalues ---    0.04176   0.04315   0.05885   0.06096   0.07258
     Eigenvalues ---    0.07569   0.08653   0.09329   0.10248   0.11205
     Eigenvalues ---    0.15467   0.18164   0.20059   0.21904   0.24659
     Eigenvalues ---    0.24968   0.27546   0.33702   0.34014   0.40144
     Eigenvalues ---    0.45753   0.58740   0.70454   0.73476   0.73976
     Eigenvalues ---    0.75231   0.76867   0.77718   0.80340   0.81054
     Eigenvalues ---    0.83049   0.85844   0.94080   1.14610   1.82028
 Angle between quadratic step and forces=  83.49 degrees.
 Linear search not attempted -- first point.
 B after Tr=     0.000026    0.000018   -0.000021
         Rot=    1.000000   -0.000006   -0.000004   -0.000007 Ang=  -0.00 deg.
 Variable       Old X    -DE/DX   Delta X   Delta X   Delta X     New X
                                 (Linear)    (Quad)   (Total)
    X1       -2.02421  -0.00002   0.00000  -0.00009  -0.00008  -2.02429
    Y1        1.01058   0.00006   0.00000   0.00025   0.00024   1.01082
    Z1       -0.04929  -0.00002   0.00000   0.00008   0.00009  -0.04920
    X2       -2.01801  -0.00000   0.00000  -0.00013  -0.00011  -2.01812
    Y2        2.36651   0.00000   0.00000  -0.00005  -0.00008   2.36642
    Z2        2.09030   0.00001   0.00000   0.00028   0.00031   2.09060
    X3       -2.10314   0.00001   0.00000  -0.00023  -0.00026  -2.10340
    Y3        2.57938  -0.00002   0.00000   0.00044   0.00046   2.57984
    Z3       -2.02765   0.00002   0.00000   0.00037   0.00040  -2.02725
    X4        0.44311   0.00002   0.00000   0.00002   0.00005   0.44316
    Y4       -0.58882  -0.00003   0.00000   0.00024   0.00026  -0.58856
    Z4       -0.19651  -0.00001   0.00000  -0.00028  -0.00032  -0.19683
    X5        0.21144  -0.00000   0.00000   0.00007   0.00014   0.21158
    Y5       -2.61073   0.00000   0.00000   0.00001   0.00001  -2.61071
    Z5        1.30841  -0.00000   0.00000  -0.00061  -0.00066   1.30775
    X6        0.74181  -0.00000   0.00000  -0.00011  -0.00008   0.74172
    Y6       -1.38769   0.00000   0.00000   0.00064   0.00070  -1.38699
    Z6       -2.58962   0.00000   0.00000  -0.00043  -0.00047  -2.59009
    X7        2.87341   0.00001   0.00000   0.00004   0.00005   2.87347
    Y7        0.88536   0.00002   0.00000   0.00017   0.00022   0.88558
    Z7        0.56792   0.00001   0.00000  -0.00029  -0.00032   0.56759
    X8        2.97257   0.00000   0.00000  -0.00018  -0.00014   2.97244
    Y8        1.07960  -0.00000   0.00000   0.00066   0.00068   1.08028
    Z8        3.09781  -0.00000   0.00000  -0.00031  -0.00035   3.09746
    X9        2.78036  -0.00000   0.00000   0.00027   0.00025   2.78061
    Y9        3.20177  -0.00001   0.00000  -0.00008  -0.00003   3.20174
    Z9       -0.42820  -0.00001   0.00000  -0.00085  -0.00085  -0.42905
   X10        5.30163  -0.00001   0.00000  -0.00000   0.00003   5.30166
   Y10       -0.43884  -0.00001   0.00000  -0.00024  -0.00015  -0.43899
   Z10       -0.40229  -0.00001   0.00000   0.00025   0.00017  -0.40211
   X11        6.63657   0.00000   0.00000   0.00061   0.00062   6.63718
   Y11        0.45380   0.00001   0.00000  -0.00036  -0.00023   0.45357
   Z11       -1.97444  -0.00000   0.00000   0.00070   0.00062  -1.97382
   X12        5.63843   0.00000   0.00000  -0.00072  -0.00066   5.63778
   Y12       -2.63256   0.00000   0.00000  -0.00032  -0.00024  -2.63279
   Z12        0.77076  -0.00000   0.00000   0.00028   0.00018   0.77094
   X13        7.15567  -0.00001   0.00000  -0.00073  -0.00066   7.15501
   Y13       -3.39797   0.00000   0.00000  -0.00061  -0.00050  -3.39847
   Z13        0.11167   0.00000   0.00000   0.00064   0.00051   0.11219
   X14       -4.49541  -0.00001   0.00000   0.00014   0.00017  -4.49524
   Y14       -0.58695  -0.00003   0.00000  -0.00022  -0.00026  -0.58721
   Z14       -0.07968   0.00001   0.00000   0.00014   0.00016  -0.07953
   X15       -4.77660   0.00000   0.00000   0.00049   0.00056  -4.77604
   Y15       -1.84213   0.00001   0.00000  -0.00034  -0.00041  -1.84254
   Z15        2.06797  -0.00002   0.00000   0.00005   0.00005   2.06802
   X16       -4.46371  -0.00001   0.00000   0.00016   0.00020  -4.46352
   Y16       -2.21690   0.00001   0.00000  -0.00008  -0.00010  -2.21700
   Z16       -1.98797   0.00001   0.00000   0.00005   0.00005  -1.98793
   X17       -6.44992   0.00002   0.00000  -0.00009  -0.00008  -6.45001
   Y17        0.95687  -0.00002   0.00000  -0.00052  -0.00058   0.95628
   Z17       -0.36695   0.00001   0.00000   0.00039   0.00044  -0.36651
         Item               Value     Threshold  Converged?
 Maximum Force            0.000059     0.000450     YES
 RMS     Force            0.000014     0.000300     YES
 Maximum Displacement     0.000853     0.001800     YES
 RMS     Displacement     0.000371     0.001200     YES
 Predicted change in Energy=-1.607740D-08
 Optimization completed.
    -- Stationary point found.
 GradGradGradGradGradGradGradGradGradGradGradGradGradGradGradGradGradGrad


 ----------------------------------------------------------------------

 Electric dipole moment (input orientation):
 (Debye = 10**-18 statcoulomb cm , SI units = C m)
                  (au)            (Debye)         (10**-30 SI)
   Tot        0.926044D+00      0.235377D+01      0.785132D+01
   x          0.469937D+00      0.119446D+01      0.398429D+01
   y         -0.771424D+00     -0.196076D+01     -0.654041D+01
   z          0.204012D+00      0.518546D+00      0.172968D+01

 Dipole polarizability, Alpha (input orientation).
 (esu units = cm**3 , SI units = C**2 m**2 J**-1)
 Alpha(0;0):
               (au)            (10**-24 esu)      (10**-40 SI)
   iso        0.719176D+02      0.106571D+02      0.118576D+02
   aniso      0.159909D+02      0.236961D+01      0.263655D+01
   xx         0.802647D+02      0.118940D+02      0.132339D+02
   yx        -0.225959D+01     -0.334837D+00     -0.372556D+00
   yy         0.683366D+02      0.101264D+02      0.112672D+02
   zx        -0.392724D+01     -0.581956D+00     -0.647514D+00
   zy        -0.347873D+01     -0.515495D+00     -0.573565D+00
   zz         0.671516D+02      0.995084D+01      0.110718D+02

 ----------------------------------------------------------------------

 Dipole orientation:
     6         -1.22193927         -0.30638514         -1.87992301
     9         -1.83309698          2.06296823         -2.53494673
     9          0.26320300         -1.30508660         -3.66268261
     6          0.24534327         -0.26418029          0.67207803
     9         -1.40156412          0.03709643          2.57036759
     9          1.41868591         -2.49881859          0.96192751
     6          2.28553801          1.85038606          0.84574132
     9          1.14722211          4.07600199          1.29160344
     9          3.52006512          1.98750361         -1.35056980
     6          4.23494079          1.31217748          2.96734730
     8          6.39520874          0.85000253          2.55482904
     8          3.14543826          1.45981309          5.22412815
     1          4.41180144          1.10621854          6.48648407
     6         -3.70962776         -1.87684914         -1.80987558
     9         -5.45615962         -0.72660095         -0.43382946
     9         -3.28087459         -4.15859050         -0.85639812
     9         -4.57109466         -2.12732259         -4.15106724

 Electric dipole moment (dipole orientation):
 (Debye = 10**-18 statcoulomb cm , SI units = C m)
                  (au)            (Debye)         (10**-30 SI)
   Tot        0.926044D+00      0.235377D+01      0.785132D+01
   x          0.000000D+00      0.000000D+00      0.000000D+00
   y          0.000000D+00      0.000000D+00      0.000000D+00
   z          0.926044D+00      0.235377D+01      0.785132D+01

 Dipole polarizability, Alpha (dipole orientation).
 (esu units = cm**3 , SI units = C**2 m**2 J**-1)
 Alpha(0;0):
               (au)            (10**-24 esu)      (10**-40 SI)
   iso        0.719176D+02      0.106571D+02      0.118576D+02
   aniso      0.159909D+02      0.236961D+01      0.263655D+01
   xx         0.785890D+02      0.116457D+02      0.129576D+02
   yx         0.587763D+00      0.870974D-01      0.969090D-01
   yy         0.635039D+02      0.941031D+01      0.104704D+02
   zx         0.458874D+01      0.679981D+00      0.756581D+00
   zy         0.216050D+01      0.320153D+00      0.356218D+00
   zz         0.736600D+02      0.109153D+02      0.121449D+02

 ----------------------------------------------------------------------
 1\1\GINC-CCLEARMN\Freq\RwB97XD\6-311+G(2d,2p)\C5H1F9O2\RAPPE\06-Feb-20
 21\0\\# freq wb97xd/6-311+g(2d,2p) geom=connectivity\\Title Card Requi
 red\\0,1\C,-1.071165,0.534775,-0.026083\F,-1.067883,1.252301,1.106137\
 F,-1.112934,1.364949,-1.072987\C,0.234483,-0.311591,-0.10399\F,0.11188
 9,-1.381537,0.692383\F,0.392547,-0.734333,-1.370366\C,1.520544,0.46851
 4,0.300528\F,1.573018,0.5713,1.63929\F,1.471302,1.694303,-0.226594\C,2
 .805501,-0.232225,-0.212882\O,3.511919,0.240143,-1.044829\O,2.98373,-1
 .393089,0.40787\H,3.786615,-1.798126,0.059094\C,-2.378867,-0.310603,-0
 .042167\F,-2.527667,-0.974815,1.094321\F,-2.362096,-1.173134,-1.051989
 \F,-3.413153,0.506352,-0.194179\\Version=EM64M-G16RevA.03\State=1-A\HF
 =-1240.2187616\RMSD=5.655e-09\RMSF=1.434e-05\ZeroPoint=0.0767333\Therm
 al=0.0913164\Dipole=0.469937,-0.7714241,0.2040116\DipoleDeriv=0.631965
 6,0.0298375,0.0250987,-0.2147114,0.9305502,-0.0094784,-0.0008031,-0.00
 34046,1.1988528,-0.3204952,-0.0024937,0.0072262,0.0081579,-0.4371282,-
 0.3297356,0.005105,-0.2362681,-0.6392813,-0.3098546,0.0182544,-0.01626
 91,0.0415817,-0.4958021,0.3339016,-0.0367255,0.2511733,-0.5769477,0.68
 00093,0.0149015,-0.0820783,0.0432654,0.8975027,-0.0929713,-0.0528205,-
 0.0797193,1.1047911,-0.338368,-0.0414347,0.0271928,-0.0688774,-0.61831
 67,0.3089792,0.0368685,0.2153734,-0.4092117,-0.357084,0.0301459,0.0535
 575,0.0360752,-0.3084077,-0.2382238,0.0579123,-0.1479539,-0.7287894,0.
 6133816,-0.0220114,0.061289,0.068726,1.0472677,-0.0377871,0.1357723,-0
 .0895775,1.1719934,-0.3254099,-0.0020353,-0.0348193,0.0069906,-0.26136
 99,-0.1240401,-0.0385724,-0.0531075,-0.8364643,-0.3084004,0.0152606,-0
 .0158058,0.0379278,-0.7539451,0.2137666,-0.0272051,0.138712,-0.3014062
 ,1.0178834,-0.0738927,-0.325902,-0.2880252,1.302763,-0.6131654,-0.4806
 381,-0.621365,0.884791,-0.7986061,-0.1598532,0.3607913,0.0580256,-0.60
 06357,0.1665081,0.3415638,0.3060453,-0.6752513,-0.4718157,0.2752783,-0
 .1246722,0.1789985,-1.0735111,0.4227157,-0.0196631,0.3069408,-0.492468
 8,0.3020796,-0.0413934,0.0665142,-0.0460324,0.3671218,0.0081887,0.0740
 922,0.0088123,0.2840893,1.6014094,-0.2057137,-0.0161936,0.0160614,1.47
 49474,-0.0043746,0.0009386,0.0058037,1.5834903,-0.3722765,-0.0973455,0
 .1225629,-0.0898965,-0.4336023,0.2905199,0.0640405,0.2494056,-0.699354
 4,-0.361172,-0.0647968,-0.0513152,-0.0348249,-0.545218,-0.3309057,0.00
 88146,-0.294688,-0.6058431,-0.8832464,0.3272923,-0.0571774,0.2465576,-
 0.4922159,0.036102,-0.0686799,0.0438174,-0.2629897\Polar=80.2647173,-2
 .2595894,68.336574,-3.9272355,-3.478731,67.1516252\Quadrupole=3.161846
 4,0.1974778,-3.3593242,-6.2152742,2.3279078,1.2565861\PG=C01 [X(C5H1F9
 O2)]\NImag=0\\0.52503389,-0.00172372,0.56746330,0.00080602,-0.00137954
 ,0.53187346,-0.07979978,0.00104875,0.00116926,0.06813197,0.00006021,-0
 .16198602,-0.10476704,0.00277011,0.17042754,-0.00030216,-0.11889524,-0
 .20199771,0.00148167,0.15442599,0.31375463,-0.07973428,0.00681586,-0.0
 0482235,0.01060622,-0.00042169,-0.00173702,0.07110954,0.00173221,-0.18
 707813,0.10850958,0.00001226,0.02699179,-0.00131363,-0.00613949,0.2077
 9803,-0.00432423,0.12351515,-0.18226079,-0.00218042,0.01210922,-0.0774
 6829,0.00619033,-0.16787660,0.28310833,-0.17072515,0.02558393,-0.00419
 435,0.01031551,-0.00550798,-0.00127388,0.00771037,-0.00011590,0.000348
 00,0.51894781,0.02710614,-0.09586334,-0.00559788,0.01518893,-0.0099705
 6,-0.01035882,0.01906622,-0.01776975,0.01159504,-0.00092251,0.55629671
 ,-0.00052462,-0.01118294,-0.04154950,0.02457622,-0.02896417,-0.0210125
 6,-0.02054532,0.02901709,-0.01896311,-0.00308795,0.00420040,0.52028466
 ,0.01235321,0.02156632,-0.01504962,-0.00113799,0.00096542,0.00162938,-
 0.00582614,0.00660135,-0.00338082,-0.08084108,-0.01502222,0.00632878,0
 .07676363,-0.01001186,-0.02490461,0.02780364,0.00198067,-0.00035186,-0
 .00408012,0.00862753,-0.00645678,0.00281719,-0.01334058,-0.24033833,0.
 09040109,0.02466994,0.28835883,0.00183870,0.01185752,-0.00830786,-0.00
 189063,0.00239163,0.00449790,-0.00285560,0.00189588,0.00048536,0.00847
 846,0.10564541,-0.12383387,-0.01858726,-0.16248494,0.19422420,0.004832
 00,0.01158133,0.02953014,-0.00683494,0.00754403,0.00507045,-0.00045262
 ,0.00091262,0.00072565,-0.08186014,0.01162481,0.01776005,0.00906656,-0
 .00330463,0.01110087,0.07368939,0.00185631,-0.00447444,-0.02438526,0.0
 0556371,-0.00433280,-0.00320409,0.00133310,0.00018381,-0.00188759,0.00
 727239,-0.10900452,-0.07721881,-0.00412265,0.01791064,0.03636807,-0.01
 195520,0.10537749,0.00291015,-0.00469731,-0.02936329,0.00499701,-0.003
 83065,-0.00082946,-0.00108638,-0.00060271,0.00733212,0.01778293,-0.092
 53377,-0.24241606,0.01111643,0.02307774,-0.06741240,-0.03311659,0.0975
 7140,0.36721553,-0.03077105,-0.01537105,-0.00911523,0.00318737,-0.0004
 1874,-0.00010131,0.00207377,0.00057150,0.00037725,-0.16830031,-0.02048
 899,-0.01439381,0.00608231,-0.00259619,0.00161638,0.01075118,0.0073779
 4,0.00750914,0.48590818,0.01489534,0.03341976,0.00408927,-0.00266482,-
 0.00476186,-0.00248471,-0.00237697,-0.00720544,0.00390089,-0.02099564,
 -0.08494542,-0.01811766,-0.02565246,-0.02744872,0.00686380,-0.00965516
 ,-0.00169872,-0.00765750,-0.01151763,0.56541096,-0.00049621,0.00606840
 ,0.01611226,-0.00178748,-0.00196711,-0.00601908,0.00207685,0.00095600,
 -0.00263855,-0.01851578,-0.02234107,-0.04939991,0.01708187,0.02721946,
 -0.00715137,-0.02432134,-0.02452229,-0.03398800,-0.01090468,-0.0013177
 5,0.52008237,0.00222317,0.00138083,0.00328950,-0.00485472,0.00114847,-
 0.00185927,-0.00005739,0.00007121,-0.00045755,0.00794718,-0.00491345,-
 0.02788130,-0.00025892,-0.00002782,-0.00148268,-0.00526013,-0.00580106
 ,-0.00743681,-0.07333993,0.00035908,-0.00245961,0.06149842,-0.00030489
 ,-0.00356185,-0.00131098,0.00124794,0.00146631,0.00164682,0.00010379,0
 .00068106,-0.00003889,0.00021759,0.00054503,-0.01611841,-0.00093353,0.
 00163407,-0.00319926,-0.00391036,-0.00246276,-0.00412940,-0.00122587,-
 0.07745127,-0.03547690,0.00011360,0.07595229,0.00044728,-0.00522718,-0
 .00644351,0.00009848,0.00261368,0.00457237,-0.00051102,-0.00069187,0.0
 0174943,-0.00150224,0.00312210,-0.03638407,0.00031230,-0.00239402,0.00
 624958,-0.00587778,-0.00471840,-0.00407426,-0.00884770,-0.05303266,-0.
 28022424,0.01304533,0.02416343,0.39989896,0.00322890,0.00399609,-0.000
 40747,-0.00215465,-0.00070924,0.00091117,-0.00549604,-0.00157340,-0.00
 088378,0.01045110,-0.02614191,0.01124136,-0.00632366,-0.00739851,0.000
 85280,-0.00086172,-0.00057477,-0.00236411,-0.07638247,-0.00012207,0.00
 186995,0.00938602,0.00312856,-0.00382052,0.07299256,0.00082044,-0.0074
 8649,0.00126949,0.00010437,0.00252354,0.00059302,0.00002177,0.00448570
 ,-0.00253539,0.00594041,-0.03345184,0.02216708,-0.00918019,-0.00744920
 ,0.00003223,-0.00160509,0.00051293,-0.00517472,0.00373258,-0.28487986,
 0.05539844,0.00280211,-0.00131720,0.03939998,-0.01142725,0.36690379,0.
 00020491,0.00191883,-0.00367721,0.00102439,0.00056009,0.00086736,-0.00
 268614,-0.00197483,0.00150846,0.00264605,0.00361128,0.00056574,-0.0000
 9649,-0.00057309,0.00132738,0.00051000,0.00113184,0.00373937,-0.002553
 77,0.07281149,-0.08880701,-0.00357596,0.05321635,-0.05006936,0.0020529
 1,-0.12750641,0.12886687,-0.00127926,0.00193883,-0.00072313,0.00097926
 ,-0.00033131,0.00004137,0.00071867,-0.00080536,0.00068485,-0.02999055,
 0.00009973,0.00229503,0.00239324,0.00212268,-0.00087427,0.00142307,0.0
 0150557,0.00310610,-0.14449484,0.04453201,0.01995107,0.01067538,-0.004
 51765,-0.00819829,0.00040643,-0.00157669,0.00347541,0.65691374,-0.0022
 7443,-0.00710566,-0.00227087,0.00020020,-0.00004377,0.00042701,-0.0001
 2435,0.00033811,-0.00015401,-0.01480255,0.03125444,0.00432917,0.002448
 77,-0.00819367,0.00332146,0.00133373,-0.00319458,-0.00041189,0.0223714
 5,-0.09140332,-0.03173860,0.00556193,0.00342531,0.00324901,0.03252813,
 -0.04042460,0.00274136,0.01755227,0.61170621,-0.00100657,-0.00575342,-
 0.00016289,0.00027018,0.00014545,-0.00015625,-0.00016390,0.00169563,-0
 .00152900,-0.00530491,0.00803252,0.01770922,-0.00138094,0.00004582,-0.
 00157469,0.00206189,-0.00050894,-0.00495967,-0.00340862,-0.02595612,-0
 .06494145,0.03033371,-0.01588748,-0.03954075,-0.00576569,0.02210313,0.
 00097324,-0.32585585,-0.26720223,0.64122689,0.00012590,-0.00325750,0.0
 0014124,-0.00034478,0.00020350,-0.00005969,-0.00035015,0.00081133,-0.0
 0072401,0.00038677,0.00667985,0.00321097,-0.00040053,-0.00083820,0.000
 06638,-0.00067080,-0.00134126,-0.00211679,-0.01727448,-0.01826773,0.02
 944966,-0.00634064,0.00531864,0.01142698,0.00097855,0.00082205,-0.0009
 7747,-0.36810195,-0.14287710,0.30937476,0.36523849,0.00018198,0.000703
 21,0.00055707,0.00005001,0.00018802,-0.00005994,0.00010840,0.00028495,
 -0.00017645,0.00196504,-0.00616073,-0.00033336,-0.00048499,0.00244170,
 -0.00102983,-0.00034134,0.00082493,0.00011760,0.00606429,0.00840530,0.
 00628987,-0.00071602,0.00045911,-0.00305874,0.00275373,0.00583086,-0.0
 0491019,-0.15235033,-0.20423928,0.19811440,0.18131905,0.22504721,0.000
 51839,0.00389626,-0.00032321,-0.00004536,-0.00011092,0.00022185,0.0001
 5685,-0.00116116,0.00107642,0.00209175,-0.00644654,-0.00841040,0.00054
 848,-0.00034276,0.00089627,-0.00202753,0.00063828,0.00363888,0.0322392
 8,0.01897965,-0.00685147,-0.00069767,-0.00221307,-0.00136414,-0.003971
 16,-0.00251644,0.00289062,0.31508896,0.19216945,-0.43183372,-0.3667110
 6,-0.26101614,0.47133157,0.00072189,-0.00076692,-0.00007748,-0.0003399
 0,0.00005885,0.00009071,-0.00036612,0.00017666,-0.00018757,0.00188731,
 0.00097035,0.00145199,-0.00454454,-0.00062374,0.00035336,-0.00096181,-
 0.00018531,-0.00114035,0.00069133,0.02629342,-0.01371158,-0.00173620,0
 .00157053,0.00377318,-0.00661464,0.00981871,0.00005360,-0.12299597,0.0
 6553282,0.00136467,0.03005854,-0.03202606,0.02033278,0.46477304,-0.000
 11770,0.00107354,0.00073866,0.00024480,0.00027510,-0.00006048,0.000295
 09,0.00038657,-0.00020395,-0.00023337,-0.00953936,-0.00079158,0.000295
 32,0.00481112,-0.00156336,-0.00003701,0.00188401,0.00032149,0.00728947
 ,-0.01890781,0.01852259,0.00132926,-0.00069425,-0.00500050,0.00530228,
 -0.00433932,-0.00101706,0.04445556,-0.26616842,0.09881047,-0.02343218,
 -0.03950086,0.06238504,-0.21390921,0.44377088,0.00007290,0.00035548,-0
 .00047444,-0.00006500,0.00007495,0.00024286,-0.00002954,-0.00029685,0.
 00035087,0.00038611,0.00049270,-0.00296063,0.00045570,-0.00104063,0.00
 120645,-0.00085673,0.00043319,0.00112941,0.00451186,-0.00171006,0.0042
 4932,-0.00020937,-0.00038603,0.00469014,0.00133574,-0.00445569,0.00156
 479,0.01402564,0.08305203,-0.12949086,0.01534980,0.06851329,-0.0258823
 1,-0.18192259,-0.09812318,0.24234799,-0.00012505,0.00036936,0.00007022
 ,0.00007689,-0.00012849,-0.00011019,0.00006126,-0.00010046,0.00002771,
 0.00016193,-0.00014817,0.00060507,-0.00016353,-0.00004409,-0.00011325,
 0.00034004,-0.00031663,-0.00037840,0.00289442,0.00207927,0.00053111,-0
 .00007524,-0.00065257,0.00033999,-0.00010630,-0.00010414,-0.00014077,-
 0.00693365,0.01364873,0.00004819,-0.00293856,-0.00671080,0.00210798,-0
 .36046712,0.17819538,0.14694654,0.36725349,0.00023034,-0.00009455,0.00
 003646,-0.00010580,0.00002736,0.00000015,-0.00008626,0.00004271,-0.000
 02852,0.00081353,-0.00056443,0.00008299,-0.00046763,0.00031919,-0.0002
 1105,-0.00029610,-0.00007681,-0.00011846,0.00139283,-0.00278277,0.0049
 5917,-0.00105198,0.00083191,0.00032333,0.00078619,-0.00143283,0.000144
 65,0.04800829,-0.02811040,-0.01490224,-0.00599224,0.00609388,-0.003395
 71,0.14278187,-0.11240377,-0.04688507,-0.18601419,0.13810900,0.0000101
 5,0.00022019,0.00013884,0.00001625,-0.00009756,-0.00010877,0.00001268,
 -0.00004742,-0.00001866,0.00045040,-0.00006658,0.00029225,0.00010296,0
 .00002113,-0.00009138,0.00009616,-0.00025415,-0.00040644,0.00272420,0.
 00404493,0.00027553,-0.00049529,-0.00037758,0.00074130,-0.00110171,0.0
 0119923,0.00008425,-0.02301134,0.01234076,0.01409631,0.00153352,-0.002
 97969,-0.00532026,0.16958988,-0.07396347,-0.09696187,-0.14993552,0.059
 98939,0.08728356,-0.15476961,-0.06826947,-0.00099593,0.00555153,0.0075
 8335,0.00421136,0.00386476,0.00954866,-0.00320954,-0.02801764,-0.00301
 045,0.00123993,0.00255029,-0.00148307,0.00106726,0.00296324,-0.0009886
 8,-0.00211923,-0.00140522,-0.00232719,-0.00139519,0.00095058,0.0005138
 2,0.00114972,0.00104126,0.00098306,0.00001637,-0.00247764,0.00156194,0
 .00141574,0.00169508,-0.00031092,-0.00109888,0.00112735,-0.00087762,0.
 00003582,-0.00030665,0.00028155,-0.00011742,0.58410806,-0.03448424,-0.
 08851071,-0.00248513,-0.01725574,-0.01812650,-0.01412261,-0.01710772,-
 0.02134907,0.01537186,0.01594058,0.03629082,0.00301405,-0.00434868,-0.
 00778552,0.00283110,-0.00135340,-0.00561310,-0.00472994,0.00329442,-0.
 00552292,-0.00328139,-0.00008052,-0.00007405,0.00166490,-0.00027298,-0
 .00136286,0.00030197,-0.00118200,0.00472887,0.00143906,0.00136818,-0.0
 0119081,-0.00109834,0.00069569,-0.00211282,0.00015967,-0.00002071,0.00
 019971,0.00000745,0.02162249,0.56288673,0.00041583,-0.00156167,-0.0362
 3924,-0.02334021,-0.03225622,-0.02650987,0.02107434,0.03442444,-0.0215
 6036,0.00108656,-0.00062569,0.01821718,0.00245496,0.00294515,-0.005234
 22,-0.00233879,-0.00210447,-0.00654296,0.00014600,-0.00047372,0.001634
 51,-0.00001852,-0.00020119,-0.00182756,0.00008194,0.00065233,-0.000541
 74,-0.00025728,-0.00032137,0.00114463,0.00034742,0.00012725,-0.0007510
 3,0.00001585,0.00020155,-0.00044623,0.00008934,0.00005179,0.00015637,-
 0.00097478,-0.00285760,0.55856288,0.00697200,-0.01115288,0.02540374,-0
 .00044352,-0.00139786,-0.00124600,-0.00589011,-0.00801563,0.00418592,0
 .00189650,0.00027260,-0.00186944,-0.00908109,0.00144794,0.00161073,-0.
 00023501,0.00020244,0.00053672,0.00045555,0.00037792,0.00064736,-0.000
 19414,-0.00006908,-0.00038211,-0.00031422,-0.00010835,-0.00011570,0.00
 063494,-0.00048928,-0.00032979,-0.00041415,0.00012119,0.00024802,-0.00
 031197,0.00031208,-0.00003792,0.00006454,-0.00008575,0.00002887,-0.094
 62225,-0.03092561,0.03480924,0.08324219,-0.00271288,-0.00690116,0.0270
 6839,-0.00029801,0.00045827,-0.00002757,-0.00557541,-0.00556390,0.0031
 1641,-0.00066206,-0.00725055,0.00177448,0.00257562,0.00379193,-0.00224
 654,-0.00009963,0.00071934,-0.00040888,-0.00027435,0.00056181,0.001158
 62,-0.00006705,0.00005984,-0.00070364,-0.00008812,0.00066130,-0.000302
 18,0.00033913,-0.00121851,-0.00006558,-0.00029077,0.00034862,0.0000811
 5,-0.00021674,0.00063963,-0.00014644,0.00002689,-0.00005898,0.00002878
 ,-0.03307698,-0.14160787,0.09293499,0.01270624,0.16645381,-0.00188628,
 0.00726227,-0.02236015,-0.00034983,0.00059267,0.00739869,0.00449416,0.
 00338656,-0.00024247,0.00014683,0.00485834,-0.00466140,-0.00030042,-0.
 00307803,0.00313565,0.00044539,0.00017611,0.00203223,0.00025086,-0.000
 45686,-0.00162155,0.00002315,0.00008561,0.00116708,0.00005970,-0.00055
 780,0.00040785,-0.00018096,0.00095346,-0.00018437,0.00012351,-0.000270
 37,0.00012143,0.00016572,-0.00048941,0.00022337,-0.00005124,0.00002388
 ,-0.00007231,0.04390698,0.09978976,-0.21838106,-0.03283382,-0.14876243
 ,0.33493300,0.01032093,-0.01340161,-0.02075545,-0.00581684,-0.00717545
 ,-0.00443224,-0.00055751,-0.00149270,0.00203772,0.00229328,0.00080196,
 0.00175262,-0.00108485,0.00041095,-0.00098847,-0.00540894,-0.00090475,
 -0.00006993,0.00070819,0.00014864,0.00011801,-0.00030406,-0.00006248,-
 0.00021365,-0.00023804,-0.00013263,0.00001363,0.00063161,-0.00032260,-
 0.00019492,-0.00036954,0.00007948,0.00018104,-0.00026442,0.00023701,-0
 .00002582,0.00007396,-0.00007438,0.00002393,-0.08622784,-0.02011354,-0
 .01426044,0.01338106,0.00450102,0.00992646,0.07612896,0.00475859,-0.01
 273584,-0.02953013,-0.00748377,-0.00623954,-0.00407208,-0.00075127,0.0
 0040119,0.00252737,0.00017032,-0.00646043,-0.00233228,0.00034865,0.002
 21654,0.00014503,-0.00081245,0.00255021,0.00281477,0.00004931,-0.00008
 452,-0.00010226,-0.00018525,0.00028390,0.00025270,-0.00016992,0.000571
 18,0.00000818,0.00040636,-0.00097261,-0.00030987,-0.00035426,0.0002980
 9,0.00028156,-0.00020668,0.00057112,0.00002295,-0.00002658,-0.00009062
 ,-0.00004766,-0.02508146,-0.17803056,-0.10335226,0.00312292,0.02277339
 ,-0.00203673,-0.00669247,0.22075645,0.00539081,-0.01108713,-0.01675466
 ,-0.00452082,-0.00304489,-0.00035444,-0.00187106,-0.00281496,0.0059320
 8,0.00074937,-0.00281977,-0.00557027,-0.00100210,0.00010404,0.00094857
 ,0.00113440,0.00215008,0.00397273,0.00004720,-0.00005435,-0.00058407,-
 0.00010448,0.00025746,0.00067602,-0.00013104,0.00016343,0.00017261,0.0
 0026708,-0.00039701,-0.00049565,-0.00027992,0.00011961,0.00036741,-0.0
 0010557,0.00022384,0.00014098,-0.00003932,-0.00005556,-0.00007034,-0.0
 2136885,-0.10803490,-0.18469546,0.00464935,-0.01725506,-0.08261610,-0.
 00257937,0.16843455,0.27660335,-0.04860771,0.03966185,-0.00426912,0.00
 287837,-0.00424318,-0.00231435,0.00258576,-0.00219485,0.00077049,-0.00
 226291,-0.01116287,-0.00215958,0.00045309,0.00040895,-0.00019277,-0.00
 051938,0.00107884,0.00187011,-0.00078401,0.00489397,0.00186600,-0.0002
 5938,-0.00053803,-0.00123993,0.00000693,-0.00091116,0.00014901,0.00149
 751,-0.00184966,-0.00145794,-0.00127777,0.00029726,0.00103812,-0.00065
 677,0.00065085,0.00002685,0.00018956,-0.00012027,0.00007227,-0.2360253
 0,0.08422378,-0.01933147,0.00485965,0.02321309,-0.02394021,-0.00326596
 ,0.03290794,0.01976431,0.28118832,-0.00001185,-0.00195702,0.00165426,-
 0.00060361,0.00345497,0.00158629,-0.00378861,0.00382913,-0.00205172,-0
 .00132321,-0.00306774,0.00007285,0.00074095,0.00144468,-0.00061716,0.0
 0037385,0.00089436,0.00039223,-0.00025098,-0.00070520,0.00017484,0.000
 07666,0.00022254,0.00003789,-0.00001682,0.00065490,-0.00016230,-0.0001
 9708,-0.00037812,0.00019941,0.00012864,0.00016579,-0.00013031,0.000035
 75,0.00025463,-0.00006030,-0.00005282,-0.00000860,-0.00001776,0.093330
 98,-0.13281935,0.01241670,0.03368110,-0.03386696,0.03852296,0.04419356
 ,-0.04580794,-0.02588937,-0.16631652,0.20768992,-0.00407507,0.00469034
 ,0.00178989,0.00054630,0.00212488,0.00290076,0.00230312,-0.00310516,0.
 00313816,-0.00028737,-0.00076765,-0.00190726,-0.00023323,-0.00044168,0
 .00063443,0.00010375,0.00033503,0.00093225,-0.00009706,0.00057136,-0.0
 0012732,-0.00001318,-0.00003047,0.00018301,0.00003990,-0.00023191,0.00
 012678,0.00016561,-0.00008773,-0.00028099,-0.00015528,-0.00000439,0.00
 019208,-0.00004661,0.00000934,0.00007017,0.00000254,-0.00001520,-0.000
 01840,-0.02176337,0.01203008,-0.07698583,-0.03530518,0.04375550,-0.019
 27988,0.02946690,-0.03270384,0.00232726,0.02934821,-0.02612851,0.08630
 486\\0.00002222,-0.00005904,0.00002478,0.00000180,-0.00000225,-0.00000
 549,-0.00001176,0.00001638,-0.00002421,-0.00001736,0.00002768,0.000006
 69,0.00000333,-0.00000156,0.00000411,0.00000145,-0.00000162,-0.0000036
 5,-0.00000839,-0.00001833,-0.00000554,-0.00000134,0.00000269,0.0000011
 2,0.00000067,0.00001211,0.00000655,0.00000680,0.00001352,0.00000663,-0
 .00000096,-0.00000604,0.00000120,-0.00000041,-0.00000345,0.00000026,0.
 00000715,-0.00000286,-0.00000050,0.00001005,0.00002701,-0.00001491,-0.
 00000143,-0.00001435,0.00001980,0.00000881,-0.00000772,-0.00001067,-0.
 00002063,0.00001785,-0.00000617\\\@


 IF YOU WANT TO LEARN FROM THE THEORETICAL PHYSICISTS ABOUT THE
 METHODS WHICH THEY USE, I ADVISE YOU TO FOLLOW THIS PRINCIPLE VERY STRICTLY:
 DON'T LISTEN TO THEIR WORDS; PAY ATTENTION, INSTEAD, TO THEIR ACTIONS.
 -- A.EINSTEIN, 1934
 Job cpu time:       0 days  7 hours 35 minutes 30.6 seconds.
 Elapsed time:       0 days  0 hours 58 minutes 48.9 seconds.
 File lengths (MBytes):  RWF=    338 Int=      0 D2E=      0 Chk=     16 Scr=      1
 Normal termination of Gaussian 16 at Sat Feb  6 15:51:18 2021.
