 Entering Gaussian System, Link 0=/applications/g16/g16/g16
 Initial command:
 /applications/g16/g16/l1.exe "/scratch/g98/Gau-60837.inp" -scrdir="/scratch/g98/"
 Entering Link 1 = /applications/g16/g16/l1.exe PID=     60838.
  
 Copyright (c) 1988,1990,1992,1993,1995,1998,2003,2009,2016,
            Gaussian, Inc.  All Rights Reserved.
  
 This is part of the Gaussian(R) 16 program.  It is based on
 the Gaussian(R) 09 system (copyright 2009, Gaussian, Inc.),
 the Gaussian(R) 03 system (copyright 2003, Gaussian, Inc.),
 the Gaussian(R) 98 system (copyright 1998, Gaussian, Inc.),
 the Gaussian(R) 94 system (copyright 1995, Gaussian, Inc.),
 the Gaussian 92(TM) system (copyright 1992, Gaussian, Inc.),
 the Gaussian 90(TM) system (copyright 1990, Gaussian, Inc.),
 the Gaussian 88(TM) system (copyright 1988, Gaussian, Inc.),
 the Gaussian 86(TM) system (copyright 1986, Carnegie Mellon
 University), and the Gaussian 82(TM) system (copyright 1983,
 Carnegie Mellon University). Gaussian is a federally registered
 trademark of Gaussian, Inc.
  
 This software contains proprietary and confidential information,
 including trade secrets, belonging to Gaussian, Inc.
  
 This software is provided under written license and may be
 used, copied, transmitted, or stored only in accord with that
 written license.
  
 The following legend is applicable only to US Government
 contracts under FAR:
  
                    RESTRICTED RIGHTS LEGEND
  
 Use, reproduction and disclosure by the US Government is
 subject to restrictions as set forth in subparagraphs (a)
 and (c) of the Commercial Computer Software - Restricted
 Rights clause in FAR 52.227-19.
  
 Gaussian, Inc.
 340 Quinnipiac St., Bldg. 40, Wallingford CT 06492
  
  
 ---------------------------------------------------------------
 Warning -- This program may not be used in any manner that
 competes with the business of Gaussian, Inc. or will provide
 assistance to any competitor of Gaussian, Inc.  The licensee
 of this program is prohibited from giving any competitor of
 Gaussian, Inc. access to this program.  By using this program,
 the user acknowledges that Gaussian, Inc. is engaged in the
 business of creating and licensing software in the field of
 computational chemistry and represents and warrants to the
 licensee that it is not a competitor of Gaussian, Inc. and that
 it will not use this program in any manner prohibited above.
 ---------------------------------------------------------------
  

 Cite this work as:
 Gaussian 16, Revision A.03,
 M. J. Frisch, G. W. Trucks, H. B. Schlegel, G. E. Scuseria, 
 M. A. Robb, J. R. Cheeseman, G. Scalmani, V. Barone, 
 G. A. Petersson, H. Nakatsuji, X. Li, M. Caricato, A. V. Marenich, 
 J. Bloino, B. G. Janesko, R. Gomperts, B. Mennucci, H. P. Hratchian, 
 J. V. Ortiz, A. F. Izmaylov, J. L. Sonnenberg, D. Williams-Young, 
 F. Ding, F. Lipparini, F. Egidi, J. Goings, B. Peng, A. Petrone, 
 T. Henderson, D. Ranasinghe, V. G. Zakrzewski, J. Gao, N. Rega, 
 G. Zheng, W. Liang, M. Hada, M. Ehara, K. Toyota, R. Fukuda, 
 J. Hasegawa, M. Ishida, T. Nakajima, Y. Honda, O. Kitao, H. Nakai, 
 T. Vreven, K. Throssell, J. A. Montgomery, Jr., J. E. Peralta, 
 F. Ogliaro, M. J. Bearpark, J. J. Heyd, E. N. Brothers, K. N. Kudin, 
 V. N. Staroverov, T. A. Keith, R. Kobayashi, J. Normand, 
 K. Raghavachari, A. P. Rendell, J. C. Burant, S. S. Iyengar, 
 J. Tomasi, M. Cossi, J. M. Millam, M. Klene, C. Adamo, R. Cammi, 
 J. W. Ochterski, R. L. Martin, K. Morokuma, O. Farkas, 
 J. B. Foresman, and D. J. Fox, Gaussian, Inc., Wallingford CT, 2016.
 
 ******************************************
 Gaussian 16:  EM64M-G16RevA.03 25-Dec-2016
                12-Aug-2023 
 ******************************************
 %mem=48GB
 %nprocshared=24
 Will use up to   24 processors via shared memory.
 %chk=2_propyl.chk
 -----------------------------------------------
 # opt wb97xd/6-311+g(2d) geom=connectivity freq
 -----------------------------------------------
 1/18=20,19=15,26=3,38=1,57=2/1,3;
 2/9=110,12=2,17=6,18=5,40=1/2;
 3/5=4,6=6,7=12,11=2,25=1,30=1,71=1,74=-58/1,2,3;
 4//1;
 5/5=2,38=5/2;
 6/7=2,8=2,9=2,10=2,28=1/1;
 7//1,2,3,16;
 1/18=20,19=15,26=3/3(2);
 2/9=110/2;
 99//99;
 2/9=110/2;
 3/5=4,6=6,7=12,11=2,25=1,30=1,71=1,74=-58/1,2,3;
 4/5=5,16=3,69=1/1;
 5/5=2,38=5/2;
 7//1,2,3,16;
 1/18=20,19=15,26=3/3(-5);
 2/9=110/2;
 6/7=2,8=2,9=2,10=2,19=2,28=1/1;
 99/9=1/99;
 -------------------
 Title Card Required
 -------------------
 Symbolic Z-matrix:
 Charge =  0 Multiplicity = 2
 C                    -0.39675   0.05221   0.88745 
 F                    -0.39564   1.38896   1.07613 
 F                     0.50242  -0.51995   1.71609 
 F                    -0.91982   0.31176  -1.40146 
 F                    -1.62671  -0.43832   1.15026 
 F                     2.28158  -0.27299  -0.04399 
 F                     1.38342   1.51562  -0.70092 
 C                    -0.02065  -0.2604   -0.57283 
 C                     1.38241   0.29918  -0.87262 
 F                     1.86854   0.2173   -2.1294 
 

 GradGradGradGradGradGradGradGradGradGradGradGradGradGradGradGradGradGrad
 Berny optimization.
 Initialization pass.
                           ----------------------------
                           !    Initial Parameters    !
                           ! (Angstroms and Degrees)  !
 --------------------------                            --------------------------
 ! Name  Definition              Value          Derivative Info.                !
 --------------------------------------------------------------------------------
 ! R1    R(1,2)                  1.35           estimate D2E/DX2                !
 ! R2    R(1,3)                  1.35           estimate D2E/DX2                !
 ! R3    R(1,5)                  1.35           estimate D2E/DX2                !
 ! R4    R(1,8)                  1.54           estimate D2E/DX2                !
 ! R5    R(4,8)                  1.35           estimate D2E/DX2                !
 ! R6    R(6,9)                  1.35           estimate D2E/DX2                !
 ! R7    R(7,9)                  1.2285         estimate D2E/DX2                !
 ! R8    R(8,9)                  1.54           estimate D2E/DX2                !
 ! R9    R(9,10)                 1.35           estimate D2E/DX2                !
 ! A1    A(2,1,3)              109.4712         estimate D2E/DX2                !
 ! A2    A(2,1,5)              109.4712         estimate D2E/DX2                !
 ! A3    A(2,1,8)              109.4712         estimate D2E/DX2                !
 ! A4    A(3,1,5)              109.4712         estimate D2E/DX2                !
 ! A5    A(3,1,8)              109.4712         estimate D2E/DX2                !
 ! A6    A(5,1,8)              109.4712         estimate D2E/DX2                !
 ! A7    A(1,8,4)              109.4712         estimate D2E/DX2                !
 ! A8    A(1,8,9)              109.4712         estimate D2E/DX2                !
 ! A9    A(4,8,9)              109.4712         estimate D2E/DX2                !
 ! A10   A(6,9,7)              109.4712         estimate D2E/DX2                !
 ! A11   A(6,9,8)              109.4712         estimate D2E/DX2                !
 ! A12   A(6,9,10)             107.8104         estimate D2E/DX2                !
 ! A13   A(7,9,8)              109.4712         estimate D2E/DX2                !
 ! A14   A(7,9,10)             100.9452         estimate D2E/DX2                !
 ! A15   A(8,9,10)             119.161          estimate D2E/DX2                !
 ! D1    D(2,1,8,4)            -60.0            estimate D2E/DX2                !
 ! D2    D(2,1,8,9)             60.0            estimate D2E/DX2                !
 ! D3    D(3,1,8,4)            180.0            estimate D2E/DX2                !
 ! D4    D(3,1,8,9)            -60.0            estimate D2E/DX2                !
 ! D5    D(5,1,8,4)             60.0            estimate D2E/DX2                !
 ! D6    D(5,1,8,9)            180.0            estimate D2E/DX2                !
 ! D7    D(1,8,9,6)             60.0            estimate D2E/DX2                !
 ! D8    D(1,8,9,7)            -60.0            estimate D2E/DX2                !
 ! D9    D(1,8,9,10)          -175.3342         estimate D2E/DX2                !
 ! D10   D(4,8,9,6)            180.0            estimate D2E/DX2                !
 ! D11   D(4,8,9,7)             60.0            estimate D2E/DX2                !
 ! D12   D(4,8,9,10)           -55.3342         estimate D2E/DX2                !
 --------------------------------------------------------------------------------
 Trust Radius=3.00D-01 FncErr=1.00D-07 GrdErr=1.00D-06 EigMax=2.50D+02 EigMin=1.00D-04
 Number of steps in this run=     46 maximum allowed number of steps=    100.
 GradGradGradGradGradGradGradGradGradGradGradGradGradGradGradGradGradGrad

                          Input orientation:                          
 ---------------------------------------------------------------------
 Center     Atomic      Atomic             Coordinates (Angstroms)
 Number     Number       Type             X           Y           Z
 ---------------------------------------------------------------------
      1          6           0       -0.396747    0.052215    0.887453
      2          9           0       -0.395642    1.388964    1.076133
      3          9           0        0.502418   -0.519949    1.716085
      4          9           0       -0.919820    0.311763   -1.401461
      5          9           0       -1.626708   -0.438324    1.150260
      6          9           0        2.281577   -0.272988   -0.043992
      7          9           0        1.383418    1.515618   -0.700925
      8          6           0       -0.020655   -0.260401   -0.572830
      9          6           0        1.382412    0.299176   -0.872623
     10          9           0        1.868540    0.217299   -2.129396
 ---------------------------------------------------------------------
                    Distance matrix (angstroms):
                    1          2          3          4          5
     1  C    0.000000
     2  F    1.350000   0.000000
     3  F    1.350000   2.204541   0.000000
     4  F    2.362224   2.752017   3.526131   0.000000
     5  F    1.350000   2.204541   2.204541   2.752017   0.000000
     6  F    2.854254   3.344289   2.514809   3.526131   4.090020
     7  F    2.798835   2.517743   3.280492   2.691639   4.038023
     8  C    1.540000   2.362224   2.362224   1.350000   2.362224
     9  C    2.514809   2.854254   2.854254   2.362224   3.700104
    10  F    3.776262   4.095697   4.146992   2.883359   4.837637
                    6          7          8          9         10
     6  F    0.000000
     7  F    2.106505   0.000000
     8  C    2.362224   2.267614   0.000000
     9  C    1.350000   1.228500   1.540000   0.000000
    10  F    2.181717   1.990353   2.494023   1.350000   0.000000
 Stoichiometry    C3F7(2)
 Framework group  C1[X(C3F7)]
 Deg. of freedom    24
 Full point group                 C1      NOp   1
 Largest Abelian subgroup         C1      NOp   1
 Largest concise Abelian subgroup C1      NOp   1
                         Standard orientation:                         
 ---------------------------------------------------------------------
 Center     Atomic      Atomic             Coordinates (Angstroms)
 Number     Number       Type             X           Y           Z
 ---------------------------------------------------------------------
      1          6           0       -1.268583   -0.146642   -0.031776
      2          9           0       -1.246333   -0.051302    1.314669
      3          9           0       -1.254366   -1.447877   -0.391060
      4          9           0       -0.046549    1.862258   -0.257720
      5          9           0       -2.388779    0.438897   -0.505914
      6          9           0        1.259739   -1.408160   -0.435419
      7          9           0        1.265769   -0.020165    1.149130
      8          6           0       -0.032331    0.561023   -0.617004
      9          6           0        1.245521   -0.106925   -0.076135
     10          9           0        2.447448    0.421379   -0.390408
 ---------------------------------------------------------------------
 Rotational constants (GHZ):           2.1713547           1.1027680           0.9449288
 Standard basis: 6-311+G(2d) (5D, 7F)
 There are   290 symmetry adapted cartesian basis functions of A   symmetry.
 There are   270 symmetry adapted basis functions of A   symmetry.
   270 basis functions,   420 primitive gaussians,   290 cartesian basis functions
    41 alpha electrons       40 beta electrons
       nuclear repulsion energy       651.5755962580 Hartrees.
 NAtoms=   10 NActive=   10 NUniq=   10 SFac= 1.00D+00 NAtFMM=   60 NAOKFM=F Big=F
 Integral buffers will be    131072 words long.
 Raffenetti 2 integral format.
 Two-electron integral symmetry is turned on.
 Nuclear repulsion after empirical dispersion term =      651.5718135021 Hartrees.
 One-electron integrals computed using PRISM.
 NBasis=   270 RedAO= T EigKep=  9.70D-05  NBF=   270
 NBsUse=   270 1.00D-06 EigRej= -1.00D+00 NBFU=   270
 ExpMin= 4.38D-02 ExpMax= 1.14D+04 ExpMxC= 1.72D+03 IAcc=3 IRadAn=         5 AccDes= 0.00D+00
 Harris functional with IExCor= 4639 and IRadAn=       5 diagonalized for initial guess.
 HarFok:  IExCor= 4639 AccDes= 0.00D+00 IRadAn=         5 IDoV= 1 UseB2=F ITyADJ=14
 ICtDFT=  3500011 ScaDFX=  1.000000  1.000000  1.000000  1.000000
 FoFCou: FMM=F IPFlag=           0 FMFlag=      100000 FMFlg1=           0
         NFxFlg=           0 DoJE=T BraDBF=F KetDBF=T FulRan=T
         wScrn=  0.000000 ICntrl=       500 IOpCl=  0 I1Cent=   200000004 NGrid=           0
         NMat0=    1 NMatS0=      1 NMatT0=    0 NMatD0=    1 NMtDS0=    0 NMtDT0=    0
 Petite list used in FoFCou.
 Initial guess <Sx>= 0.0000 <Sy>= 0.0000 <Sz>= 0.5000 <S**2>= 0.7500 S= 0.5000
 Keep R1 and R2 ints in memory in canonical form, NReq=2703878162.
 Requested convergence on RMS density matrix=1.00D-08 within 128 cycles.
 Requested convergence on MAX density matrix=1.00D-06.
 Requested convergence on             energy=1.00D-06.
 No special actions if energy rises.
 SCF Done:  E(UwB97XD) =  -813.163921874     A.U. after   15 cycles
            NFock= 15  Conv=0.54D-08     -V/T= 2.0024
 <Sx>= 0.0000 <Sy>= 0.0000 <Sz>= 0.5000 <S**2>= 0.7533 S= 0.5016
 <L.S>= 0.000000000000E+00
 Annihilation of the first spin contaminant:
 S**2 before annihilation     0.7533,   after     0.7500

 **********************************************************************

            Population analysis using the SCF density.

 **********************************************************************

 Orbital symmetries:
 Alpha Orbitals:
       Occupied  (A) (A) (A) (A) (A) (A) (A) (A) (A) (A) (A) (A)
                 (A) (A) (A) (A) (A) (A) (A) (A) (A) (A) (A) (A)
                 (A) (A) (A) (A) (A) (A) (A) (A) (A) (A) (A) (A)
                 (A) (A) (A) (A) (A)
       Virtual   (A) (A) (A) (A) (A) (A) (A) (A) (A) (A) (A) (A)
                 (A) (A) (A) (A) (A) (A) (A) (A) (A) (A) (A) (A)
                 (A) (A) (A) (A) (A) (A) (A) (A) (A) (A) (A) (A)
                 (A) (A) (A) (A) (A) (A) (A) (A) (A) (A) (A) (A)
                 (A) (A) (A) (A) (A) (A) (A) (A) (A) (A) (A) (A)
                 (A) (A) (A) (A) (A) (A) (A) (A) (A) (A) (A) (A)
                 (A) (A) (A) (A) (A) (A) (A) (A) (A) (A) (A) (A)
                 (A) (A) (A) (A) (A) (A) (A) (A) (A) (A) (A) (A)
                 (A) (A) (A) (A) (A) (A) (A) (A) (A) (A) (A) (A)
                 (A) (A) (A) (A) (A) (A) (A) (A) (A) (A) (A) (A)
                 (A) (A) (A) (A) (A) (A) (A) (A) (A) (A) (A) (A)
                 (A) (A) (A) (A) (A) (A) (A) (A) (A) (A) (A) (A)
                 (A) (A) (A) (A) (A) (A) (A) (A) (A) (A) (A) (A)
                 (A) (A) (A) (A) (A) (A) (A) (A) (A) (A) (A) (A)
                 (A) (A) (A) (A) (A) (A) (A) (A) (A) (A) (A) (A)
                 (A) (A) (A) (A) (A) (A) (A) (A) (A) (A) (A) (A)
                 (A) (A) (A) (A) (A) (A) (A) (A) (A) (A) (A) (A)
                 (A) (A) (A) (A) (A) (A) (A) (A) (A) (A) (A) (A)
                 (A) (A) (A) (A) (A) (A) (A) (A) (A) (A) (A) (A)
                 (A)
 Beta  Orbitals:
       Occupied  (A) (A) (A) (A) (A) (A) (A) (A) (A) (A) (A) (A)
                 (A) (A) (A) (A) (A) (A) (A) (A) (A) (A) (A) (A)
                 (A) (A) (A) (A) (A) (A) (A) (A) (A) (A) (A) (A)
                 (A) (A) (A) (A)
       Virtual   (A) (A) (A) (A) (A) (A) (A) (A) (A) (A) (A) (A)
                 (A) (A) (A) (A) (A) (A) (A) (A) (A) (A) (A) (A)
                 (A) (A) (A) (A) (A) (A) (A) (A) (A) (A) (A) (A)
                 (A) (A) (A) (A) (A) (A) (A) (A) (A) (A) (A) (A)
                 (A) (A) (A) (A) (A) (A) (A) (A) (A) (A) (A) (A)
                 (A) (A) (A) (A) (A) (A) (A) (A) (A) (A) (A) (A)
                 (A) (A) (A) (A) (A) (A) (A) (A) (A) (A) (A) (A)
                 (A) (A) (A) (A) (A) (A) (A) (A) (A) (A) (A) (A)
                 (A) (A) (A) (A) (A) (A) (A) (A) (A) (A) (A) (A)
                 (A) (A) (A) (A) (A) (A) (A) (A) (A) (A) (A) (A)
                 (A) (A) (A) (A) (A) (A) (A) (A) (A) (A) (A) (A)
                 (A) (A) (A) (A) (A) (A) (A) (A) (A) (A) (A) (A)
                 (A) (A) (A) (A) (A) (A) (A) (A) (A) (A) (A) (A)
                 (A) (A) (A) (A) (A) (A) (A) (A) (A) (A) (A) (A)
                 (A) (A) (A) (A) (A) (A) (A) (A) (A) (A) (A) (A)
                 (A) (A) (A) (A) (A) (A) (A) (A) (A) (A) (A) (A)
                 (A) (A) (A) (A) (A) (A) (A) (A) (A) (A) (A) (A)
                 (A) (A) (A) (A) (A) (A) (A) (A) (A) (A) (A) (A)
                 (A) (A) (A) (A) (A) (A) (A) (A) (A) (A) (A) (A)
                 (A) (A)
 The electronic state is 2-A.
 Alpha  occ. eigenvalues --  -24.89325 -24.89129 -24.88228 -24.87890 -24.87883
 Alpha  occ. eigenvalues --  -24.86449 -24.85833 -10.59184 -10.57834 -10.47084
 Alpha  occ. eigenvalues --   -1.50375  -1.45690  -1.40456  -1.38115  -1.37180
 Alpha  occ. eigenvalues --   -1.36926  -1.35470  -0.95604  -0.85405  -0.80757
 Alpha  occ. eigenvalues --   -0.74920  -0.74615  -0.74250  -0.72622  -0.71378
 Alpha  occ. eigenvalues --   -0.70518  -0.63932  -0.61585  -0.60507  -0.59817
 Alpha  occ. eigenvalues --   -0.59435  -0.58379  -0.57401  -0.56525  -0.56058
 Alpha  occ. eigenvalues --   -0.55124  -0.54216  -0.53692  -0.52334  -0.48794
 Alpha  occ. eigenvalues --   -0.40951
 Alpha virt. eigenvalues --    0.06600   0.08179   0.09088   0.09387   0.11852
 Alpha virt. eigenvalues --    0.12277   0.12925   0.12968   0.13954   0.15355
 Alpha virt. eigenvalues --    0.16952   0.17129   0.19059   0.20730   0.21324
 Alpha virt. eigenvalues --    0.22001   0.23738   0.27380   0.28628   0.29172
 Alpha virt. eigenvalues --    0.30350   0.31148   0.31842   0.33433   0.34390
 Alpha virt. eigenvalues --    0.35361   0.35982   0.36030   0.37388   0.37538
 Alpha virt. eigenvalues --    0.39735   0.40509   0.40583   0.40945   0.42206
 Alpha virt. eigenvalues --    0.42367   0.42972   0.43754   0.44122   0.44661
 Alpha virt. eigenvalues --    0.46265   0.47335   0.48742   0.49887   0.50478
 Alpha virt. eigenvalues --    0.52496   0.53936   0.54443   0.60220   0.63301
 Alpha virt. eigenvalues --    0.64058   0.66694   0.72070   0.72683   0.74434
 Alpha virt. eigenvalues --    0.75722   0.76743   0.77448   0.84589   0.87115
 Alpha virt. eigenvalues --    0.90030   0.95182   1.00202   1.02880   1.04661
 Alpha virt. eigenvalues --    1.13097   1.16275   1.17488   1.23550   1.24108
 Alpha virt. eigenvalues --    1.28692   1.31839   1.32304   1.33777   1.35442
 Alpha virt. eigenvalues --    1.38172   1.38304   1.39298   1.40328   1.40987
 Alpha virt. eigenvalues --    1.43343   1.44803   1.45324   1.46069   1.47242
 Alpha virt. eigenvalues --    1.47606   1.48213   1.50744   1.52084   1.54224
 Alpha virt. eigenvalues --    1.54994   1.55593   1.56947   1.57592   1.60380
 Alpha virt. eigenvalues --    1.62078   1.68335   1.90518   1.91890   1.94401
 Alpha virt. eigenvalues --    2.02282   2.02722   2.03706   2.04540   2.04735
 Alpha virt. eigenvalues --    2.06359   2.07389   2.07908   2.11549   2.12315
 Alpha virt. eigenvalues --    2.14114   2.16258   2.17260   2.18172   2.20011
 Alpha virt. eigenvalues --    2.20840   2.24193   2.29013   2.31815   2.33658
 Alpha virt. eigenvalues --    2.38971   2.44674   2.47467   2.54115   2.54941
 Alpha virt. eigenvalues --    2.58471   2.60976   2.65369   2.67772   2.69066
 Alpha virt. eigenvalues --    2.71629   2.74628   2.77807   2.80235   2.88015
 Alpha virt. eigenvalues --    2.93432   2.96409   3.11435   3.15708   3.24536
 Alpha virt. eigenvalues --    3.26640   3.39322   3.42842   3.45784   3.46481
 Alpha virt. eigenvalues --    3.48321   3.50003   3.55187   3.56247   3.57472
 Alpha virt. eigenvalues --    3.59607   3.60973   3.63265   3.68676   3.73714
 Alpha virt. eigenvalues --    3.83430   3.92839   4.25485   4.27048   4.32075
 Alpha virt. eigenvalues --    4.35780   4.37033   4.47859   6.32592   6.37547
 Alpha virt. eigenvalues --    6.39998   6.41874   6.42379   6.43194   6.44009
 Alpha virt. eigenvalues --    6.44455   6.44971   6.47147   6.48950   6.49503
 Alpha virt. eigenvalues --    6.52589   6.55723   6.58914   6.59484   6.72380
 Alpha virt. eigenvalues --    6.80797   6.84110   6.87377   7.06156   9.07540
 Alpha virt. eigenvalues --    9.07896   9.09253   9.09914   9.10840   9.12093
 Alpha virt. eigenvalues --    9.13047   9.13818   9.18336   9.18871   9.20783
 Alpha virt. eigenvalues --    9.21213   9.22389   9.23125   9.25250   9.27507
 Alpha virt. eigenvalues --    9.30641   9.32705   9.34436   9.36054   9.40044
 Alpha virt. eigenvalues --    9.43625   9.47456   9.54680   9.65264   9.68678
 Alpha virt. eigenvalues --    9.70434   9.71347   9.73045   9.73807   9.76508
 Alpha virt. eigenvalues --    9.83744   9.86698   9.88250   9.91033  23.83494
 Alpha virt. eigenvalues --   23.95431  24.12230  66.90787  66.91427  66.93625
 Alpha virt. eigenvalues --   66.96319  66.97891  66.98610  67.03235
  Beta  occ. eigenvalues --  -24.89026 -24.88964 -24.88130 -24.87888 -24.87877
  Beta  occ. eigenvalues --  -24.86450 -24.85838 -10.59183 -10.57826 -10.45771
  Beta  occ. eigenvalues --   -1.50185  -1.45574  -1.39516  -1.38025  -1.37031
  Beta  occ. eigenvalues --   -1.36888  -1.35466  -0.93605  -0.85109  -0.80223
  Beta  occ. eigenvalues --   -0.74562  -0.74313  -0.73644  -0.72418  -0.71197
  Beta  occ. eigenvalues --   -0.69799  -0.62035  -0.60781  -0.60170  -0.59353
  Beta  occ. eigenvalues --   -0.59009  -0.58213  -0.56648  -0.56465  -0.55431
  Beta  occ. eigenvalues --   -0.54898  -0.54114  -0.53660  -0.52261  -0.48030
  Beta virt. eigenvalues --   -0.09011   0.07102   0.08472   0.09126   0.09969
  Beta virt. eigenvalues --    0.12118   0.12473   0.12945   0.13226   0.14348
  Beta virt. eigenvalues --    0.15534   0.17275   0.17692   0.19213   0.21481
  Beta virt. eigenvalues --    0.22236   0.22768   0.23832   0.28089   0.29384
  Beta virt. eigenvalues --    0.30190   0.30619   0.31252   0.32323   0.34053
  Beta virt. eigenvalues --    0.34585   0.35529   0.36101   0.36534   0.37480
  Beta virt. eigenvalues --    0.37584   0.39810   0.40611   0.40650   0.41034
  Beta virt. eigenvalues --    0.42262   0.42484   0.43006   0.43779   0.44261
  Beta virt. eigenvalues --    0.44811   0.46359   0.47472   0.48895   0.49895
  Beta virt. eigenvalues --    0.50567   0.52486   0.54029   0.54619   0.61296
  Beta virt. eigenvalues --    0.63466   0.64436   0.66768   0.72581   0.73045
  Beta virt. eigenvalues --    0.75213   0.75940   0.77712   0.78724   0.84990
  Beta virt. eigenvalues --    0.87694   0.90553   0.95625   1.00142   1.03749
  Beta virt. eigenvalues --    1.05313   1.13265   1.16581   1.17818   1.24272
  Beta virt. eigenvalues --    1.24835   1.29439   1.32196   1.32688   1.33941
  Beta virt. eigenvalues --    1.35713   1.38553   1.38745   1.39601   1.40515
  Beta virt. eigenvalues --    1.41238   1.43411   1.45129   1.45425   1.46291
  Beta virt. eigenvalues --    1.47344   1.47889   1.48322   1.50903   1.52202
  Beta virt. eigenvalues --    1.54275   1.55084   1.55914   1.57192   1.57717
  Beta virt. eigenvalues --    1.60468   1.62122   1.69107   1.90637   1.92097
  Beta virt. eigenvalues --    1.94582   2.02321   2.02762   2.03777   2.04653
  Beta virt. eigenvalues --    2.04902   2.06412   2.07496   2.07973   2.11621
  Beta virt. eigenvalues --    2.12601   2.14242   2.16617   2.17303   2.18337
  Beta virt. eigenvalues --    2.20616   2.21082   2.24580   2.29265   2.32131
  Beta virt. eigenvalues --    2.34043   2.39108   2.45014   2.47661   2.54331
  Beta virt. eigenvalues --    2.55560   2.58844   2.61462   2.65902   2.68083
  Beta virt. eigenvalues --    2.69407   2.72057   2.77650   2.78043   2.80912
  Beta virt. eigenvalues --    2.88438   2.93838   2.96651   3.11668   3.16126
  Beta virt. eigenvalues --    3.26006   3.27255   3.42502   3.43283   3.46619
  Beta virt. eigenvalues --    3.47634   3.49161   3.50626   3.55458   3.56900
  Beta virt. eigenvalues --    3.58851   3.60908   3.64447   3.66519   3.70165
  Beta virt. eigenvalues --    3.75286   3.84381   3.95091   4.25835   4.27191
  Beta virt. eigenvalues --    4.32148   4.36860   4.37727   4.49007   6.32689
  Beta virt. eigenvalues --    6.38348   6.40068   6.41966   6.42457   6.43503
  Beta virt. eigenvalues --    6.44186   6.44580   6.45278   6.47235   6.49008
  Beta virt. eigenvalues --    6.49610   6.52708   6.55846   6.58938   6.59609
  Beta virt. eigenvalues --    6.72779   6.80952   6.84134   6.87399   7.06306
  Beta virt. eigenvalues --    9.07653   9.08283   9.09400   9.10029   9.11059
  Beta virt. eigenvalues --    9.12407   9.13526   9.14800   9.18406   9.19043
  Beta virt. eigenvalues --    9.20942   9.21300   9.22520   9.23376   9.25369
  Beta virt. eigenvalues --    9.27758   9.30859   9.32883   9.35249   9.36295
  Beta virt. eigenvalues --    9.40246   9.43820   9.47582   9.54830   9.65403
  Beta virt. eigenvalues --    9.68824   9.70480   9.71488   9.73458   9.73946
  Beta virt. eigenvalues --    9.76708   9.83882   9.86862   9.88286   9.91054
  Beta virt. eigenvalues --   23.85765  23.95544  24.12265  66.90966  66.91495
  Beta virt. eigenvalues --   66.93662  66.96353  66.97924  66.98644  67.03266
          Condensed to atoms (all electrons):
               1          2          3          4          5          6
     1  C    4.433800   0.237231   0.232805  -0.081221   0.220489   0.000531
     2  F    0.237231   9.073394   0.026946   0.014362  -0.008725  -0.005045
     3  F    0.232805   0.026946   9.078227   0.000449  -0.008209  -0.001182
     4  F   -0.081221   0.014362   0.000449   9.075044   0.019235   0.000504
     5  F    0.220489  -0.008725  -0.008209   0.019235   9.129612   0.000015
     6  F    0.000531  -0.005045  -0.001182   0.000504   0.000015   9.097225
     7  F    0.010958   0.001425  -0.005328   0.013628  -0.000459   0.049029
     8  C    0.273256  -0.064658  -0.046216   0.232274  -0.083981  -0.045760
     9  C   -0.103633   0.010111   0.001201  -0.067746   0.016747   0.210697
    10  F    0.012479  -0.000191   0.000207   0.011400  -0.000110  -0.013527
               7          8          9         10
     1  C    0.010958   0.273256  -0.103633   0.012479
     2  F    0.001425  -0.064658   0.010111  -0.000191
     3  F   -0.005328  -0.046216   0.001201   0.000207
     4  F    0.013628   0.232274  -0.067746   0.011400
     5  F   -0.000459  -0.083981   0.016747  -0.000110
     6  F    0.049029  -0.045760   0.210697  -0.013527
     7  F    9.059083  -0.083059   0.227406  -0.040454
     8  C   -0.083059   5.234722   0.219465  -0.061762
     9  C    0.227406   0.219465   4.556422   0.230658
    10  F   -0.040454  -0.061762   0.230658   9.157990
          Atomic-Atomic Spin Densities.
               1          2          3          4          5          6
     1  C    0.000539  -0.020492   0.004138  -0.001937   0.005626  -0.000738
     2  F   -0.020492   0.052148   0.000900   0.004070  -0.000280   0.000433
     3  F    0.004138   0.000900  -0.000929  -0.000090  -0.000214   0.000155
     4  F   -0.001937   0.004070  -0.000090   0.160775   0.000287  -0.000116
     5  F    0.005626  -0.000280  -0.000214   0.000287   0.000801  -0.000007
     6  F   -0.000738   0.000433   0.000155  -0.000116  -0.000007  -0.002089
     7  F   -0.003920   0.005481   0.000388   0.004426  -0.000142   0.001134
     8  C    0.020862  -0.020174  -0.001199  -0.102151  -0.003594   0.000014
     9  C    0.008460  -0.003307  -0.000797  -0.001091  -0.000614   0.003983
    10  F   -0.000510  -0.000042   0.000015  -0.000052   0.000004  -0.000333
               7          8          9         10
     1  C   -0.003920   0.020862   0.008460  -0.000510
     2  F    0.005481  -0.020174  -0.003307  -0.000042
     3  F    0.000388  -0.001199  -0.000797   0.000015
     4  F    0.004426  -0.102151  -0.001091  -0.000052
     5  F   -0.000142  -0.003594  -0.000614   0.000004
     6  F    0.001134   0.000014   0.003983  -0.000333
     7  F    0.054069  -0.019929  -0.023946   0.000679
     8  C   -0.019929   0.984254   0.010302   0.000435
     9  C   -0.023946   0.010302   0.014622   0.003233
    10  F    0.000679   0.000435   0.003233  -0.002890
 Mulliken charges and spin densities:
               1          2
     1  C    0.763305   0.012028
     2  F   -0.284850   0.018736
     3  F   -0.278900   0.002367
     4  F   -0.217928   0.064119
     5  F   -0.284613   0.001868
     6  F   -0.292488   0.002437
     7  F   -0.232229   0.018242
     8  C    0.425718   0.868820
     9  C    0.698673   0.010845
    10  F   -0.296690   0.000539
 Sum of Mulliken charges =  -0.00000   1.00000
 Mulliken charges and spin densities with hydrogens summed into heavy atoms:
               1          2
     1  C    0.763305   0.012028
     2  F   -0.284850   0.018736
     3  F   -0.278900   0.002367
     4  F   -0.217928   0.064119
     5  F   -0.284613   0.001868
     6  F   -0.292488   0.002437
     7  F   -0.232229   0.018242
     8  C    0.425718   0.868820
     9  C    0.698673   0.010845
    10  F   -0.296690   0.000539
 Electronic spatial extent (au):  <R**2>=           1159.9620
 Charge=             -0.0000 electrons
 Dipole moment (field-independent basis, Debye):
    X=             -0.2834    Y=              0.3173    Z=             -0.3427  Tot=              0.5463
 Quadrupole moment (field-independent basis, Debye-Ang):
   XX=            -54.9823   YY=            -53.5615   ZZ=            -51.0785
   XY=              0.1498   XZ=              0.4644   YZ=             -0.5263
 Traceless Quadrupole moment (field-independent basis, Debye-Ang):
   XX=             -1.7749   YY=             -0.3541   ZZ=              2.1289
   XY=              0.1498   XZ=              0.4644   YZ=             -0.5263
 Octapole moment (field-independent basis, Debye-Ang**2):
  XXX=             -2.1979  YYY=             -1.6371  ZZZ=              4.0432  XYY=             -0.0022
  XXY=             -2.0308  XXZ=              4.5303  XZZ=              0.8805  YZZ=             -0.1187
  YYZ=              3.2799  XYZ=             -0.1130
 Hexadecapole moment (field-independent basis, Debye-Ang**3):
 XXXX=           -695.5559 YYYY=           -283.3168 ZZZZ=           -160.3817 XXXY=             -0.7505
 XXXZ=              2.7235 YYYX=              0.0424 YYYZ=              2.8000 ZZZX=              2.1161
 ZZZY=              2.1532 XXYY=           -160.6994 XXZZ=           -140.5476 YYZZ=            -73.0762
 XXYZ=              0.3129 YYXZ=              0.6908 ZZXY=             -0.1081
 N-N= 6.515718135020D+02 E-N=-3.235887282793D+03  KE= 8.112123098696D+02
                          Isotropic Fermi Contact Couplings
        Atom                 a.u.       MegaHertz       Gauss      10(-4) cm-1
     1  C(13)              0.00143       1.60442       0.57250       0.53518
     2  F(19)              0.01479      62.23008      22.20524      20.75772
     3  F(19)             -0.00187      -7.87386      -2.80959      -2.62644
     4  F(19)              0.04295     180.69336      64.47589      60.27282
     5  F(19)              0.00007       0.28002       0.09992       0.09340
     6  F(19)             -0.00277     -11.64322      -4.15459      -3.88376
     7  F(19)              0.01899      79.90332      28.51149      26.65288
     8  C(13)              0.34415     386.88903     138.05163     129.05229
     9  C(13)              0.00008       0.08452       0.03016       0.02819
    10  F(19)             -0.00305     -12.82950      -4.57789      -4.27946
 --------------------------------------------------------
       Center         ----  Spin Dipole Couplings  ----
                      3XX-RR        3YY-RR        3ZZ-RR
 --------------------------------------------------------
     1   Atom        0.040305     -0.011843     -0.028462
     2   Atom        0.017924     -0.100142      0.082218
     3   Atom       -0.009846     -0.010731      0.020577
     4   Atom       -0.416412     -0.523694      0.940107
     5   Atom        0.006489     -0.011723      0.005234
     6   Atom       -0.006298     -0.014432      0.020729
     7   Atom        0.080515     -0.098818      0.018303
     8   Atom       -0.507826     -0.534261      1.042087
     9   Atom        0.045799     -0.016932     -0.028866
    10   Atom       -0.004621     -0.000791      0.005412
 --------------------------------------------------------
                        XY            XZ            YZ
 --------------------------------------------------------
     1   Atom        0.031382     -0.005235     -0.002845
     2   Atom        0.040855     -0.164152     -0.054194
     3   Atom       -0.006221      0.014859     -0.008031
     4   Atom        0.000668      0.058105     -0.036155
     5   Atom       -0.012252     -0.023452      0.009576
     6   Atom        0.003052     -0.011829     -0.001812
     7   Atom       -0.062787      0.166206     -0.055014
     8   Atom       -0.002261      0.079939     -0.045376
     9   Atom       -0.032080      0.013257     -0.003828
    10   Atom        0.009783      0.005372      0.007410
 --------------------------------------------------------


 ---------------------------------------------------------------------------------
              Anisotropic Spin Dipole Couplings in Principal Axis System
 ---------------------------------------------------------------------------------

       Atom             a.u.   MegaHertz   Gauss  10(-4) cm-1        Axes

              Baa    -0.0289    -3.883    -1.386    -1.295  0.0010  0.1625  0.9867
     1 C(13)  Bbb    -0.0265    -3.558    -1.270    -1.187 -0.4299  0.8910 -0.1463
              Bcc     0.0555     7.441     2.655     2.482  0.9029  0.4240 -0.0707
 
              Baa    -0.1189   -59.697   -21.301   -19.913  0.6026  0.4956  0.6255
     2 F(19)  Bbb    -0.1124   -56.426   -20.134   -18.822 -0.5008  0.8451 -0.1871
              Bcc     0.2312   116.123    41.436    38.735 -0.6213 -0.2005  0.7575
 
              Baa    -0.0175    -8.797    -3.139    -2.934  0.8343  0.5061 -0.2187
     3 F(19)  Bbb    -0.0115    -5.791    -2.066    -1.932 -0.3998  0.8285  0.3922
              Bcc     0.0290    14.588     5.205     4.866  0.3797 -0.2398  0.8935
 
              Baa    -0.5246  -263.482   -94.017   -87.888 -0.0198  0.9995  0.0255
     4 F(19)  Bbb    -0.4189  -210.357   -75.061   -70.168  0.9989  0.0209 -0.0422
              Bcc     0.9435   473.839   169.078   158.056  0.0427 -0.0246  0.9988
 
              Baa    -0.0189    -9.485    -3.385    -3.164  0.6810  0.5959  0.4256
     5 F(19)  Bbb    -0.0156    -7.840    -2.798    -2.615 -0.2547  0.7376 -0.6253
              Bcc     0.0345    17.326     6.182     5.779  0.6866 -0.3175 -0.6541
 
              Baa    -0.0156    -7.849    -2.801    -2.618 -0.4082  0.9087 -0.0875
     6 F(19)  Bbb    -0.0097    -4.892    -1.746    -1.632  0.8410  0.4117  0.3510
              Bcc     0.0254    12.741     4.546     4.250 -0.3550 -0.0697  0.9323
 
              Baa    -0.1217   -61.129   -21.812   -20.390 -0.3393  0.6660  0.6644
     7 F(19)  Bbb    -0.1174   -58.958   -21.038   -19.666  0.5730  0.7064 -0.4155
              Bcc     0.2391   120.087    42.850    40.057  0.7460 -0.2398  0.6213
 
              Baa    -0.5356   -71.868   -25.644   -23.973 -0.0016  0.9996  0.0288
     8 C(13)  Bbb    -0.5119   -68.697   -24.513   -22.915  0.9987  0.0031 -0.0513
              Bcc     1.0475   140.565    50.157    46.887  0.0513 -0.0287  0.9983
 
              Baa    -0.0323    -4.335    -1.547    -1.446 -0.3553 -0.5540  0.7529
     9 C(13)  Bbb    -0.0291    -3.901    -1.392    -1.301  0.2037  0.7402  0.6408
              Bcc     0.0614     8.237     2.939     2.747  0.9123 -0.3810  0.1502
 
              Baa    -0.0127    -6.377    -2.275    -2.127  0.7596 -0.6492  0.0403
    10 F(19)  Bbb    -0.0028    -1.420    -0.507    -0.474 -0.4588 -0.4909  0.7406
              Bcc     0.0155     7.797     2.782     2.601  0.4610  0.5811  0.6707
 

 ---------------------------------------------------------------------------------

 Calling FoFJK, ICntrl=      2127 FMM=F ISym2X=0 I1Cent= 0 IOpClX= 1 NMat=1 NMatS=1 NMatT=0.
 ***** Axes restored to original set *****
 -------------------------------------------------------------------
 Center     Atomic                   Forces (Hartrees/Bohr)
 Number     Number              X              Y              Z
 -------------------------------------------------------------------
      1        6          -0.003834881   -0.016895820    0.000414142
      2        9          -0.005854618   -0.019551730    0.006379327
      3        9          -0.020565684    0.011185959   -0.005667052
      4        9           0.010693598   -0.017806466    0.008942924
      5        9           0.017866038    0.010696125    0.000687715
      6        9          -0.003969198   -0.003504085   -0.007918706
      7        9          -0.006170582    0.115682724    0.036509875
      8        6          -0.002097590    0.034323067   -0.006287409
      9        6           0.025604526   -0.078559652   -0.026401802
     10        9          -0.011671609   -0.035570122   -0.006659013
 -------------------------------------------------------------------
 Cartesian Forces:  Max     0.115682724 RMS     0.030177035

 GradGradGradGradGradGradGradGradGradGradGradGradGradGradGradGradGradGrad
 Berny optimization.
 FormGI is forming the generalized inverse of G from B-inverse, IUseBI=4.
 Internal  Forces:  Max     0.119643999 RMS     0.026451210
 Search for a local minimum.
 Step number   1 out of a maximum of   46
 All quantities printed in internal units (Hartrees-Bohrs-Radians)
 Mixed Optimization -- RFO/linear search
 Second derivative matrix not updated -- first step.
 ITU=  0
     Eigenvalues ---    0.00237   0.00237   0.03682   0.09292   0.10978
     Eigenvalues ---    0.11243   0.11243   0.16085   0.25000   0.25000
     Eigenvalues ---    0.25000   0.25000   0.25000   0.25000   0.25000
     Eigenvalues ---    0.28519   0.28519   0.55021   0.55021   0.55021
     Eigenvalues ---    0.55021   0.55021   0.55021   0.91714
 RFO step:  Lambda=-5.64072683D-02 EMin= 2.36824225D-03
 Linear search not attempted -- first point.
 Maximum step size (   0.300) exceeded in Quadratic search.
    -- Step size scaled by   0.835
 Iteration  1 RMS(Cart)=  0.15401819 RMS(Int)=  0.01253996
 Iteration  2 RMS(Cart)=  0.01449536 RMS(Int)=  0.00284313
 Iteration  3 RMS(Cart)=  0.00014153 RMS(Int)=  0.00284143
 Iteration  4 RMS(Cart)=  0.00000097 RMS(Int)=  0.00284143
 Variable       Old X    -DE/DX   Delta X   Delta X   Delta X     New X
                                 (Linear)    (Quad)   (Total)
    R1        2.55113  -0.01847   0.00000  -0.02543  -0.02543   2.52570
    R2        2.55113  -0.02192   0.00000  -0.03017  -0.03017   2.52096
    R3        2.55113  -0.02003   0.00000  -0.02757  -0.02757   2.52356
    R4        2.91018   0.00179   0.00000   0.00437   0.00437   2.91455
    R5        2.55113  -0.02016   0.00000  -0.02775  -0.02775   2.52338
    R6        2.55113  -0.00602   0.00000  -0.00828  -0.00828   2.54285
    R7        2.32153   0.11964   0.00000   0.10262   0.10262   2.42415
    R8        2.91018   0.00362   0.00000   0.00884   0.00884   2.91902
    R9        2.55113   0.00415   0.00000   0.00572   0.00572   2.55685
    A1        1.91063  -0.01024   0.00000  -0.01969  -0.02106   1.88958
    A2        1.91063  -0.01232   0.00000  -0.03980  -0.03981   1.87083
    A3        1.91063   0.01488   0.00000   0.04155   0.04079   1.95142
    A4        1.91063  -0.00994   0.00000  -0.02910  -0.02922   1.88141
    A5        1.91063   0.01487   0.00000   0.04363   0.04281   1.95344
    A6        1.91063   0.00276   0.00000   0.00342   0.00335   1.91398
    A7        1.91063  -0.01100   0.00000   0.00677  -0.00058   1.91005
    A8        1.91063   0.05415   0.00000   0.17223   0.16699   2.07762
    A9        1.91063  -0.01059   0.00000   0.00835   0.00112   1.91175
   A10        1.91063   0.00293   0.00000   0.01685   0.01662   1.92725
   A11        1.91063   0.00251   0.00000  -0.01313  -0.01710   1.89353
   A12        1.88165   0.00713   0.00000  -0.01772  -0.02544   1.85621
   A13        1.91063  -0.00080   0.00000   0.02239   0.02345   1.93408
   A14        1.76183   0.03996   0.00000   0.14278   0.14493   1.90675
   A15        2.07975  -0.04696   0.00000  -0.13271  -0.13517   1.94458
    D1       -1.04720  -0.00362   0.00000  -0.04650  -0.04695  -1.09415
    D2        1.04720   0.00984   0.00000   0.07335   0.07485   1.12204
    D3        3.14159  -0.00929   0.00000  -0.07454  -0.07599   3.06560
    D4       -1.04720   0.00417   0.00000   0.04531   0.04581  -1.00139
    D5        1.04720  -0.00791   0.00000  -0.06771  -0.06873   0.97847
    D6        3.14159   0.00555   0.00000   0.05214   0.05307  -3.08852
    D7        1.04720   0.00346   0.00000  -0.00430  -0.00844   1.03876
    D8       -1.04720  -0.00119   0.00000  -0.03060  -0.03260  -1.07980
    D9       -3.06016  -0.02250   0.00000  -0.14958  -0.14663   3.07640
   D10        3.14159   0.01666   0.00000   0.11457   0.11255  -3.02904
   D11        1.04720   0.01201   0.00000   0.08827   0.08840   1.13559
   D12       -0.96576  -0.00930   0.00000  -0.03071  -0.02563  -0.99140
         Item               Value     Threshold  Converged?
 Maximum Force            0.119644     0.000450     NO 
 RMS     Force            0.026451     0.000300     NO 
 Maximum Displacement     0.362483     0.001800     NO 
 RMS     Displacement     0.153956     0.001200     NO 
 Predicted change in Energy=-3.177528D-02
 GradGradGradGradGradGradGradGradGradGradGradGradGradGradGradGradGradGrad

                          Input orientation:                          
 ---------------------------------------------------------------------
 Center     Atomic      Atomic             Coordinates (Angstroms)
 Number     Number       Type             X           Y           Z
 ---------------------------------------------------------------------
      1          6           0       -0.436021    0.048162    0.925993
      2          9           0       -0.566708    1.343250    1.229335
      3          9           0        0.392020   -0.507341    1.812227
      4          9           0       -0.857401    0.335335   -1.370197
      5          9           0       -1.636523   -0.516244    1.079487
      6          9           0        2.366721   -0.261476   -0.145741
      7          9           0        1.534713    1.626717   -0.780926
      8          6           0        0.051279   -0.154541   -0.523205
      9          6           0        1.454716    0.354028   -0.920393
     10          9           0        1.755997    0.025481   -2.197876
 ---------------------------------------------------------------------
                    Distance matrix (angstroms):
                    1          2          3          4          5
     1  C    0.000000
     2  F    1.336544   0.000000
     3  F    1.334034   2.164166   0.000000
     4  F    2.352130   2.803205   3.521218   0.000000
     5  F    1.335410   2.150506   2.156844   2.707982   0.000000
     6  F    3.016596   3.615381   2.791689   3.500062   4.194288
     7  F    3.047819   2.921895   3.547449   2.781568   4.255603
     8  C    1.542311   2.386772   2.386381   1.335318   2.355446
     9  C    2.660372   3.112241   3.055895   2.355538   3.783207
    10  F    3.816283   4.344795   4.269106   2.758788   4.748028
                    6          7          8          9         10
     6  F    0.000000
     7  F    2.158928   0.000000
     8  C    2.348443   2.332354   0.000000
     9  C    1.345617   1.282805   1.544680   0.000000
    10  F    2.160229   2.149575   2.396455   1.353025   0.000000
 Stoichiometry    C3F7(2)
 Framework group  C1[X(C3F7)]
 Deg. of freedom    24
 Full point group                 C1      NOp   1
 Largest Abelian subgroup         C1      NOp   1
 Largest concise Abelian subgroup C1      NOp   1
                         Standard orientation:                         
 ---------------------------------------------------------------------
 Center     Atomic      Atomic             Coordinates (Angstroms)
 Number     Number       Type             X           Y           Z
 ---------------------------------------------------------------------
      1          6           0       -1.322419   -0.133271   -0.047201
      2          9           0       -1.495349   -0.087717    1.277325
      3          9           0       -1.406672   -1.406513   -0.436304
      4          9           0        0.004995    1.806085   -0.144096
      5          9           0       -2.339875    0.530995   -0.601144
      6          9           0        1.384716   -1.393478   -0.475156
      7          9           0        1.426330   -0.122367    1.269411
      8          6           0        0.012025    0.512013   -0.473340
      9          6           0        1.337697   -0.131584   -0.010295
     10          9           0        2.407653    0.508223   -0.536145
 ---------------------------------------------------------------------
 Rotational constants (GHZ):           2.1445102           1.0174440           0.8985015
 Standard basis: 6-311+G(2d) (5D, 7F)
 There are   290 symmetry adapted cartesian basis functions of A   symmetry.
 There are   270 symmetry adapted basis functions of A   symmetry.
   270 basis functions,   420 primitive gaussians,   290 cartesian basis functions
    41 alpha electrons       40 beta electrons
       nuclear repulsion energy       640.1208848637 Hartrees.
 NAtoms=   10 NActive=   10 NUniq=   10 SFac= 1.00D+00 NAtFMM=   60 NAOKFM=F Big=F
 Integral buffers will be    131072 words long.
 Raffenetti 2 integral format.
 Two-electron integral symmetry is turned on.
 Nuclear repulsion after empirical dispersion term =      640.1169657618 Hartrees.
 One-electron integrals computed using PRISM.
 NBasis=   270 RedAO= T EigKep=  1.03D-04  NBF=   270
 NBsUse=   270 1.00D-06 EigRej= -1.00D+00 NBFU=   270
 Initial guess from the checkpoint file:  "2_propyl.chk"
 B after Tr=     0.000000   -0.000000   -0.000000
         Rot=    0.999747   -0.020842    0.006309    0.005603 Ang=  -2.58 deg.
 Initial guess <Sx>= 0.0000 <Sy>= 0.0000 <Sz>= 0.5000 <S**2>= 0.7532 S= 0.5016
 ExpMin= 4.38D-02 ExpMax= 1.14D+04 ExpMxC= 1.72D+03 IAcc=2 IRadAn=         4 AccDes= 0.00D+00
 Harris functional with IExCor= 4639 and IRadAn=       4 diagonalized for initial guess.
 HarFok:  IExCor= 4639 AccDes= 0.00D+00 IRadAn=         4 IDoV= 1 UseB2=F ITyADJ=14
 ICtDFT=  3500011 ScaDFX=  1.000000  1.000000  1.000000  1.000000
 FoFCou: FMM=F IPFlag=           0 FMFlag=      100000 FMFlg1=           0
         NFxFlg=           0 DoJE=T BraDBF=F KetDBF=T FulRan=T
         wScrn=  0.000000 ICntrl=       500 IOpCl=  0 I1Cent=   200000004 NGrid=           0
         NMat0=    1 NMatS0=      1 NMatT0=    0 NMatD0=    1 NMtDS0=    0 NMtDT0=    0
 Petite list used in FoFCou.
 Keep R1 and R2 ints in memory in canonical form, NReq=2703878162.
 Requested convergence on RMS density matrix=1.00D-08 within 128 cycles.
 Requested convergence on MAX density matrix=1.00D-06.
 Requested convergence on             energy=1.00D-06.
 No special actions if energy rises.
 SCF Done:  E(UwB97XD) =  -813.188710856     A.U. after   14 cycles
            NFock= 14  Conv=0.74D-08     -V/T= 2.0026
 <Sx>= 0.0000 <Sy>= 0.0000 <Sz>= 0.5000 <S**2>= 0.7534 S= 0.5017
 <L.S>= 0.000000000000E+00
 Annihilation of the first spin contaminant:
 S**2 before annihilation     0.7534,   after     0.7500
 Calling FoFJK, ICntrl=      2127 FMM=F ISym2X=0 I1Cent= 0 IOpClX= 1 NMat=1 NMatS=1 NMatT=0.
 ***** Axes restored to original set *****
 -------------------------------------------------------------------
 Center     Atomic                   Forces (Hartrees/Bohr)
 Number     Number              X              Y              Z
 -------------------------------------------------------------------
      1        6          -0.000607920   -0.011587532    0.001340327
      2        9           0.002803466   -0.001416312   -0.003103311
      3        9          -0.000309309    0.003074240   -0.006331644
      4        9           0.003774463   -0.010413268    0.003383164
      5        9           0.002750854    0.000932871   -0.003765962
      6        9          -0.003257081    0.007907426   -0.001415736
      7        9           0.006363578    0.035490842    0.002618150
      8        6          -0.001035457    0.028556216   -0.000489521
      9        6          -0.001356611   -0.058163455   -0.004063231
     10        9          -0.009125982    0.005618972    0.011827765
 -------------------------------------------------------------------
 Cartesian Forces:  Max     0.058163455 RMS     0.014395910

 GradGradGradGradGradGradGradGradGradGradGradGradGradGradGradGradGradGrad
 Berny optimization.
 Using GEDIIS/GDIIS optimizer.
 FormGI is forming the generalized inverse of G from B-inverse, IUseBI=4.
 Internal  Forces:  Max     0.035893494 RMS     0.008358191
 Search for a local minimum.
 Step number   2 out of a maximum of   46
 All quantities printed in internal units (Hartrees-Bohrs-Radians)
 Mixed Optimization -- RFO/linear search
 Update second derivatives using D2CorX and points    1    2
 DE= -2.48D-02 DEPred=-3.18D-02 R= 7.80D-01
 TightC=F SS=  1.41D+00  RLast= 3.95D-01 DXNew= 5.0454D-01 1.1854D+00
 Trust test= 7.80D-01 RLast= 3.95D-01 DXMaxT set to 5.05D-01
 ITU=  1  0
 Use linear search instead of GDIIS.
     Eigenvalues ---    0.00237   0.00237   0.02515   0.10459   0.10912
     Eigenvalues ---    0.10971   0.12496   0.18824   0.22955   0.25000
     Eigenvalues ---    0.25000   0.25000   0.25000   0.25000   0.27110
     Eigenvalues ---    0.28518   0.35479   0.52993   0.55021   0.55021
     Eigenvalues ---    0.55021   0.55021   0.57218   0.81209
 RFO step:  Lambda=-1.08595218D-02 EMin= 2.36820908D-03
 Quartic linear search produced a step of  0.21096.
 Iteration  1 RMS(Cart)=  0.07581565 RMS(Int)=  0.00620192
 Iteration  2 RMS(Cart)=  0.00703973 RMS(Int)=  0.00381535
 Iteration  3 RMS(Cart)=  0.00001016 RMS(Int)=  0.00381534
 Iteration  4 RMS(Cart)=  0.00000005 RMS(Int)=  0.00381534
 Variable       Old X    -DE/DX   Delta X   Delta X   Delta X     New X
                                 (Linear)    (Quad)   (Total)
    R1        2.52570  -0.00235  -0.00536  -0.00147  -0.00683   2.51887
    R2        2.52096  -0.00568  -0.00636  -0.00793  -0.01430   2.50666
    R3        2.52356  -0.00330  -0.00582  -0.00320  -0.00902   2.51454
    R4        2.91455  -0.01379   0.00092  -0.05663  -0.05571   2.85884
    R5        2.52338  -0.00854  -0.00585  -0.01440  -0.02025   2.50313
    R6        2.54285  -0.00664  -0.00175  -0.01307  -0.01482   2.52803
    R7        2.42415   0.03589   0.02165   0.03181   0.05346   2.47761
    R8        2.91902  -0.01202   0.00187  -0.05001  -0.04814   2.87088
    R9        2.55685  -0.01456   0.00121  -0.03203  -0.03082   2.52602
    A1        1.88958   0.00298  -0.00444   0.00755   0.00238   1.89196
    A2        1.87083   0.00461  -0.00840   0.02969   0.02122   1.89205
    A3        1.95142  -0.00450   0.00860  -0.02965  -0.02146   1.92996
    A4        1.88141   0.00549  -0.00616   0.03581   0.02960   1.91102
    A5        1.95344  -0.00459   0.00903  -0.02852  -0.01989   1.93355
    A6        1.91398  -0.00318   0.00071  -0.00987  -0.00922   1.90476
    A7        1.91005   0.00093  -0.00012   0.06907   0.05516   1.96521
    A8        2.07762   0.00256   0.03523   0.03657   0.06030   2.13791
    A9        1.91175   0.00254   0.00024   0.07863   0.06564   1.97740
   A10        1.92725  -0.00596   0.00351  -0.02707  -0.02403   1.90322
   A11        1.89353   0.00528  -0.00361   0.03210   0.02773   1.92126
   A12        1.85621   0.00547  -0.00537   0.04032   0.03388   1.89009
   A13        1.93408   0.00654   0.00495   0.02272   0.02767   1.96175
   A14        1.90675  -0.00171   0.03057  -0.03819  -0.00711   1.89964
   A15        1.94458  -0.00979  -0.02852  -0.02939  -0.05815   1.88643
    D1       -1.09415  -0.00459  -0.00990  -0.12497  -0.13568  -1.22983
    D2        1.12204   0.00214   0.01579   0.08535   0.10246   1.22451
    D3        3.06560  -0.00191  -0.01603  -0.09293  -0.11030   2.95531
    D4       -1.00139   0.00481   0.00966   0.11739   0.12785  -0.87354
    D5        0.97847  -0.00374  -0.01450  -0.11300  -0.12855   0.84992
    D6       -3.08852   0.00299   0.01120   0.09732   0.10960  -2.97893
    D7        1.03876  -0.00450  -0.00178  -0.13231  -0.13595   0.90281
    D8       -1.07980  -0.00463  -0.00688  -0.13380  -0.14265  -1.22245
    D9        3.07640  -0.00024  -0.03093  -0.08054  -0.11242   2.96398
   D10       -3.02904   0.00148   0.02374   0.07367   0.09875  -2.93029
   D11        1.13559   0.00135   0.01865   0.07218   0.09204   1.22763
   D12       -0.99140   0.00573  -0.00541   0.12543   0.12227  -0.86913
         Item               Value     Threshold  Converged?
 Maximum Force            0.035893     0.000450     NO 
 RMS     Force            0.008358     0.000300     NO 
 Maximum Displacement     0.203217     0.001800     NO 
 RMS     Displacement     0.076295     0.001200     NO 
 Predicted change in Energy=-6.138910D-03
 GradGradGradGradGradGradGradGradGradGradGradGradGradGradGradGradGradGrad

                          Input orientation:                          
 ---------------------------------------------------------------------
 Center     Atomic      Atomic             Coordinates (Angstroms)
 Number     Number       Type             X           Y           Z
 ---------------------------------------------------------------------
      1          6           0       -0.443062    0.049940    0.928502
      2          9           0       -0.598160    1.324933    1.284923
      3          9           0        0.415291   -0.517428    1.765663
      4          9           0       -0.868144    0.301469   -1.382197
      5          9           0       -1.622587   -0.558855    1.021732
      6          9           0        2.357755   -0.238467   -0.112568
      7          9           0        1.638610    1.660191   -0.841470
      8          6           0        0.053712   -0.047003   -0.497147
      9          6           0        1.459741    0.362726   -0.901100
     10          9           0        1.665638   -0.044136   -2.157633
 ---------------------------------------------------------------------
                    Distance matrix (angstroms):
                    1          2          3          4          5
     1  C    0.000000
     2  F    1.332929   0.000000
     3  F    1.326467   2.156963   0.000000
     4  F    2.362900   2.869478   3.496688   0.000000
     5  F    1.330639   2.160411   2.169815   2.662370   0.000000
     6  F    3.001930   3.624174   2.716383   3.508549   4.151194
     7  F    3.171604   3.104366   3.610496   2.902125   4.362464
     8  C    1.512831   2.341564   2.339305   1.324600   2.319259
     9  C    2.658184   3.152697   2.996193   2.377869   3.747978
    10  F    3.738943   4.341696   4.144831   2.672226   4.602794
                    6          7          8          9         10
     6  F    0.000000
     7  F    2.157167   0.000000
     8  C    2.343753   2.354777   0.000000
     9  C    1.337776   1.311093   1.519202   0.000000
    10  F    2.167736   2.153542   2.314201   1.336714   0.000000
 Stoichiometry    C3F7(2)
 Framework group  C1[X(C3F7)]
 Deg. of freedom    24
 Full point group                 C1      NOp   1
 Largest Abelian subgroup         C1      NOp   1
 Largest concise Abelian subgroup C1      NOp   1
                         Standard orientation:                         
 ---------------------------------------------------------------------
 Center     Atomic      Atomic             Coordinates (Angstroms)
 Number     Number       Type             X           Y           Z
 ---------------------------------------------------------------------
      1          6           0       -1.328743   -0.142389   -0.033843
      2          9           0       -1.543622   -0.195496    1.280579
      3          9           0       -1.350191   -1.379506   -0.511960
      4          9           0       -0.018930    1.823871   -0.072704
      5          9           0       -2.307455    0.566118   -0.591287
      6          9           0        1.366060   -1.366384   -0.535298
      7          9           0        1.560717   -0.205388    1.272343
      8          6           0       -0.003398    0.524488   -0.329468
      9          6           0        1.329369   -0.133974   -0.016200
     10          9           0        2.295269    0.591370   -0.588665
 ---------------------------------------------------------------------
 Rotational constants (GHZ):           2.1073045           1.0266593           0.9055028
 Standard basis: 6-311+G(2d) (5D, 7F)
 There are   290 symmetry adapted cartesian basis functions of A   symmetry.
 There are   270 symmetry adapted basis functions of A   symmetry.
   270 basis functions,   420 primitive gaussians,   290 cartesian basis functions
    41 alpha electrons       40 beta electrons
       nuclear repulsion energy       641.0838631058 Hartrees.
 NAtoms=   10 NActive=   10 NUniq=   10 SFac= 1.00D+00 NAtFMM=   60 NAOKFM=F Big=F
 Integral buffers will be    131072 words long.
 Raffenetti 2 integral format.
 Two-electron integral symmetry is turned on.
 Nuclear repulsion after empirical dispersion term =      641.0799690204 Hartrees.
 One-electron integrals computed using PRISM.
 NBasis=   270 RedAO= T EigKep=  9.73D-05  NBF=   270
 NBsUse=   270 1.00D-06 EigRej= -1.00D+00 NBFU=   270
 Initial guess from the checkpoint file:  "2_propyl.chk"
 B after Tr=     0.000000    0.000000    0.000000
         Rot=    0.999596   -0.027371   -0.005460   -0.005388 Ang=  -3.26 deg.
 Initial guess <Sx>= 0.0000 <Sy>= 0.0000 <Sz>= 0.5000 <S**2>= 0.7532 S= 0.5016
 ExpMin= 4.38D-02 ExpMax= 1.14D+04 ExpMxC= 1.72D+03 IAcc=2 IRadAn=         4 AccDes= 0.00D+00
 Harris functional with IExCor= 4639 and IRadAn=       4 diagonalized for initial guess.
 HarFok:  IExCor= 4639 AccDes= 0.00D+00 IRadAn=         4 IDoV= 1 UseB2=F ITyADJ=14
 ICtDFT=  3500011 ScaDFX=  1.000000  1.000000  1.000000  1.000000
 FoFCou: FMM=F IPFlag=           0 FMFlag=      100000 FMFlg1=           0
         NFxFlg=           0 DoJE=T BraDBF=F KetDBF=T FulRan=T
         wScrn=  0.000000 ICntrl=       500 IOpCl=  0 I1Cent=   200000004 NGrid=           0
         NMat0=    1 NMatS0=      1 NMatT0=    0 NMatD0=    1 NMtDS0=    0 NMtDT0=    0
 Petite list used in FoFCou.
 Keep R1 and R2 ints in memory in canonical form, NReq=2703878162.
 Requested convergence on RMS density matrix=1.00D-08 within 128 cycles.
 Requested convergence on MAX density matrix=1.00D-06.
 Requested convergence on             energy=1.00D-06.
 No special actions if energy rises.
 SCF Done:  E(UwB97XD) =  -813.194980682     A.U. after   13 cycles
            NFock= 13  Conv=0.58D-08     -V/T= 2.0025
 <Sx>= 0.0000 <Sy>= 0.0000 <Sz>= 0.5000 <S**2>= 0.7536 S= 0.5018
 <L.S>= 0.000000000000E+00
 Annihilation of the first spin contaminant:
 S**2 before annihilation     0.7536,   after     0.7500
 Calling FoFJK, ICntrl=      2127 FMM=F ISym2X=0 I1Cent= 0 IOpClX= 1 NMat=1 NMatS=1 NMatT=0.
 ***** Axes restored to original set *****
 -------------------------------------------------------------------
 Center     Atomic                   Forces (Hartrees/Bohr)
 Number     Number              X              Y              Z
 -------------------------------------------------------------------
      1        6           0.003017093   -0.005493894   -0.009552154
      2        9          -0.002101909    0.003670751    0.003566066
      3        9          -0.001156601   -0.000565076    0.002112789
      4        9           0.004389861   -0.003127192    0.002471710
      5        9           0.000031448    0.000792218    0.002930110
      6        9          -0.002111128    0.004474923   -0.002561013
      7        9           0.003795145    0.015591725    0.000237758
      8        6          -0.000588908    0.008887337    0.000135544
      9        6          -0.007319314   -0.027688036   -0.000086609
     10        9           0.002044313    0.003457245    0.000745799
 -------------------------------------------------------------------
 Cartesian Forces:  Max     0.027688036 RMS     0.006871391

 GradGradGradGradGradGradGradGradGradGradGradGradGradGradGradGradGradGrad
 Berny optimization.
 Using GEDIIS/GDIIS optimizer.
 FormGI is forming the generalized inverse of G from B-inverse, IUseBI=4.
 Internal  Forces:  Max     0.015958444 RMS     0.003755701
 Search for a local minimum.
 Step number   3 out of a maximum of   46
 All quantities printed in internal units (Hartrees-Bohrs-Radians)
 Mixed Optimization -- RFO/linear search
 Update second derivatives using D2CorX and points    2    3
 DE= -6.27D-03 DEPred=-6.14D-03 R= 1.02D+00
 TightC=F SS=  1.41D+00  RLast= 4.48D-01 DXNew= 8.4853D-01 1.3441D+00
 Trust test= 1.02D+00 RLast= 4.48D-01 DXMaxT set to 8.49D-01
 ITU=  1  1  0
 Use linear search instead of GDIIS.
     Eigenvalues ---    0.00237   0.00237   0.01695   0.10664   0.11019
     Eigenvalues ---    0.11158   0.12790   0.20815   0.21244   0.24979
     Eigenvalues ---    0.25000   0.25000   0.25000   0.26245   0.27759
     Eigenvalues ---    0.28888   0.36651   0.49488   0.55021   0.55021
     Eigenvalues ---    0.55021   0.55986   0.57081   0.74770
 RFO step:  Lambda=-1.75449697D-03 EMin= 2.36787495D-03
 Quartic linear search produced a step of  0.24292.
 Iteration  1 RMS(Cart)=  0.03048983 RMS(Int)=  0.00194956
 Iteration  2 RMS(Cart)=  0.00136850 RMS(Int)=  0.00158659
 Iteration  3 RMS(Cart)=  0.00000067 RMS(Int)=  0.00158659
 Variable       Old X    -DE/DX   Delta X   Delta X   Delta X     New X
                                 (Linear)    (Quad)   (Total)
    R1        2.51887   0.00471  -0.00166   0.01131   0.00965   2.52852
    R2        2.50666   0.00083  -0.00347   0.00317  -0.00030   2.50636
    R3        2.51454  -0.00019  -0.00219   0.00049  -0.00170   2.51285
    R4        2.85884  -0.00092  -0.01353   0.00006  -0.01347   2.84537
    R5        2.50313  -0.00553  -0.00492  -0.01070  -0.01562   2.48751
    R6        2.52803  -0.00494  -0.00360  -0.00995  -0.01355   2.51448
    R7        2.47761   0.01596   0.01299   0.01675   0.02974   2.50734
    R8        2.87088  -0.00400  -0.01170  -0.01386  -0.02556   2.84532
    R9        2.52602  -0.00144  -0.00749  -0.00105  -0.00854   2.51749
    A1        1.89196  -0.00256   0.00058  -0.00955  -0.00917   1.88280
    A2        1.89205  -0.00392   0.00516  -0.02109  -0.01607   1.87598
    A3        1.92996   0.00380  -0.00521   0.02113   0.01575   1.94571
    A4        1.91102  -0.00362   0.00719  -0.02212  -0.01498   1.89604
    A5        1.93355   0.00230  -0.00483   0.01270   0.00773   1.94129
    A6        1.90476   0.00374  -0.00224   0.01758   0.01524   1.92000
    A7        1.96521   0.00053   0.01340   0.01780   0.02569   1.99091
    A8        2.13791   0.00245   0.01465   0.01973   0.02935   2.16726
    A9        1.97740  -0.00172   0.01595   0.00410   0.01438   1.99178
   A10        1.90322  -0.00307  -0.00584  -0.02078  -0.02670   1.87652
   A11        1.92126   0.00211   0.00674   0.00928   0.01577   1.93703
   A12        1.89009  -0.00121   0.00823   0.00294   0.01078   1.90087
   A13        1.96175   0.00061   0.00672  -0.00433   0.00236   1.96411
   A14        1.89964  -0.00396  -0.00173  -0.02284  -0.02454   1.87510
   A15        1.88643   0.00545  -0.01413   0.03611   0.02179   1.90822
    D1       -1.22983  -0.00027  -0.03296  -0.03855  -0.07202  -1.30185
    D2        1.22451   0.00084   0.02489   0.02423   0.04968   1.27419
    D3        2.95531  -0.00107  -0.02679  -0.04878  -0.07617   2.87914
    D4       -0.87354   0.00004   0.03106   0.01400   0.04553  -0.82801
    D5        0.84992  -0.00045  -0.03123  -0.04068  -0.07241   0.77752
    D6       -2.97893   0.00066   0.02662   0.02210   0.04929  -2.92964
    D7        0.90281  -0.00253  -0.03302  -0.02670  -0.06020   0.84261
    D8       -1.22245  -0.00053  -0.03465  -0.00373  -0.03877  -1.26122
    D9        2.96398   0.00041  -0.02731   0.00334  -0.02415   2.93982
   D10       -2.93029  -0.00062   0.02399   0.04129   0.06550  -2.86479
   D11        1.22763   0.00139   0.02236   0.06427   0.08693   1.31456
   D12       -0.86913   0.00232   0.02970   0.07133   0.10155  -0.76758
         Item               Value     Threshold  Converged?
 Maximum Force            0.015958     0.000450     NO 
 RMS     Force            0.003756     0.000300     NO 
 Maximum Displacement     0.085687     0.001800     NO 
 RMS     Displacement     0.030105     0.001200     NO 
 Predicted change in Energy=-1.054479D-03
 GradGradGradGradGradGradGradGradGradGradGradGradGradGradGradGradGradGrad

                          Input orientation:                          
 ---------------------------------------------------------------------
 Center     Atomic      Atomic             Coordinates (Angstroms)
 Number     Number       Type             X           Y           Z
 ---------------------------------------------------------------------
      1          6           0       -0.446899    0.056911    0.928201
      2          9           0       -0.624046    1.320757    1.330267
      3          9           0        0.404254   -0.521084    1.765192
      4          9           0       -0.860665    0.261176   -1.396387
      5          9           0       -1.620821   -0.560557    1.022282
      6          9           0        2.354377   -0.234623   -0.120859
      7          9           0        1.681715    1.661448   -0.859916
      8          6           0        0.055729   -0.005281   -0.489769
      9          6           0        1.456971    0.354639   -0.906958
     10          9           0        1.658178   -0.040015   -2.163348
 ---------------------------------------------------------------------
                    Distance matrix (angstroms):
                    1          2          3          4          5
     1  C    0.000000
     2  F    1.338037   0.000000
     3  F    1.326309   2.153820   0.000000
     4  F    2.369945   2.934850   3.493928   0.000000
     5  F    1.329741   2.151222   2.157406   2.665154   0.000000
     6  F    3.005439   3.660051   2.728044   3.494178   4.149120
     7  F    3.209813   3.198360   3.645071   2.951653   4.403035
     8  C    1.505703   2.352233   2.339310   1.316334   2.324962
     9  C    2.661047   3.204558   3.002580   2.370593   3.745978
    10  F    3.741446   4.389258   4.151768   2.650191   4.601199
                    6          7          8          9         10
     6  F    0.000000
     7  F    2.143307   0.000000
     8  C    2.339332   2.357716   0.000000
     9  C    1.330608   1.326828   1.505679   0.000000
    10  F    2.166639   2.143470   2.317308   1.332198   0.000000
 Stoichiometry    C3F7(2)
 Framework group  C1[X(C3F7)]
 Deg. of freedom    24
 Full point group                 C1      NOp   1
 Largest Abelian subgroup         C1      NOp   1
 Largest concise Abelian subgroup C1      NOp   1
                         Standard orientation:                         
 ---------------------------------------------------------------------
 Center     Atomic      Atomic             Coordinates (Angstroms)
 Number     Number       Type             X           Y           Z
 ---------------------------------------------------------------------
      1          6           0       -1.331011   -0.132812   -0.030360
      2          9           0       -1.595248   -0.245506    1.276477
      3          9           0       -1.363141   -1.348973   -0.558578
      4          9           0       -0.001252    1.828775   -0.053889
      5          9           0       -2.304273    0.592274   -0.573702
      6          9           0        1.364856   -1.344912   -0.574217
      7          9           0        1.603001   -0.269145    1.264200
      8          6           0       -0.000249    0.530080   -0.268658
      9          6           0        1.330034   -0.132517   -0.027038
     10          9           0        2.296875    0.610986   -0.562920
 ---------------------------------------------------------------------
 Rotational constants (GHZ):           2.1121548           1.0144612           0.8960677
 Standard basis: 6-311+G(2d) (5D, 7F)
 There are   290 symmetry adapted cartesian basis functions of A   symmetry.
 There are   270 symmetry adapted basis functions of A   symmetry.
   270 basis functions,   420 primitive gaussians,   290 cartesian basis functions
    41 alpha electrons       40 beta electrons
       nuclear repulsion energy       640.0156339054 Hartrees.
 NAtoms=   10 NActive=   10 NUniq=   10 SFac= 1.00D+00 NAtFMM=   60 NAOKFM=F Big=F
 Integral buffers will be    131072 words long.
 Raffenetti 2 integral format.
 Two-electron integral symmetry is turned on.
 Nuclear repulsion after empirical dispersion term =      640.0117613482 Hartrees.
 One-electron integrals computed using PRISM.
 NBasis=   270 RedAO= T EigKep=  9.21D-05  NBF=   270
 NBsUse=   270 1.00D-06 EigRej= -1.00D+00 NBFU=   270
 Initial guess from the checkpoint file:  "2_propyl.chk"
 B after Tr=    -0.000000    0.000000   -0.000000
         Rot=    0.999871   -0.015947    0.000354    0.001922 Ang=  -1.84 deg.
 Initial guess <Sx>= 0.0000 <Sy>= 0.0000 <Sz>= 0.5000 <S**2>= 0.7535 S= 0.5018
 ExpMin= 4.38D-02 ExpMax= 1.14D+04 ExpMxC= 1.72D+03 IAcc=2 IRadAn=         4 AccDes= 0.00D+00
 Harris functional with IExCor= 4639 and IRadAn=       4 diagonalized for initial guess.
 HarFok:  IExCor= 4639 AccDes= 0.00D+00 IRadAn=         4 IDoV= 1 UseB2=F ITyADJ=14
 ICtDFT=  3500011 ScaDFX=  1.000000  1.000000  1.000000  1.000000
 FoFCou: FMM=F IPFlag=           0 FMFlag=      100000 FMFlg1=           0
         NFxFlg=           0 DoJE=T BraDBF=F KetDBF=T FulRan=T
         wScrn=  0.000000 ICntrl=       500 IOpCl=  0 I1Cent=   200000004 NGrid=           0
         NMat0=    1 NMatS0=      1 NMatT0=    0 NMatD0=    1 NMtDS0=    0 NMtDT0=    0
 Petite list used in FoFCou.
 Keep R1 and R2 ints in memory in canonical form, NReq=2703878162.
 Requested convergence on RMS density matrix=1.00D-08 within 128 cycles.
 Requested convergence on MAX density matrix=1.00D-06.
 Requested convergence on             energy=1.00D-06.
 No special actions if energy rises.
 SCF Done:  E(UwB97XD) =  -813.196091493     A.U. after   12 cycles
            NFock= 12  Conv=0.76D-08     -V/T= 2.0025
 <Sx>= 0.0000 <Sy>= 0.0000 <Sz>= 0.5000 <S**2>= 0.7537 S= 0.5019
 <L.S>= 0.000000000000E+00
 Annihilation of the first spin contaminant:
 S**2 before annihilation     0.7537,   after     0.7500
 Calling FoFJK, ICntrl=      2127 FMM=F ISym2X=0 I1Cent= 0 IOpClX= 1 NMat=1 NMatS=1 NMatT=0.
 ***** Axes restored to original set *****
 -------------------------------------------------------------------
 Center     Atomic                   Forces (Hartrees/Bohr)
 Number     Number              X              Y              Z
 -------------------------------------------------------------------
      1        6          -0.000464965   -0.001269603    0.000091313
      2        9           0.000007448    0.002633920    0.000149308
      3        9           0.002219004   -0.000695299    0.000407105
      4        9           0.000406475   -0.000407760    0.000472319
      5        9          -0.001283827   -0.000729269   -0.001386078
      6        9          -0.000933527   -0.001522671    0.000094519
      7        9          -0.000761344    0.009809313    0.000887106
      8        6          -0.000551913    0.001626078    0.000617293
      9        6           0.001497022   -0.008161372   -0.000886186
     10        9          -0.000134374   -0.001283339   -0.000446699
 -------------------------------------------------------------------
 Cartesian Forces:  Max     0.009809313 RMS     0.002547170

 GradGradGradGradGradGradGradGradGradGradGradGradGradGradGradGradGradGrad
 Berny optimization.
 Using GEDIIS/GDIIS optimizer.
 FormGI is forming the generalized inverse of G from B-inverse, IUseBI=4.
 Internal  Forces:  Max     0.009563529 RMS     0.002027356
 Search for a local minimum.
 Step number   4 out of a maximum of   46
 All quantities printed in internal units (Hartrees-Bohrs-Radians)
 Mixed Optimization -- RFO/linear search
 Update second derivatives using D2CorX and points    3    4
 DE= -1.11D-03 DEPred=-1.05D-03 R= 1.05D+00
 TightC=F SS=  1.41D+00  RLast= 2.42D-01 DXNew= 1.4270D+00 7.2487D-01
 Trust test= 1.05D+00 RLast= 2.42D-01 DXMaxT set to 8.49D-01
 ITU=  1  1  1  0
 Use linear search instead of GDIIS.
     Eigenvalues ---    0.00237   0.00240   0.01330   0.10552   0.10858
     Eigenvalues ---    0.10932   0.12565   0.19841   0.22360   0.24815
     Eigenvalues ---    0.24991   0.25000   0.25050   0.25851   0.28423
     Eigenvalues ---    0.34081   0.37869   0.45808   0.54728   0.55021
     Eigenvalues ---    0.55021   0.55134   0.57299   0.69754
 RFO step:  Lambda=-3.58339033D-04 EMin= 2.36970644D-03
 Quartic linear search produced a step of  0.06395.
 Iteration  1 RMS(Cart)=  0.01172227 RMS(Int)=  0.00012733
 Iteration  2 RMS(Cart)=  0.00012580 RMS(Int)=  0.00009497
 Iteration  3 RMS(Cart)=  0.00000001 RMS(Int)=  0.00009497
 Variable       Old X    -DE/DX   Delta X   Delta X   Delta X     New X
                                 (Linear)    (Quad)   (Total)
    R1        2.52852   0.00253   0.00062   0.00627   0.00689   2.53541
    R2        2.50636   0.00198  -0.00002   0.00335   0.00333   2.50969
    R3        2.51285   0.00137  -0.00011   0.00206   0.00196   2.51480
    R4        2.84537  -0.00086  -0.00086  -0.00666  -0.00752   2.83784
    R5        2.48751  -0.00069  -0.00100  -0.00451  -0.00551   2.48200
    R6        2.51448   0.00010  -0.00087  -0.00246  -0.00332   2.51116
    R7        2.50734   0.00956   0.00190   0.01768   0.01958   2.52692
    R8        2.84532  -0.00049  -0.00163  -0.00717  -0.00881   2.83651
    R9        2.51749   0.00078  -0.00055  -0.00061  -0.00116   2.51633
    A1        1.88280   0.00098  -0.00059   0.00188   0.00129   1.88408
    A2        1.87598   0.00132  -0.00103   0.00321   0.00217   1.87815
    A3        1.94571  -0.00065   0.00101  -0.00095   0.00005   1.94576
    A4        1.89604   0.00195  -0.00096   0.00713   0.00616   1.90219
    A5        1.94129  -0.00143   0.00049  -0.00513  -0.00465   1.93664
    A6        1.92000  -0.00196   0.00097  -0.00549  -0.00453   1.91547
    A7        1.99091  -0.00005   0.00164   0.00360   0.00493   1.99583
    A8        2.16726   0.00002   0.00188   0.00441   0.00599   2.17325
    A9        1.99178   0.00015   0.00092   0.00288   0.00346   1.99524
   A10        1.87652   0.00299  -0.00171   0.00857   0.00683   1.88336
   A11        1.93703  -0.00166   0.00101  -0.00459  -0.00361   1.93342
   A12        1.90087   0.00036   0.00069   0.00181   0.00247   1.90333
   A13        1.96411  -0.00346   0.00015  -0.01238  -0.01225   1.95186
   A14        1.87510   0.00218  -0.00157   0.00631   0.00474   1.87984
   A15        1.90822  -0.00016   0.00139   0.00104   0.00242   1.91063
    D1       -1.30185  -0.00015  -0.00461   0.00166  -0.00298  -1.30483
    D2        1.27419   0.00014   0.00318   0.02366   0.02687   1.30106
    D3        2.87914   0.00002  -0.00487   0.00343  -0.00148   2.87766
    D4       -0.82801   0.00031   0.00291   0.02542   0.02838  -0.79964
    D5        0.77752  -0.00020  -0.00463   0.00148  -0.00319   0.77432
    D6       -2.92964   0.00009   0.00315   0.02347   0.02666  -2.90297
    D7        0.84261   0.00019  -0.00385  -0.01450  -0.01836   0.82426
    D8       -1.26122  -0.00009  -0.00248  -0.01371  -0.01621  -1.27743
    D9        2.93982  -0.00052  -0.00154  -0.01446  -0.01600   2.92382
   D10       -2.86479   0.00042   0.00419   0.00771   0.01191  -2.85288
   D11        1.31456   0.00014   0.00556   0.00850   0.01406   1.32862
   D12       -0.76758  -0.00028   0.00649   0.00775   0.01426  -0.75332
         Item               Value     Threshold  Converged?
 Maximum Force            0.009564     0.000450     NO 
 RMS     Force            0.002027     0.000300     NO 
 Maximum Displacement     0.026489     0.001800     NO 
 RMS     Displacement     0.011767     0.001200     NO 
 Predicted change in Energy=-1.812069D-04
 GradGradGradGradGradGradGradGradGradGradGradGradGradGradGradGradGradGrad

                          Input orientation:                          
 ---------------------------------------------------------------------
 Center     Atomic      Atomic             Coordinates (Angstroms)
 Number     Number       Type             X           Y           Z
 ---------------------------------------------------------------------
      1          6           0       -0.445113    0.059612    0.927253
      2          9           0       -0.635593    1.323262    1.335923
      3          9           0        0.418104   -0.513509    1.758011
      4          9           0       -0.857828    0.264721   -1.395349
      5          9           0       -1.613381   -0.571812    1.013378
      6          9           0        2.343389   -0.245479   -0.116432
      7          9           0        1.682530    1.667276   -0.858957
      8          6           0        0.056093    0.008736   -0.487447
      9          6           0        1.456390    0.350205   -0.906518
     10          9           0        1.654202   -0.049640   -2.161156
 ---------------------------------------------------------------------
                    Distance matrix (angstroms):
                    1          2          3          4          5
     1  C    0.000000
     2  F    1.341681   0.000000
     3  F    1.328070   2.159205   0.000000
     4  F    2.367886   2.937643   3.489603   0.000000
     5  F    1.330776   2.156713   2.164442   2.659438   0.000000
     6  F    2.993009   3.666690   2.700389   3.484784   4.127831
     7  F    3.209672   3.210847   3.633610   2.950982   4.402520
     8  C    1.501723   2.351826   2.333640   1.313417   2.318761
     9  C    2.657607   3.217418   2.987266   2.366827   3.736256
    10  F    3.735951   4.399725   4.135576   2.644915   4.585567
                    6          7          8          9         10
     6  F    0.000000
     7  F    2.155623   0.000000
     8  C    2.331094   2.352461   0.000000
     9  C    1.328849   1.337190   1.501018   0.000000
    10  F    2.166616   2.155070   2.314879   1.331586   0.000000
 Stoichiometry    C3F7(2)
 Framework group  C1[X(C3F7)]
 Deg. of freedom    24
 Full point group                 C1      NOp   1
 Largest Abelian subgroup         C1      NOp   1
 Largest concise Abelian subgroup C1      NOp   1
                         Standard orientation:                         
 ---------------------------------------------------------------------
 Center     Atomic      Atomic             Coordinates (Angstroms)
 Number     Number       Type             X           Y           Z
 ---------------------------------------------------------------------
      1          6           0       -1.328744   -0.132683   -0.029998
      2          9           0       -1.609867   -0.238984    1.277586
      3          9           0       -1.346951   -1.353255   -0.553107
      4          9           0        0.001554    1.826064   -0.052317
      5          9           0       -2.292479    0.593365   -0.591277
      6          9           0        1.353293   -1.342401   -0.578961
      7          9           0        1.600834   -0.269410    1.274178
      8          6           0        0.000809    0.528339   -0.254739
      9          6           0        1.328862   -0.133409   -0.027979
     10          9           0        2.292998    0.609790   -0.567625
 ---------------------------------------------------------------------
 Rotational constants (GHZ):           2.1055861           1.0169660           0.8997802
 Standard basis: 6-311+G(2d) (5D, 7F)
 There are   290 symmetry adapted cartesian basis functions of A   symmetry.
 There are   270 symmetry adapted basis functions of A   symmetry.
   270 basis functions,   420 primitive gaussians,   290 cartesian basis functions
    41 alpha electrons       40 beta electrons
       nuclear repulsion energy       640.1215305661 Hartrees.
 NAtoms=   10 NActive=   10 NUniq=   10 SFac= 1.00D+00 NAtFMM=   60 NAOKFM=F Big=F
 Integral buffers will be    131072 words long.
 Raffenetti 2 integral format.
 Two-electron integral symmetry is turned on.
 Nuclear repulsion after empirical dispersion term =      640.1176628390 Hartrees.
 One-electron integrals computed using PRISM.
 NBasis=   270 RedAO= T EigKep=  8.82D-05  NBF=   270
 NBsUse=   270 1.00D-06 EigRej= -1.00D+00 NBFU=   270
 Initial guess from the checkpoint file:  "2_propyl.chk"
 B after Tr=    -0.000000   -0.000000   -0.000000
         Rot=    0.999999    0.000747    0.001094    0.000263 Ang=   0.15 deg.
 Initial guess <Sx>= 0.0000 <Sy>= 0.0000 <Sz>= 0.5000 <S**2>= 0.7537 S= 0.5019
 ExpMin= 4.38D-02 ExpMax= 1.14D+04 ExpMxC= 1.72D+03 IAcc=2 IRadAn=         4 AccDes= 0.00D+00
 Harris functional with IExCor= 4639 and IRadAn=       4 diagonalized for initial guess.
 HarFok:  IExCor= 4639 AccDes= 0.00D+00 IRadAn=         4 IDoV= 1 UseB2=F ITyADJ=14
 ICtDFT=  3500011 ScaDFX=  1.000000  1.000000  1.000000  1.000000
 FoFCou: FMM=F IPFlag=           0 FMFlag=      100000 FMFlg1=           0
         NFxFlg=           0 DoJE=T BraDBF=F KetDBF=T FulRan=T
         wScrn=  0.000000 ICntrl=       500 IOpCl=  0 I1Cent=   200000004 NGrid=           0
         NMat0=    1 NMatS0=      1 NMatT0=    0 NMatD0=    1 NMtDS0=    0 NMtDT0=    0
 Petite list used in FoFCou.
 Keep R1 and R2 ints in memory in canonical form, NReq=2703878162.
 Requested convergence on RMS density matrix=1.00D-08 within 128 cycles.
 Requested convergence on MAX density matrix=1.00D-06.
 Requested convergence on             energy=1.00D-06.
 No special actions if energy rises.
 SCF Done:  E(UwB97XD) =  -813.196270241     A.U. after   11 cycles
            NFock= 11  Conv=0.50D-08     -V/T= 2.0025
 <Sx>= 0.0000 <Sy>= 0.0000 <Sz>= 0.5000 <S**2>= 0.7538 S= 0.5019
 <L.S>= 0.000000000000E+00
 Annihilation of the first spin contaminant:
 S**2 before annihilation     0.7538,   after     0.7500
 Calling FoFJK, ICntrl=      2127 FMM=F ISym2X=0 I1Cent= 0 IOpClX= 1 NMat=1 NMatS=1 NMatT=0.
 ***** Axes restored to original set *****
 -------------------------------------------------------------------
 Center     Atomic                   Forces (Hartrees/Bohr)
 Number     Number              X              Y              Z
 -------------------------------------------------------------------
      1        6          -0.000080159    0.000162263    0.000652195
      2        9          -0.000009288   -0.000477266    0.000024556
      3        9          -0.000292618    0.000150375    0.000444998
      4        9          -0.001419062    0.000326072   -0.001044115
      5        9          -0.000048734    0.000060749    0.000067834
      6        9           0.000724453    0.000055342   -0.000538336
      7        9           0.000264178    0.002221787   -0.000074474
      8        6          -0.000297332   -0.000047528    0.000398687
      9        6           0.000610249   -0.002630643   -0.000145305
     10        9           0.000548312    0.000178849    0.000213961
 -------------------------------------------------------------------
 Cartesian Forces:  Max     0.002630643 RMS     0.000774273

 GradGradGradGradGradGradGradGradGradGradGradGradGradGradGradGradGradGrad
 Berny optimization.
 Using GEDIIS/GDIIS optimizer.
 FormGI is forming the generalized inverse of G from B-inverse, IUseBI=4.
 Internal  Forces:  Max     0.002229998 RMS     0.000757027
 Search for a local minimum.
 Step number   5 out of a maximum of   46
 All quantities printed in internal units (Hartrees-Bohrs-Radians)
 Mixed Optimization -- En-DIIS/RFO-DIIS
 Update second derivatives using D2CorX and points    3    4    5
 DE= -1.79D-04 DEPred=-1.81D-04 R= 9.86D-01
 TightC=F SS=  1.41D+00  RLast= 6.84D-02 DXNew= 1.4270D+00 2.0530D-01
 Trust test= 9.86D-01 RLast= 6.84D-02 DXMaxT set to 8.49D-01
 ITU=  1  1  1  1  0
 Use linear search instead of GDIIS.
     Eigenvalues ---    0.00236   0.00241   0.01213   0.10743   0.10869
     Eigenvalues ---    0.11042   0.12345   0.20708   0.22670   0.23268
     Eigenvalues ---    0.24998   0.25036   0.25115   0.27595   0.29490
     Eigenvalues ---    0.34254   0.40739   0.43365   0.54233   0.55021
     Eigenvalues ---    0.55023   0.56740   0.58646   0.63002
 RFO step:  Lambda=-5.65330583D-05 EMin= 2.36480254D-03
 Quartic linear search produced a step of -0.01646.
 Iteration  1 RMS(Cart)=  0.00560452 RMS(Int)=  0.00001269
 Iteration  2 RMS(Cart)=  0.00001406 RMS(Int)=  0.00000510
 Iteration  3 RMS(Cart)=  0.00000000 RMS(Int)=  0.00000510
 Variable       Old X    -DE/DX   Delta X   Delta X   Delta X     New X
                                 (Linear)    (Quad)   (Total)
    R1        2.53541  -0.00044  -0.00011   0.00054   0.00043   2.53584
    R2        2.50969   0.00002  -0.00005   0.00069   0.00063   2.51032
    R3        2.51480   0.00002  -0.00003   0.00045   0.00042   2.51522
    R4        2.83784   0.00126   0.00012   0.00250   0.00262   2.84047
    R5        2.48200   0.00177   0.00009   0.00216   0.00225   2.48425
    R6        2.51116   0.00014   0.00005  -0.00045  -0.00040   2.51076
    R7        2.52692   0.00223  -0.00032   0.00604   0.00571   2.53264
    R8        2.83651   0.00211   0.00014   0.00529   0.00543   2.84195
    R9        2.51633  -0.00017   0.00002  -0.00083  -0.00081   2.51552
    A1        1.88408  -0.00048  -0.00002  -0.00123  -0.00126   1.88283
    A2        1.87815  -0.00021  -0.00004  -0.00076  -0.00080   1.87735
    A3        1.94576   0.00011  -0.00000  -0.00023  -0.00023   1.94552
    A4        1.90219  -0.00034  -0.00010   0.00070   0.00060   1.90279
    A5        1.93664   0.00095   0.00008   0.00287   0.00295   1.93959
    A6        1.91547  -0.00008   0.00007  -0.00142  -0.00135   1.91412
    A7        1.99583  -0.00054  -0.00008  -0.00066  -0.00076   1.99508
    A8        2.17325   0.00052  -0.00010   0.00297   0.00286   2.17611
    A9        1.99524   0.00007  -0.00006   0.00182   0.00175   1.99699
   A10        1.88336  -0.00031  -0.00011   0.00044   0.00033   1.88368
   A11        1.93342   0.00143   0.00006   0.00604   0.00609   1.93951
   A12        1.90333  -0.00102  -0.00004  -0.00266  -0.00271   1.90062
   A13        1.95186  -0.00052   0.00020  -0.00443  -0.00423   1.94763
   A14        1.87984  -0.00039  -0.00008  -0.00293  -0.00301   1.87683
   A15        1.91063   0.00073  -0.00004   0.00325   0.00320   1.91383
    D1       -1.30483   0.00007   0.00005  -0.00018  -0.00013  -1.30496
    D2        1.30106   0.00017  -0.00044   0.00882   0.00837   1.30944
    D3        2.87766  -0.00004   0.00002  -0.00041  -0.00039   2.87727
    D4       -0.79964   0.00006  -0.00047   0.00859   0.00812  -0.79152
    D5        0.77432  -0.00017   0.00005  -0.00220  -0.00215   0.77218
    D6       -2.90297  -0.00008  -0.00044   0.00680   0.00636  -2.89662
    D7        0.82426   0.00009   0.00030  -0.00141  -0.00112   0.82314
    D8       -1.27743  -0.00015   0.00027  -0.00313  -0.00286  -1.28029
    D9        2.92382   0.00019   0.00026   0.00119   0.00146   2.92528
   D10       -2.85288   0.00002  -0.00020   0.00692   0.00672  -2.84616
   D11        1.32862  -0.00021  -0.00023   0.00521   0.00498   1.33360
   D12       -0.75332   0.00012  -0.00023   0.00953   0.00930  -0.74402
         Item               Value     Threshold  Converged?
 Maximum Force            0.002230     0.000450     NO 
 RMS     Force            0.000757     0.000300     NO 
 Maximum Displacement     0.014698     0.001800     NO 
 RMS     Displacement     0.005602     0.001200     NO 
 Predicted change in Energy=-2.834563D-05
 GradGradGradGradGradGradGradGradGradGradGradGradGradGradGradGradGradGrad

                          Input orientation:                          
 ---------------------------------------------------------------------
 Center     Atomic      Atomic             Coordinates (Angstroms)
 Number     Number       Type             X           Y           Z
 ---------------------------------------------------------------------
      1          6           0       -0.447167    0.060012    0.929619
      2          9           0       -0.642362    1.323227    1.338156
      3          9           0        0.415283   -0.509781    1.763990
      4          9           0       -0.860286    0.264153   -1.394624
      5          9           0       -1.614549   -0.573926    1.012694
      6          9           0        2.350854   -0.249421   -0.124211
      7          9           0        1.685839    1.667629   -0.859282
      8          6           0        0.055539    0.011106   -0.486091
      9          6           0        1.459327    0.347588   -0.907818
     10          9           0        1.656316   -0.047215   -2.163727
 ---------------------------------------------------------------------
                    Distance matrix (angstroms):
                    1          2          3          4          5
     1  C    0.000000
     2  F    1.341908   0.000000
     3  F    1.328404   2.158672   0.000000
     4  F    2.369483   2.938914   3.493264   0.000000
     5  F    1.330999   2.156446   2.165359   2.658283   0.000000
     6  F    3.005865   3.683894   2.716527   3.491293   4.137907
     7  F    3.214702   3.219917   3.638266   2.956194   4.406973
     8  C    1.503110   2.352999   2.337435   1.314610   2.319011
     9  C    2.663380   3.226975   2.993938   2.371612   3.739822
    10  F    3.742316   4.407405   4.145008   2.649859   4.589731
                    6          7          8          9         10
     6  F    0.000000
     7  F    2.158160   0.000000
     8  C    2.338226   2.353979   0.000000
     9  C    1.328638   1.340213   1.503893   0.000000
    10  F    2.164000   2.154794   2.319558   1.331158   0.000000
 Stoichiometry    C3F7(2)
 Framework group  C1[X(C3F7)]
 Deg. of freedom    24
 Full point group                 C1      NOp   1
 Largest Abelian subgroup         C1      NOp   1
 Largest concise Abelian subgroup C1      NOp   1
                         Standard orientation:                         
 ---------------------------------------------------------------------
 Center     Atomic      Atomic             Coordinates (Angstroms)
 Number     Number       Type             X           Y           Z
 ---------------------------------------------------------------------
      1          6           0       -1.331675   -0.134549   -0.030400
      2          9           0       -1.617247   -0.236860    1.276771
      3          9           0       -1.350668   -1.357432   -0.548911
      4          9           0       -0.002862    1.827121   -0.054004
      5          9           0       -2.293240    0.591445   -0.595982
      6          9           0        1.365612   -1.341137   -0.581777
      7          9           0        1.602512   -0.268775    1.276064
      8          6           0       -0.000684    0.527598   -0.252586
      9          6           0        1.331705   -0.133204   -0.029485
     10          9           0        2.296330    0.612408   -0.563847
 ---------------------------------------------------------------------
 Rotational constants (GHZ):           2.1033565           1.0129601           0.8963737
 Standard basis: 6-311+G(2d) (5D, 7F)
 There are   290 symmetry adapted cartesian basis functions of A   symmetry.
 There are   270 symmetry adapted basis functions of A   symmetry.
   270 basis functions,   420 primitive gaussians,   290 cartesian basis functions
    41 alpha electrons       40 beta electrons
       nuclear repulsion energy       639.3725712712 Hartrees.
 NAtoms=   10 NActive=   10 NUniq=   10 SFac= 1.00D+00 NAtFMM=   60 NAOKFM=F Big=F
 Integral buffers will be    131072 words long.
 Raffenetti 2 integral format.
 Two-electron integral symmetry is turned on.
 Nuclear repulsion after empirical dispersion term =      639.3687020518 Hartrees.
 One-electron integrals computed using PRISM.
 NBasis=   270 RedAO= T EigKep=  8.81D-05  NBF=   270
 NBsUse=   270 1.00D-06 EigRej= -1.00D+00 NBFU=   270
 Initial guess from the checkpoint file:  "2_propyl.chk"
 B after Tr=    -0.000000   -0.000000   -0.000000
         Rot=    1.000000    0.000384    0.000506   -0.000578 Ang=   0.10 deg.
 Initial guess <Sx>= 0.0000 <Sy>= 0.0000 <Sz>= 0.5000 <S**2>= 0.7538 S= 0.5019
 Keep R1 and R2 ints in memory in canonical form, NReq=2703878162.
 Requested convergence on RMS density matrix=1.00D-08 within 128 cycles.
 Requested convergence on MAX density matrix=1.00D-06.
 Requested convergence on             energy=1.00D-06.
 No special actions if energy rises.
 SCF Done:  E(UwB97XD) =  -813.196294861     A.U. after   10 cycles
            NFock= 10  Conv=0.46D-08     -V/T= 2.0025
 <Sx>= 0.0000 <Sy>= 0.0000 <Sz>= 0.5000 <S**2>= 0.7538 S= 0.5019
 <L.S>= 0.000000000000E+00
 Annihilation of the first spin contaminant:
 S**2 before annihilation     0.7538,   after     0.7500
 Calling FoFJK, ICntrl=      2127 FMM=F ISym2X=0 I1Cent= 0 IOpClX= 1 NMat=1 NMatS=1 NMatT=0.
 ***** Axes restored to original set *****
 -------------------------------------------------------------------
 Center     Atomic                   Forces (Hartrees/Bohr)
 Number     Number              X              Y              Z
 -------------------------------------------------------------------
      1        6          -0.000115618    0.000623545    0.000395642
      2        9           0.000072021   -0.000591978   -0.000167344
      3        9          -0.000313293    0.000131970   -0.000341993
      4        9          -0.000184479    0.000233098   -0.000200870
      5        9           0.000258242   -0.000016656    0.000116408
      6        9          -0.000418081    0.000264354   -0.000002641
      7        9           0.000034040    0.000440213    0.000342224
      8        6           0.000564711   -0.000434750    0.000193186
      9        6           0.000304006   -0.000497165   -0.000513635
     10        9          -0.000201548   -0.000152631    0.000179024
 -------------------------------------------------------------------
 Cartesian Forces:  Max     0.000623545 RMS     0.000325855

 GradGradGradGradGradGradGradGradGradGradGradGradGradGradGradGradGradGrad
 Berny optimization.
 Using GEDIIS/GDIIS optimizer.
 FormGI is forming the generalized inverse of G from B-inverse, IUseBI=4.
 Internal  Forces:  Max     0.000618996 RMS     0.000231971
 Search for a local minimum.
 Step number   6 out of a maximum of   46
 All quantities printed in internal units (Hartrees-Bohrs-Radians)
 Mixed Optimization -- En-DIIS/RFO-DIIS
 Swapping is turned off.
 Update second derivatives using D2CorX and points    3    4    5    6
 DE= -2.46D-05 DEPred=-2.83D-05 R= 8.69D-01
 TightC=F SS=  1.41D+00  RLast= 2.31D-02 DXNew= 1.4270D+00 6.9169D-02
 Trust test= 8.69D-01 RLast= 2.31D-02 DXMaxT set to 8.49D-01
 ITU=  1  1  1  1  1  0
     Eigenvalues ---    0.00228   0.00242   0.01343   0.10660   0.10830
     Eigenvalues ---    0.11372   0.12368   0.20105   0.22715   0.23565
     Eigenvalues ---    0.25007   0.25057   0.25238   0.27672   0.30689
     Eigenvalues ---    0.34056   0.37699   0.45690   0.53881   0.55022
     Eigenvalues ---    0.55363   0.56684   0.57608   0.61985
 En-DIIS/RFO-DIIS/Sim-DIIS IScMMF=       -3 using points:     6    5
 RFO step:  Lambda=-1.04636812D-05.
 DidBck=F Rises=F RFO-DIIS coefs:    1.12400   -0.12400
 Iteration  1 RMS(Cart)=  0.00719380 RMS(Int)=  0.00002698
 Iteration  2 RMS(Cart)=  0.00002786 RMS(Int)=  0.00000163
 Iteration  3 RMS(Cart)=  0.00000000 RMS(Int)=  0.00000163
 Variable       Old X    -DE/DX   Delta X   Delta X   Delta X     New X
                                 (Linear)    (Quad)   (Total)
    R1        2.53584  -0.00062   0.00005  -0.00111  -0.00106   2.53478
    R2        2.51032  -0.00047   0.00008  -0.00094  -0.00086   2.50946
    R3        2.51522  -0.00021   0.00005  -0.00049  -0.00044   2.51479
    R4        2.84047   0.00004   0.00033  -0.00006   0.00027   2.84073
    R5        2.48425   0.00031   0.00028   0.00037   0.00065   2.48490
    R6        2.51076  -0.00040  -0.00005  -0.00081  -0.00086   2.50990
    R7        2.53264   0.00045   0.00071   0.00126   0.00197   2.53461
    R8        2.84195  -0.00025   0.00067  -0.00086  -0.00019   2.84176
    R9        2.51552  -0.00015  -0.00010  -0.00047  -0.00057   2.51496
    A1        1.88283   0.00004  -0.00016  -0.00002  -0.00018   1.88265
    A2        1.87735  -0.00001  -0.00010   0.00029   0.00019   1.87754
    A3        1.94552   0.00009  -0.00003   0.00061   0.00058   1.94610
    A4        1.90279  -0.00013   0.00007  -0.00095  -0.00088   1.90192
    A5        1.93959  -0.00017   0.00037  -0.00061  -0.00024   1.93935
    A6        1.91412   0.00018  -0.00017   0.00066   0.00050   1.91462
    A7        1.99508   0.00005  -0.00009  -0.00100  -0.00109   1.99398
    A8        2.17611  -0.00008   0.00035  -0.00066  -0.00031   2.17580
    A9        1.99699  -0.00001   0.00022  -0.00108  -0.00087   1.99612
   A10        1.88368   0.00001   0.00004  -0.00117  -0.00113   1.88256
   A11        1.93951  -0.00034   0.00076  -0.00112  -0.00037   1.93915
   A12        1.90062   0.00030  -0.00034   0.00128   0.00094   1.90156
   A13        1.94763  -0.00014  -0.00052  -0.00041  -0.00093   1.94670
   A14        1.87683   0.00042  -0.00037   0.00230   0.00193   1.87876
   A15        1.91383  -0.00022   0.00040  -0.00073  -0.00033   1.91350
    D1       -1.30496   0.00003  -0.00002   0.01663   0.01661  -1.28835
    D2        1.30944  -0.00006   0.00104   0.01050   0.01154   1.32098
    D3        2.87727   0.00003  -0.00005   0.01666   0.01661   2.89388
    D4       -0.79152  -0.00006   0.00101   0.01054   0.01154  -0.77998
    D5        0.77218   0.00019  -0.00027   0.01780   0.01754   0.78971
    D6       -2.89662   0.00010   0.00079   0.01168   0.01247  -2.88415
    D7        0.82314  -0.00009  -0.00014  -0.00321  -0.00335   0.81979
    D8       -1.28029   0.00023  -0.00035  -0.00067  -0.00103  -1.28132
    D9        2.92528  -0.00007   0.00018  -0.00281  -0.00263   2.92265
   D10       -2.84616  -0.00017   0.00083  -0.00932  -0.00848  -2.85464
   D11        1.33360   0.00015   0.00062  -0.00678  -0.00616   1.32744
   D12       -0.74402  -0.00015   0.00115  -0.00892  -0.00776  -0.75178
         Item               Value     Threshold  Converged?
 Maximum Force            0.000619     0.000450     NO 
 RMS     Force            0.000232     0.000300     YES
 Maximum Displacement     0.023109     0.001800     NO 
 RMS     Displacement     0.007193     0.001200     NO 
 Predicted change in Energy=-5.231917D-06
 GradGradGradGradGradGradGradGradGradGradGradGradGradGradGradGradGradGrad

                          Input orientation:                          
 ---------------------------------------------------------------------
 Center     Atomic      Atomic             Coordinates (Angstroms)
 Number     Number       Type             X           Y           Z
 ---------------------------------------------------------------------
      1          6           0       -0.447279    0.060180    0.928967
      2          9           0       -0.651895    1.321863    1.335784
      3          9           0        0.419991   -0.501338    1.763223
      4          9           0       -0.860389    0.276382   -1.393748
      5          9           0       -1.609019   -0.583175    1.014995
      6          9           0        2.348482   -0.253051   -0.123478
      7          9           0        1.688935    1.665683   -0.857879
      8          6           0        0.054772    0.012395   -0.487163
      9          6           0        1.459516    0.345156   -0.908307
     10          9           0        1.655677   -0.050723   -2.163688
 ---------------------------------------------------------------------
                    Distance matrix (angstroms):
                    1          2          3          4          5
     1  C    0.000000
     2  F    1.341347   0.000000
     3  F    1.327947   2.157709   0.000000
     4  F    2.369053   2.930332   3.494380   0.000000
     5  F    1.330769   2.155960   2.164122   2.664832   0.000000
     6  F    3.003670   3.689453   2.709311   3.491524   4.131213
     7  F    3.214634   3.226431   3.629928   2.952349   4.409255
     8  C    1.503251   2.353130   2.336995   1.314954   2.319350
     9  C    2.663204   3.232330   2.989019   2.371148   3.738555
    10  F    3.741556   4.410803   4.141329   2.651488   4.587567
                    6          7          8          9         10
     6  F    0.000000
     7  F    2.157751   0.000000
     8  C    2.337485   2.353993   0.000000
     9  C    1.328183   1.341257   1.503795   0.000000
    10  F    2.164110   2.156917   2.318969   1.330857   0.000000
 Stoichiometry    C3F7(2)
 Framework group  C1[X(C3F7)]
 Deg. of freedom    24
 Full point group                 C1      NOp   1
 Largest Abelian subgroup         C1      NOp   1
 Largest concise Abelian subgroup C1      NOp   1
                         Standard orientation:                         
 ---------------------------------------------------------------------
 Center     Atomic      Atomic             Coordinates (Angstroms)
 Number     Number       Type             X           Y           Z
 ---------------------------------------------------------------------
      1          6           0       -1.331220   -0.134197   -0.030555
      2          9           0       -1.623498   -0.221100    1.275674
      3          9           0       -1.345321   -1.362988   -0.533861
      4          9           0       -0.002285    1.826889   -0.052579
      5          9           0       -2.291411    0.581872   -0.610404
      6          9           0        1.363587   -1.343419   -0.576294
      7          9           0        1.602644   -0.264308    1.276882
      8          6           0       -0.000168    0.527539   -0.254542
      9          6           0        1.331984   -0.133103   -0.030214
     10          9           0        2.295888    0.609562   -0.569210
 ---------------------------------------------------------------------
 Rotational constants (GHZ):           2.1039233           1.0133210           0.8967970
 Standard basis: 6-311+G(2d) (5D, 7F)
 There are   290 symmetry adapted cartesian basis functions of A   symmetry.
 There are   270 symmetry adapted basis functions of A   symmetry.
   270 basis functions,   420 primitive gaussians,   290 cartesian basis functions
    41 alpha electrons       40 beta electrons
       nuclear repulsion energy       639.4639541093 Hartrees.
 NAtoms=   10 NActive=   10 NUniq=   10 SFac= 1.00D+00 NAtFMM=   60 NAOKFM=F Big=F
 Integral buffers will be    131072 words long.
 Raffenetti 2 integral format.
 Two-electron integral symmetry is turned on.
 Nuclear repulsion after empirical dispersion term =      639.4600864637 Hartrees.
 One-electron integrals computed using PRISM.
 NBasis=   270 RedAO= T EigKep=  8.83D-05  NBF=   270
 NBsUse=   270 1.00D-06 EigRej= -1.00D+00 NBFU=   270
 Initial guess from the checkpoint file:  "2_propyl.chk"
 B after Tr=     0.000000    0.000000   -0.000000
         Rot=    0.999996    0.002966    0.000399   -0.000040 Ang=   0.34 deg.
 Initial guess <Sx>= 0.0000 <Sy>= 0.0000 <Sz>= 0.5000 <S**2>= 0.7538 S= 0.5019
 ExpMin= 4.38D-02 ExpMax= 1.14D+04 ExpMxC= 1.72D+03 IAcc=2 IRadAn=         4 AccDes= 0.00D+00
 Harris functional with IExCor= 4639 and IRadAn=       4 diagonalized for initial guess.
 HarFok:  IExCor= 4639 AccDes= 0.00D+00 IRadAn=         4 IDoV= 1 UseB2=F ITyADJ=14
 ICtDFT=  3500011 ScaDFX=  1.000000  1.000000  1.000000  1.000000
 FoFCou: FMM=F IPFlag=           0 FMFlag=      100000 FMFlg1=           0
         NFxFlg=           0 DoJE=T BraDBF=F KetDBF=T FulRan=T
         wScrn=  0.000000 ICntrl=       500 IOpCl=  0 I1Cent=   200000004 NGrid=           0
         NMat0=    1 NMatS0=      1 NMatT0=    0 NMatD0=    1 NMtDS0=    0 NMtDT0=    0
 Petite list used in FoFCou.
 Keep R1 and R2 ints in memory in canonical form, NReq=2703878162.
 Requested convergence on RMS density matrix=1.00D-08 within 128 cycles.
 Requested convergence on MAX density matrix=1.00D-06.
 Requested convergence on             energy=1.00D-06.
 No special actions if energy rises.
 SCF Done:  E(UwB97XD) =  -813.196300505     A.U. after   10 cycles
            NFock= 10  Conv=0.23D-08     -V/T= 2.0025
 <Sx>= 0.0000 <Sy>= 0.0000 <Sz>= 0.5000 <S**2>= 0.7538 S= 0.5019
 <L.S>= 0.000000000000E+00
 Annihilation of the first spin contaminant:
 S**2 before annihilation     0.7538,   after     0.7500
 Calling FoFJK, ICntrl=      2127 FMM=F ISym2X=0 I1Cent= 0 IOpClX= 1 NMat=1 NMatS=1 NMatT=0.
 ***** Axes restored to original set *****
 -------------------------------------------------------------------
 Center     Atomic                   Forces (Hartrees/Bohr)
 Number     Number              X              Y              Z
 -------------------------------------------------------------------
      1        6           0.000048377    0.000438003    0.000369763
      2        9          -0.000037019   -0.000218441   -0.000249517
      3        9           0.000021661   -0.000110381   -0.000072307
      4        9          -0.000090023    0.000066295   -0.000079162
      5        9          -0.000146037   -0.000088708   -0.000020990
      6        9          -0.000084288    0.000000811   -0.000086279
      7        9          -0.000085154   -0.000220610   -0.000082910
      8        6           0.000272152   -0.000073227    0.000110917
      9        6           0.000109373    0.000072797   -0.000011058
     10        9          -0.000009042    0.000133459    0.000121542
 -------------------------------------------------------------------
 Cartesian Forces:  Max     0.000438003 RMS     0.000155742

 GradGradGradGradGradGradGradGradGradGradGradGradGradGradGradGradGradGrad
 Berny optimization.
 Using GEDIIS/GDIIS optimizer.
 FormGI is forming the generalized inverse of G from B-inverse, IUseBI=4.
 Internal  Forces:  Max     0.000275600 RMS     0.000107537
 Search for a local minimum.
 Step number   7 out of a maximum of   46
 All quantities printed in internal units (Hartrees-Bohrs-Radians)
 Mixed Optimization -- En-DIIS/RFO-DIIS
 Swapping is turned off.
 Update second derivatives using D2CorX and points    3    4    5    6    7
 DE= -5.64D-06 DEPred=-5.23D-06 R= 1.08D+00
 TightC=F SS=  1.41D+00  RLast= 3.86D-02 DXNew= 1.4270D+00 1.1575D-01
 Trust test= 1.08D+00 RLast= 3.86D-02 DXMaxT set to 8.49D-01
 ITU=  1  1  1  1  1  1  0
     Eigenvalues ---    0.00174   0.00293   0.01216   0.10358   0.10888
     Eigenvalues ---    0.11983   0.12537   0.20361   0.22619   0.23132
     Eigenvalues ---    0.24965   0.25184   0.26091   0.28028   0.31210
     Eigenvalues ---    0.34330   0.40387   0.45416   0.52072   0.54880
     Eigenvalues ---    0.55062   0.56311   0.58690   0.64431
 En-DIIS/RFO-DIIS/Sim-DIIS IScMMF=       -3 using points:     7    6    5
 RFO step:  Lambda=-3.15458078D-06.
 DidBck=F Rises=F RFO-DIIS coefs:    1.32621    0.21023   -0.53644
 Iteration  1 RMS(Cart)=  0.00652459 RMS(Int)=  0.00002027
 Iteration  2 RMS(Cart)=  0.00002157 RMS(Int)=  0.00000226
 Iteration  3 RMS(Cart)=  0.00000000 RMS(Int)=  0.00000226
 Variable       Old X    -DE/DX   Delta X   Delta X   Delta X     New X
                                 (Linear)    (Quad)   (Total)
    R1        2.53478  -0.00028  -0.00012  -0.00069  -0.00080   2.53398
    R2        2.50946   0.00002   0.00006  -0.00028  -0.00022   2.50923
    R3        2.51479   0.00017   0.00008   0.00005   0.00014   2.51493
    R4        2.84073   0.00007   0.00149  -0.00100   0.00049   2.84122
    R5        2.48490   0.00013   0.00142  -0.00088   0.00054   2.48545
    R6        2.50990  -0.00011  -0.00050   0.00017  -0.00032   2.50958
    R7        2.53461  -0.00024   0.00371  -0.00344   0.00027   2.53488
    R8        2.84176  -0.00005   0.00285  -0.00270   0.00016   2.84192
    R9        2.51496  -0.00015  -0.00062   0.00028  -0.00034   2.51462
    A1        1.88265   0.00024  -0.00073   0.00179   0.00106   1.88371
    A2        1.87754   0.00005  -0.00037   0.00037   0.00000   1.87754
    A3        1.94610  -0.00019   0.00006  -0.00055  -0.00049   1.94562
    A4        1.90192   0.00004   0.00004  -0.00022  -0.00019   1.90173
    A5        1.93935  -0.00009   0.00150  -0.00163  -0.00013   1.93922
    A6        1.91462  -0.00003  -0.00056   0.00033  -0.00023   1.91438
    A7        1.99398  -0.00010  -0.00076  -0.00030  -0.00107   1.99292
    A8        2.17580   0.00016   0.00144  -0.00111   0.00033   2.17613
    A9        1.99612  -0.00007   0.00066  -0.00140  -0.00075   1.99538
   A10        1.88256   0.00008  -0.00019   0.00049   0.00031   1.88286
   A11        1.93915   0.00000   0.00315  -0.00303   0.00012   1.93926
   A12        1.90156  -0.00000  -0.00115   0.00129   0.00014   1.90170
   A13        1.94670  -0.00005  -0.00257   0.00203  -0.00054   1.94616
   A14        1.87876  -0.00008  -0.00099   0.00112   0.00013   1.87889
   A15        1.91350   0.00005   0.00161  -0.00174  -0.00013   1.91337
    D1       -1.28835   0.00009   0.00535   0.00437   0.00972  -1.27863
    D2        1.32098   0.00006   0.00826  -0.00191   0.00635   1.32733
    D3        2.89388  -0.00002   0.00521   0.00358   0.00879   2.90267
    D4       -0.77998  -0.00005   0.00812  -0.00269   0.00542  -0.77455
    D5        0.78971   0.00001   0.00457   0.00469   0.00926   0.79897
    D6       -2.88415  -0.00002   0.00748  -0.00159   0.00589  -2.87826
    D7        0.81979   0.00005  -0.00170   0.00980   0.00810   0.82789
    D8       -1.28132  -0.00002  -0.00187   0.00987   0.00800  -1.27332
    D9        2.92265   0.00009  -0.00007   0.00833   0.00826   2.93091
   D10       -2.85464   0.00001   0.00084   0.00381   0.00465  -2.85000
   D11        1.32744  -0.00005   0.00066   0.00388   0.00455   1.33198
   D12       -0.75178   0.00005   0.00246   0.00234   0.00480  -0.74698
         Item               Value     Threshold  Converged?
 Maximum Force            0.000276     0.000450     YES
 RMS     Force            0.000108     0.000300     YES
 Maximum Displacement     0.016436     0.001800     NO 
 RMS     Displacement     0.006525     0.001200     NO 
 Predicted change in Energy=-1.544071D-06
 GradGradGradGradGradGradGradGradGradGradGradGradGradGradGradGradGradGrad

                          Input orientation:                          
 ---------------------------------------------------------------------
 Center     Atomic      Atomic             Coordinates (Angstroms)
 Number     Number       Type             X           Y           Z
 ---------------------------------------------------------------------
      1          6           0       -0.447637    0.061472    0.929230
      2          9           0       -0.659735    1.323247    1.330493
      3          9           0        0.422258   -0.492641    1.765515
      4          9           0       -0.859691    0.277941   -1.393287
      5          9           0       -1.605830   -0.588171    1.016932
      6          9           0        2.348987   -0.261207   -0.128539
      7          9           0        1.691922    1.663372   -0.850411
      8          6           0        0.055231    0.011354   -0.486805
      9          6           0        1.460133    0.343418   -0.908272
     10          9           0        1.653157   -0.045415   -2.166150
 ---------------------------------------------------------------------
                    Distance matrix (angstroms):
                    1          2          3          4          5
     1  C    0.000000
     2  F    1.340923   0.000000
     3  F    1.327830   2.158101   0.000000
     4  F    2.368698   2.924317   3.495028   0.000000
     5  F    1.330841   2.155675   2.163942   2.667588   0.000000
     6  F    3.007341   3.700227   2.711695   3.490828   4.130325
     7  F    3.211061   3.225263   3.619877   2.953788   4.408127
     8  C    1.503510   2.352619   2.337021   1.315241   2.319435
     9  C    2.663736   3.235116   2.987527   2.370888   3.738234
    10  F    3.742477   4.410127   4.144046   2.648826   4.587765
                    6          7          8          9         10
     6  F    0.000000
     7  F    2.157971   0.000000
     8  C    2.337512   2.353749   0.000000
     9  C    1.328012   1.341400   1.503878   0.000000
    10  F    2.163932   2.156995   2.318790   1.330678   0.000000
 Stoichiometry    C3F7(2)
 Framework group  C1[X(C3F7)]
 Deg. of freedom    24
 Full point group                 C1      NOp   1
 Largest Abelian subgroup         C1      NOp   1
 Largest concise Abelian subgroup C1      NOp   1
                         Standard orientation:                         
 ---------------------------------------------------------------------
 Center     Atomic      Atomic             Coordinates (Angstroms)
 Number     Number       Type             X           Y           Z
 ---------------------------------------------------------------------
      1          6           0       -1.331439   -0.134692   -0.030409
      2          9           0       -1.626511   -0.210567    1.275442
      3          9           0       -1.343277   -1.367148   -0.524419
      4          9           0       -0.002624    1.826031   -0.053800
      5          9           0       -2.290616    0.576134   -0.618496
      6          9           0        1.367687   -1.340908   -0.581649
      7          9           0        1.598215   -0.269331    1.277227
      8          6           0       -0.000158    0.526490   -0.256398
      9          6           0        1.332297   -0.133190   -0.030484
     10          9           0        2.296660    0.613384   -0.562778
 ---------------------------------------------------------------------
 Rotational constants (GHZ):           2.1044325           1.0132432           0.8968222
 Standard basis: 6-311+G(2d) (5D, 7F)
 There are   290 symmetry adapted cartesian basis functions of A   symmetry.
 There are   270 symmetry adapted basis functions of A   symmetry.
   270 basis functions,   420 primitive gaussians,   290 cartesian basis functions
    41 alpha electrons       40 beta electrons
       nuclear repulsion energy       639.4784379022 Hartrees.
 NAtoms=   10 NActive=   10 NUniq=   10 SFac= 1.00D+00 NAtFMM=   60 NAOKFM=F Big=F
 Integral buffers will be    131072 words long.
 Raffenetti 2 integral format.
 Two-electron integral symmetry is turned on.
 Nuclear repulsion after empirical dispersion term =      639.4745698767 Hartrees.
 One-electron integrals computed using PRISM.
 NBasis=   270 RedAO= T EigKep=  8.84D-05  NBF=   270
 NBsUse=   270 1.00D-06 EigRej= -1.00D+00 NBFU=   270
 Initial guess from the checkpoint file:  "2_propyl.chk"
 B after Tr=    -0.000000   -0.000000    0.000000
         Rot=    1.000000    0.000740    0.000526   -0.000206 Ang=   0.11 deg.
 Initial guess <Sx>= 0.0000 <Sy>= 0.0000 <Sz>= 0.5000 <S**2>= 0.7538 S= 0.5019
 Keep R1 and R2 ints in memory in canonical form, NReq=2703878162.
 Requested convergence on RMS density matrix=1.00D-08 within 128 cycles.
 Requested convergence on MAX density matrix=1.00D-06.
 Requested convergence on             energy=1.00D-06.
 No special actions if energy rises.
 SCF Done:  E(UwB97XD) =  -813.196302807     A.U. after   10 cycles
            NFock= 10  Conv=0.22D-08     -V/T= 2.0025
 <Sx>= 0.0000 <Sy>= 0.0000 <Sz>= 0.5000 <S**2>= 0.7538 S= 0.5019
 <L.S>= 0.000000000000E+00
 Annihilation of the first spin contaminant:
 S**2 before annihilation     0.7538,   after     0.7500
 Calling FoFJK, ICntrl=      2127 FMM=F ISym2X=0 I1Cent= 0 IOpClX= 1 NMat=1 NMatS=1 NMatT=0.
 ***** Axes restored to original set *****
 -------------------------------------------------------------------
 Center     Atomic                   Forces (Hartrees/Bohr)
 Number     Number              X              Y              Z
 -------------------------------------------------------------------
      1        6           0.000080418    0.000212017   -0.000001946
      2        9          -0.000018856   -0.000067344   -0.000085941
      3        9           0.000097570   -0.000033059    0.000004043
      4        9          -0.000016127   -0.000016143    0.000047255
      5        9          -0.000197605   -0.000100299    0.000011586
      6        9           0.000016219   -0.000017000   -0.000009251
      7        9          -0.000006049   -0.000282406   -0.000064080
      8        6           0.000077873    0.000026390    0.000000851
      9        6          -0.000071079    0.000169060    0.000038330
     10        9           0.000037634    0.000108784    0.000059152
 -------------------------------------------------------------------
 Cartesian Forces:  Max     0.000282406 RMS     0.000094775

 GradGradGradGradGradGradGradGradGradGradGradGradGradGradGradGradGradGrad
 Berny optimization.
 Using GEDIIS/GDIIS optimizer.
 FormGI is forming the generalized inverse of G from B-inverse, IUseBI=4.
 Internal  Forces:  Max     0.000282282 RMS     0.000079839
 Search for a local minimum.
 Step number   8 out of a maximum of   46
 All quantities printed in internal units (Hartrees-Bohrs-Radians)
 Mixed Optimization -- En-DIIS/RFO-DIIS
 Swapping is turned off.
 Update second derivatives using D2CorX and points    3    4    5    6    7
                                                      8
 DE= -2.30D-06 DEPred=-1.54D-06 R= 1.49D+00
 TightC=F SS=  1.41D+00  RLast= 2.51D-02 DXNew= 1.4270D+00 7.5331D-02
 Trust test= 1.49D+00 RLast= 2.51D-02 DXMaxT set to 8.49D-01
 ITU=  1  1  1  1  1  1  1  0
     Eigenvalues ---    0.00038   0.00280   0.01482   0.10797   0.11509
     Eigenvalues ---    0.11996   0.13268   0.20717   0.22123   0.24036
     Eigenvalues ---    0.24890   0.25240   0.26819   0.30088   0.31835
     Eigenvalues ---    0.38701   0.40895   0.47076   0.52135   0.54545
     Eigenvalues ---    0.55251   0.56807   0.61734   0.70218
 En-DIIS/RFO-DIIS/Sim-DIIS IScMMF=       -3 using points:     8    7    6    5
 RFO step:  Lambda=-1.22476005D-05.
 DidBck=F Rises=F RFO-DIIS coefs:    3.00000   -1.77987    0.07727   -0.29740
 Iteration  1 RMS(Cart)=  0.03916002 RMS(Int)=  0.00072308
 Iteration  2 RMS(Cart)=  0.00077070 RMS(Int)=  0.00000593
 Iteration  3 RMS(Cart)=  0.00000024 RMS(Int)=  0.00000593
 Variable       Old X    -DE/DX   Delta X   Delta X   Delta X     New X
                                 (Linear)    (Quad)   (Total)
    R1        2.53398  -0.00009  -0.00171  -0.00164  -0.00335   2.53062
    R2        2.50923   0.00008  -0.00044  -0.00037  -0.00081   2.50842
    R3        2.51493   0.00022   0.00030   0.00071   0.00102   2.51594
    R4        2.84122  -0.00005   0.00182  -0.00007   0.00175   2.84297
    R5        2.48545  -0.00002   0.00190   0.00040   0.00230   2.48775
    R6        2.50958   0.00001  -0.00095  -0.00037  -0.00133   2.50825
    R7        2.53488  -0.00028   0.00268  -0.00103   0.00165   2.53653
    R8        2.84192  -0.00004   0.00189  -0.00089   0.00100   2.84292
    R9        2.51462  -0.00008  -0.00104  -0.00048  -0.00152   2.51310
    A1        1.88371   0.00008   0.00170   0.00172   0.00342   1.88713
    A2        1.87754   0.00001  -0.00019   0.00018  -0.00002   1.87753
    A3        1.94562  -0.00007  -0.00092  -0.00071  -0.00163   1.94399
    A4        1.90173   0.00005  -0.00039  -0.00014  -0.00053   1.90120
    A5        1.93922  -0.00009   0.00057  -0.00150  -0.00093   1.93829
    A6        1.91438   0.00003  -0.00076   0.00052  -0.00024   1.91415
    A7        1.99292  -0.00006  -0.00260  -0.00174  -0.00436   1.98856
    A8        2.17613  -0.00002   0.00144  -0.00048   0.00094   2.17707
    A9        1.99538   0.00008  -0.00116  -0.00045  -0.00164   1.99374
   A10        1.88286  -0.00002   0.00046  -0.00004   0.00042   1.88329
   A11        1.93926  -0.00000   0.00196  -0.00156   0.00040   1.93966
   A12        1.90170  -0.00003  -0.00033   0.00063   0.00030   1.90199
   A13        1.94616   0.00007  -0.00254   0.00041  -0.00213   1.94403
   A14        1.87889  -0.00012  -0.00020   0.00090   0.00070   1.87959
   A15        1.91337   0.00010   0.00061  -0.00024   0.00037   1.91373
    D1       -1.27863   0.00002   0.02306   0.03326   0.05631  -1.22232
    D2        1.32733   0.00003   0.01773   0.02751   0.04525   1.37258
    D3        2.90267   0.00002   0.02112   0.03259   0.05371   2.95638
    D4       -0.77455   0.00004   0.01580   0.02684   0.04265  -0.73191
    D5        0.79897  -0.00000   0.02174   0.03338   0.05512   0.85409
    D6       -2.87826   0.00001   0.01642   0.02763   0.04406  -2.83420
    D7        0.82789   0.00003   0.01513   0.02469   0.03983   0.86771
    D8       -1.27332   0.00001   0.01493   0.02553   0.04046  -1.23285
    D9        2.93091   0.00005   0.01638   0.02431   0.04069   2.97160
   D10       -2.85000   0.00001   0.00942   0.01859   0.02801  -2.82199
   D11        1.33198  -0.00001   0.00921   0.01943   0.02865   1.36063
   D12       -0.74698   0.00003   0.01067   0.01821   0.02888  -0.71810
         Item               Value     Threshold  Converged?
 Maximum Force            0.000282     0.000450     YES
 RMS     Force            0.000080     0.000300     YES
 Maximum Displacement     0.104331     0.001800     NO 
 RMS     Displacement     0.039160     0.001200     NO 
 Predicted change in Energy=-6.110034D-06
 GradGradGradGradGradGradGradGradGradGradGradGradGradGradGradGradGradGrad

                          Input orientation:                          
 ---------------------------------------------------------------------
 Center     Atomic      Atomic             Coordinates (Angstroms)
 Number     Number       Type             X           Y           Z
 ---------------------------------------------------------------------
      1          6           0       -0.449995    0.069164    0.929525
      2          9           0       -0.709288    1.328821    1.302818
      3          9           0        0.438980   -0.437431    1.775148
      4          9           0       -0.857838    0.289722   -1.391787
      5          9           0       -1.583885   -0.621342    1.029858
      6          9           0        2.347788   -0.309458   -0.155752
      7          9           0        1.713910    1.647945   -0.808181
      8          6           0        0.055641    0.009659   -0.486145
      9          6           0        1.462982    0.333123   -0.908057
     10          9           0        1.640499   -0.016832   -2.178721
 ---------------------------------------------------------------------
                    Distance matrix (angstroms):
                    1          2          3          4          5
     1  C    0.000000
     2  F    1.339148   0.000000
     3  F    1.327401   2.158995   0.000000
     4  F    2.367165   2.891831   3.498566   0.000000
     5  F    1.331380   2.154661   2.163623   2.687294   0.000000
     6  F    3.024694   3.762592   2.718143   3.487526   4.118374
     7  F    3.192907   3.229558   3.556379   2.966354   4.404941
     8  C    1.504437   2.350679   2.336725   1.316460   2.320447
     9  C    2.665682   3.255478   2.973537   2.371093   3.734959
    10  F    3.746832   4.410600   4.153749   2.637220   4.588798
                    6          7          8          9         10
     6  F    0.000000
     7  F    2.158446   0.000000
     8  C    2.337719   2.353199   0.000000
     9  C    1.327311   1.342274   1.504409   0.000000
    10  F    2.162936   2.157603   2.318898   1.329875   0.000000
 Stoichiometry    C3F7(2)
 Framework group  C1[X(C3F7)]
 Deg. of freedom    24
 Full point group                 C1      NOp   1
 Largest Abelian subgroup         C1      NOp   1
 Largest concise Abelian subgroup C1      NOp   1
                         Standard orientation:                         
 ---------------------------------------------------------------------
 Center     Atomic      Atomic             Coordinates (Angstroms)
 Number     Number       Type             X           Y           Z
 ---------------------------------------------------------------------
      1          6           0       -1.332024   -0.136688   -0.029770
      2          9           0       -1.649718   -0.149777    1.271082
      3          9           0       -1.325594   -1.390380   -0.465900
      4          9           0       -0.005643    1.823776   -0.057373
      5          9           0       -2.284767    0.538299   -0.669491
      6          9           0        1.387756   -1.324604   -0.613230
      7          9           0        1.576294   -0.300941    1.277658
      8          6           0       -0.000330    0.523414   -0.262550
      9          6           0        1.333655   -0.132676   -0.031736
     10          9           0        2.300805    0.634259   -0.526708
 ---------------------------------------------------------------------
 Rotational constants (GHZ):           2.1062325           1.0129058           0.8968001
 Standard basis: 6-311+G(2d) (5D, 7F)
 There are   290 symmetry adapted cartesian basis functions of A   symmetry.
 There are   270 symmetry adapted basis functions of A   symmetry.
   270 basis functions,   420 primitive gaussians,   290 cartesian basis functions
    41 alpha electrons       40 beta electrons
       nuclear repulsion energy       639.5087333009 Hartrees.
 NAtoms=   10 NActive=   10 NUniq=   10 SFac= 1.00D+00 NAtFMM=   60 NAOKFM=F Big=F
 Integral buffers will be    131072 words long.
 Raffenetti 2 integral format.
 Two-electron integral symmetry is turned on.
 Nuclear repulsion after empirical dispersion term =      639.5048638946 Hartrees.
 One-electron integrals computed using PRISM.
 NBasis=   270 RedAO= T EigKep=  8.91D-05  NBF=   270
 NBsUse=   270 1.00D-06 EigRej= -1.00D+00 NBFU=   270
 Initial guess from the checkpoint file:  "2_propyl.chk"
 B after Tr=     0.000000    0.000000   -0.000000
         Rot=    0.999985    0.004151    0.003190   -0.001359 Ang=   0.62 deg.
 Initial guess <Sx>= 0.0000 <Sy>= 0.0000 <Sz>= 0.5000 <S**2>= 0.7538 S= 0.5019
 ExpMin= 4.38D-02 ExpMax= 1.14D+04 ExpMxC= 1.72D+03 IAcc=2 IRadAn=         4 AccDes= 0.00D+00
 Harris functional with IExCor= 4639 and IRadAn=       4 diagonalized for initial guess.
 HarFok:  IExCor= 4639 AccDes= 0.00D+00 IRadAn=         4 IDoV= 1 UseB2=F ITyADJ=14
 ICtDFT=  3500011 ScaDFX=  1.000000  1.000000  1.000000  1.000000
 FoFCou: FMM=F IPFlag=           0 FMFlag=      100000 FMFlg1=           0
         NFxFlg=           0 DoJE=T BraDBF=F KetDBF=T FulRan=T
         wScrn=  0.000000 ICntrl=       500 IOpCl=  0 I1Cent=   200000004 NGrid=           0
         NMat0=    1 NMatS0=      1 NMatT0=    0 NMatD0=    1 NMtDS0=    0 NMtDT0=    0
 Petite list used in FoFCou.
 Keep R1 and R2 ints in memory in canonical form, NReq=2703878162.
 Requested convergence on RMS density matrix=1.00D-08 within 128 cycles.
 Requested convergence on MAX density matrix=1.00D-06.
 Requested convergence on             energy=1.00D-06.
 No special actions if energy rises.
 SCF Done:  E(UwB97XD) =  -813.196311880     A.U. after   11 cycles
            NFock= 11  Conv=0.77D-08     -V/T= 2.0025
 <Sx>= 0.0000 <Sy>= 0.0000 <Sz>= 0.5000 <S**2>= 0.7538 S= 0.5019
 <L.S>= 0.000000000000E+00
 Annihilation of the first spin contaminant:
 S**2 before annihilation     0.7538,   after     0.7500
 Calling FoFJK, ICntrl=      2127 FMM=F ISym2X=0 I1Cent= 0 IOpClX= 1 NMat=1 NMatS=1 NMatT=0.
 ***** Axes restored to original set *****
 -------------------------------------------------------------------
 Center     Atomic                   Forces (Hartrees/Bohr)
 Number     Number              X              Y              Z
 -------------------------------------------------------------------
      1        6           0.000331690   -0.000692276   -0.001252952
      2        9          -0.000086562    0.000568444    0.000367330
      3        9           0.000327590    0.000117288    0.000278299
      4        9           0.000362301   -0.000409492    0.000617243
      5        9          -0.000308784   -0.000071587    0.000110990
      6        9           0.000441583   -0.000215763    0.000277527
      7        9           0.000193140   -0.000628845   -0.000052920
      8        6          -0.000684597    0.000531835   -0.000530569
      9        6          -0.000653456    0.000774890    0.000324782
     10        9           0.000077095    0.000025506   -0.000139730
 -------------------------------------------------------------------
 Cartesian Forces:  Max     0.001252952 RMS     0.000467695

 GradGradGradGradGradGradGradGradGradGradGradGradGradGradGradGradGradGrad
 Berny optimization.
 Using GEDIIS/GDIIS optimizer.
 FormGI is forming the generalized inverse of G from B-inverse, IUseBI=4.
 Internal  Forces:  Max     0.000762553 RMS     0.000315052
 Search for a local minimum.
 Step number   9 out of a maximum of   46
 All quantities printed in internal units (Hartrees-Bohrs-Radians)
 Mixed Optimization -- En-DIIS/RFO-DIIS
 Swapping is turned off.
 Update second derivatives using D2CorX and points    3    4    5    6    7
                                                      8    9
 DE= -9.07D-06 DEPred=-6.11D-06 R= 1.48D+00
 TightC=F SS=  1.41D+00  RLast= 1.49D-01 DXNew= 1.4270D+00 4.4792D-01
 Trust test= 1.48D+00 RLast= 1.49D-01 DXMaxT set to 8.49D-01
 ITU=  1  1  1  1  1  1  1  1  0
     Eigenvalues ---    0.00013   0.00295   0.01614   0.10819   0.11625
     Eigenvalues ---    0.12341   0.13573   0.20674   0.22011   0.23946
     Eigenvalues ---    0.24857   0.25304   0.26877   0.29876   0.32662
     Eigenvalues ---    0.38756   0.42502   0.46730   0.54034   0.54984
     Eigenvalues ---    0.55721   0.56859   0.60501   1.36398
 En-DIIS/RFO-DIIS/Sim-DIIS IScMMF=       -3 using points:     9    8    7    6    5
 RFO step:  Lambda=-2.03263510D-05.
 DIIS inversion failure, remove point   5.
 DIIS inversion failure, remove point   4.
 RFO-DIIS uses    3 points instead of    5
 DidBck=F Rises=F RFO-DIIS coefs:    2.78604    0.21396   -2.00000    0.00000    0.00000
 Iteration  1 RMS(Cart)=  0.09019226 RMS(Int)=  0.00383906
 Iteration  2 RMS(Cart)=  0.00409595 RMS(Int)=  0.00003042
 Iteration  3 RMS(Cart)=  0.00000670 RMS(Int)=  0.00003012
 Iteration  4 RMS(Cart)=  0.00000000 RMS(Int)=  0.00003012
 Variable       Old X    -DE/DX   Delta X   Delta X   Delta X     New X
                                 (Linear)    (Quad)   (Total)
    R1        2.53062   0.00065  -0.00760   0.00089  -0.00670   2.52392
    R2        2.50842   0.00035  -0.00189   0.00013  -0.00176   2.50666
    R3        2.51594   0.00031   0.00209  -0.00001   0.00208   2.51802
    R4        2.84297  -0.00056   0.00411  -0.00136   0.00274   2.84572
    R5        2.48775  -0.00076   0.00520  -0.00106   0.00414   2.49189
    R6        2.50825   0.00056  -0.00301  -0.00018  -0.00320   2.50506
    R7        2.53653  -0.00058   0.00349   0.00157   0.00506   2.54159
    R8        2.84292  -0.00007   0.00211  -0.00099   0.00112   2.84404
    R9        2.51310   0.00014  -0.00339  -0.00025  -0.00364   2.50946
    A1        1.88713  -0.00028   0.00822  -0.00148   0.00675   1.89388
    A2        1.87753  -0.00016  -0.00003  -0.00075  -0.00079   1.87674
    A3        1.94399   0.00020  -0.00389   0.00110  -0.00279   1.94120
    A4        1.90120   0.00006  -0.00132  -0.00044  -0.00176   1.89944
    A5        1.93829  -0.00004  -0.00191   0.00021  -0.00170   1.93660
    A6        1.91415   0.00022  -0.00090   0.00126   0.00036   1.91451
    A7        1.98856   0.00001  -0.00991   0.00147  -0.00853   1.98003
    A8        2.17707  -0.00056   0.00233   0.00026   0.00250   2.17957
    A9        1.99374   0.00055  -0.00442   0.00225  -0.00228   1.99146
   A10        1.88329  -0.00029   0.00137  -0.00176  -0.00040   1.88289
   A11        1.93966   0.00003   0.00094   0.00038   0.00132   1.94099
   A12        1.90199  -0.00009   0.00080   0.00030   0.00110   1.90309
   A13        1.94403   0.00049  -0.00489   0.00047  -0.00442   1.93961
   A14        1.87959  -0.00020   0.00151  -0.00026   0.00125   1.88084
   A15        1.91373   0.00003   0.00039   0.00081   0.00120   1.91494
    D1       -1.22232  -0.00017   0.12002   0.00410   0.12409  -1.09823
    D2        1.37258   0.00003   0.09353   0.01291   0.10646   1.47904
    D3        2.95638   0.00008   0.11350   0.00508   0.11856   3.07494
    D4       -0.73191   0.00028   0.08701   0.01390   0.10094  -0.63097
    D5        0.85409  -0.00011   0.11696   0.00467   0.12160   0.97569
    D6       -2.83420   0.00009   0.09047   0.01348   0.10398  -2.73022
    D7        0.86771   0.00004   0.08734   0.00176   0.08911   0.95682
    D8       -1.23285   0.00005   0.08827   0.00342   0.09170  -1.14115
    D9        2.97160  -0.00002   0.08920   0.00292   0.09214   3.06374
   D10       -2.82199   0.00009   0.05932   0.01038   0.06970  -2.75229
   D11        1.36063   0.00010   0.06025   0.01204   0.07229   1.43292
   D12       -0.71810   0.00003   0.06119   0.01154   0.07272  -0.64537
         Item               Value     Threshold  Converged?
 Maximum Force            0.000763     0.000450     NO 
 RMS     Force            0.000315     0.000300     NO 
 Maximum Displacement     0.247052     0.001800     NO 
 RMS     Displacement     0.090250     0.001200     NO 
 Predicted change in Energy=-9.499240D-06
 GradGradGradGradGradGradGradGradGradGradGradGradGradGradGradGradGradGrad

                          Input orientation:                          
 ---------------------------------------------------------------------
 Center     Atomic      Atomic             Coordinates (Angstroms)
 Number     Number       Type             X           Y           Z
 ---------------------------------------------------------------------
      1          6           0       -0.455340    0.087539    0.929227
      2          9           0       -0.822660    1.333146    1.241271
      3          9           0        0.471940   -0.306697    1.791924
      4          9           0       -0.853445    0.313290   -1.389691
      5          9           0       -1.527220   -0.692540    1.063596
      6          9           0        2.339840   -0.417153   -0.221805
      7          9           0        1.767297    1.606154   -0.711163
      8          6           0        0.056029    0.008104   -0.484949
      9          6           0        1.468674    0.309558   -0.907538
     10          9           0        1.613679    0.051970   -2.202168
 ---------------------------------------------------------------------
                    Distance matrix (angstroms):
                    1          2          3          4          5
     1  C    0.000000
     2  F    1.335601   0.000000
     3  F    1.326468   2.160623   0.000000
     4  F    2.363648   2.821881   3.501957   0.000000
     5  F    1.332481   2.152063   2.162402   2.735741   0.000000
     6  F    3.064738   3.899428   2.748882   3.477726   4.084390
     7  F    3.152330   3.254905   3.406228   3.000031   4.391765
     8  C    1.505889   2.346841   2.335858   1.318651   2.322836
     9  C    2.669237   3.303834   2.942846   2.371650   3.723567
    10  F    3.753364   4.408450   4.169530   2.610577   4.591814
                    6          7          8          9         10
     6  F    0.000000
     7  F    2.158946   0.000000
     8  C    2.337922   2.352312   0.000000
     9  C    1.325620   1.344953   1.504999   0.000000
    10  F    2.160839   2.159209   2.318845   1.327948   0.000000
 Stoichiometry    C3F7(2)
 Framework group  C1[X(C3F7)]
 Deg. of freedom    24
 Full point group                 C1      NOp   1
 Largest Abelian subgroup         C1      NOp   1
 Largest concise Abelian subgroup C1      NOp   1
                         Standard orientation:                         
 ---------------------------------------------------------------------
 Center     Atomic      Atomic             Coordinates (Angstroms)
 Number     Number       Type             X           Y           Z
 ---------------------------------------------------------------------
      1          6           0       -1.332761   -0.140230   -0.028064
      2          9           0       -1.705892   -0.017038    1.248426
      3          9           0       -1.287094   -1.430883   -0.330796
      4          9           0       -0.012090    1.819726   -0.063193
      5          9           0       -2.266628    0.444496   -0.777391
      6          9           0        1.434430   -1.280699   -0.687310
      7          9           0        1.528546   -0.380659    1.272822
      8          6           0       -0.000512    0.517845   -0.272509
      9          6           0        1.336453   -0.131004   -0.034723
     10          9           0        2.306609    0.680649   -0.439027
 ---------------------------------------------------------------------
 Rotational constants (GHZ):           2.1099634           1.0122697           0.8966656
 Standard basis: 6-311+G(2d) (5D, 7F)
 There are   290 symmetry adapted cartesian basis functions of A   symmetry.
 There are   270 symmetry adapted basis functions of A   symmetry.
   270 basis functions,   420 primitive gaussians,   290 cartesian basis functions
    41 alpha electrons       40 beta electrons
       nuclear repulsion energy       639.5792590600 Hartrees.
 NAtoms=   10 NActive=   10 NUniq=   10 SFac= 1.00D+00 NAtFMM=   60 NAOKFM=F Big=F
 Integral buffers will be    131072 words long.
 Raffenetti 2 integral format.
 Two-electron integral symmetry is turned on.
 Nuclear repulsion after empirical dispersion term =      639.5753830445 Hartrees.
 One-electron integrals computed using PRISM.
 NBasis=   270 RedAO= T EigKep=  9.04D-05  NBF=   270
 NBsUse=   270 1.00D-06 EigRej= -1.00D+00 NBFU=   270
 Initial guess from the checkpoint file:  "2_propyl.chk"
 B after Tr=     0.000000   -0.000000   -0.000000
         Rot=    0.999937    0.007932    0.007314   -0.003137 Ang=   1.29 deg.
 Initial guess <Sx>= 0.0000 <Sy>= 0.0000 <Sz>= 0.5000 <S**2>= 0.7538 S= 0.5019
 ExpMin= 4.38D-02 ExpMax= 1.14D+04 ExpMxC= 1.72D+03 IAcc=2 IRadAn=         4 AccDes= 0.00D+00
 Harris functional with IExCor= 4639 and IRadAn=       4 diagonalized for initial guess.
 HarFok:  IExCor= 4639 AccDes= 0.00D+00 IRadAn=         4 IDoV= 1 UseB2=F ITyADJ=14
 ICtDFT=  3500011 ScaDFX=  1.000000  1.000000  1.000000  1.000000
 FoFCou: FMM=F IPFlag=           0 FMFlag=      100000 FMFlg1=           0
         NFxFlg=           0 DoJE=T BraDBF=F KetDBF=T FulRan=T
         wScrn=  0.000000 ICntrl=       500 IOpCl=  0 I1Cent=   200000004 NGrid=           0
         NMat0=    1 NMatS0=      1 NMatT0=    0 NMatD0=    1 NMtDS0=    0 NMtDT0=    0
 Petite list used in FoFCou.
 Keep R1 and R2 ints in memory in canonical form, NReq=2703878162.
 Requested convergence on RMS density matrix=1.00D-08 within 128 cycles.
 Requested convergence on MAX density matrix=1.00D-06.
 Requested convergence on             energy=1.00D-06.
 No special actions if energy rises.
 SCF Done:  E(UwB97XD) =  -813.196294519     A.U. after   12 cycles
            NFock= 12  Conv=0.49D-08     -V/T= 2.0025
 <Sx>= 0.0000 <Sy>= 0.0000 <Sz>= 0.5000 <S**2>= 0.7538 S= 0.5019
 <L.S>= 0.000000000000E+00
 Annihilation of the first spin contaminant:
 S**2 before annihilation     0.7538,   after     0.7500
 Calling FoFJK, ICntrl=      2127 FMM=F ISym2X=0 I1Cent= 0 IOpClX= 1 NMat=1 NMatS=1 NMatT=0.
 ***** Axes restored to original set *****
 -------------------------------------------------------------------
 Center     Atomic                   Forces (Hartrees/Bohr)
 Number     Number              X              Y              Z
 -------------------------------------------------------------------
      1        6           0.000796842   -0.002497217   -0.003263249
      2        9          -0.000199565    0.001862566    0.001019351
      3        9           0.001106886    0.000338874    0.000887535
      4        9           0.000969189   -0.001325811    0.001535287
      5        9          -0.000677754   -0.000173097    0.000257695
      6        9           0.001351719   -0.001032176    0.001041511
      7        9           0.000324960   -0.001730969   -0.000249406
      8        6          -0.002346914    0.001866370   -0.001789940
      9        6          -0.001494759    0.002877266    0.001175381
     10        9           0.000169394   -0.000185805   -0.000614165
 -------------------------------------------------------------------
 Cartesian Forces:  Max     0.003263249 RMS     0.001431515

 GradGradGradGradGradGradGradGradGradGradGradGradGradGradGradGradGradGrad
 Berny optimization.
 Using GEDIIS/GDIIS optimizer.
 FormGI is forming the generalized inverse of G from B-inverse, IUseBI=4.
 Internal  Forces:  Max     0.002243067 RMS     0.000950046
 Search for a local minimum.
 Step number  10 out of a maximum of   46
 All quantities printed in internal units (Hartrees-Bohrs-Radians)
 Mixed Optimization -- En-DIIS/RFO-DIIS
 Swapping is turned off.
 Update second derivatives using D2CorX and points    4    5    6    7    8
                                                      9   10
 DE=  1.74D-05 DEPred=-9.50D-06 R=-1.83D+00
 Trust test=-1.83D+00 RLast= 3.42D-01 DXMaxT set to 4.24D-01
 ITU= -1  1  1  1  1  1  1  1  1  0
     Eigenvalues ---    0.00058   0.00276   0.01586   0.10735   0.11474
     Eigenvalues ---    0.12279   0.13607   0.18934   0.21519   0.22478
     Eigenvalues ---    0.24896   0.25196   0.26799   0.29811   0.32433
     Eigenvalues ---    0.35858   0.40554   0.44865   0.53761   0.54064
     Eigenvalues ---    0.55226   0.56124   0.59328   1.31294
 En-DIIS/RFO-DIIS/Sim-DIIS IScMMF=       -3 using points:    10    9    8    7    6    5
 RFO step:  Lambda=-6.23933888D-05.
 DIIS inversion failure, remove point   6.
 DIIS inversion failure, remove point   5.
 RFO-DIIS uses    4 points instead of    6
 EnCoef did   100 forward-backward iterations
 EnCoef did   100 forward-backward iterations
 EnCoef did   100 forward-backward iterations
 EnCoef did   100 forward-backward iterations
 DidBck=T Rises=T En-DIIS coefs:    0.39906    0.60094    0.00000    0.00000    0.00000
                  En-DIIS coefs:    0.00000
 Iteration  1 RMS(Cart)=  0.05635977 RMS(Int)=  0.00150029
 Iteration  2 RMS(Cart)=  0.00160535 RMS(Int)=  0.00000245
 Iteration  3 RMS(Cart)=  0.00000105 RMS(Int)=  0.00000236
 Iteration  4 RMS(Cart)=  0.00000000 RMS(Int)=  0.00000236
 Variable       Old X    -DE/DX   Delta X   Delta X   Delta X     New X
                                 (Linear)    (Quad)   (Total)
    R1        2.52392   0.00203   0.00403   0.00019   0.00422   2.52814
    R2        2.50666   0.00125   0.00106   0.00007   0.00113   2.50780
    R3        2.51802   0.00067  -0.00125  -0.00011  -0.00136   2.51666
    R4        2.84572  -0.00141  -0.00165  -0.00061  -0.00226   2.84346
    R5        2.49189  -0.00203  -0.00249  -0.00073  -0.00322   2.48867
    R6        2.50506   0.00199   0.00192   0.00086   0.00278   2.50784
    R7        2.54159  -0.00163  -0.00304  -0.00333  -0.00638   2.53522
    R8        2.84404  -0.00006  -0.00067  -0.00071  -0.00138   2.84266
    R9        2.50946   0.00065   0.00219   0.00051   0.00270   2.51216
    A1        1.89388  -0.00080  -0.00405  -0.00035  -0.00440   1.88947
    A2        1.87674  -0.00027   0.00047  -0.00027   0.00020   1.87694
    A3        1.94120   0.00049   0.00167   0.00017   0.00185   1.94305
    A4        1.89944   0.00022   0.00106  -0.00046   0.00059   1.90004
    A5        1.93660  -0.00025   0.00102  -0.00017   0.00084   1.93744
    A6        1.91451   0.00060  -0.00022   0.00105   0.00083   1.91534
    A7        1.98003   0.00054   0.00512   0.00112   0.00625   1.98628
    A8        2.17957  -0.00224  -0.00150  -0.00135  -0.00285   2.17672
    A9        1.99146   0.00169   0.00137   0.00094   0.00232   1.99378
   A10        1.88289  -0.00058   0.00024  -0.00074  -0.00050   1.88239
   A11        1.94099  -0.00023  -0.00080  -0.00104  -0.00183   1.93915
   A12        1.90309  -0.00011  -0.00066   0.00012  -0.00054   1.90255
   A13        1.93961   0.00122   0.00265   0.00256   0.00522   1.94483
   A14        1.88084  -0.00031  -0.00075  -0.00032  -0.00108   1.87976
   A15        1.91494  -0.00002  -0.00072  -0.00060  -0.00132   1.91362
    D1       -1.09823  -0.00070  -0.07457  -0.00796  -0.08253  -1.18076
    D2        1.47904  -0.00008  -0.06397  -0.00617  -0.07015   1.40889
    D3        3.07494   0.00016  -0.07125  -0.00752  -0.07877   2.99618
    D4       -0.63097   0.00078  -0.06066  -0.00573  -0.06639  -0.69736
    D5        0.97569  -0.00035  -0.07308  -0.00752  -0.08059   0.89510
    D6       -2.73022   0.00027  -0.06248  -0.00573  -0.06821  -2.79844
    D7        0.95682  -0.00002  -0.05355   0.00179  -0.05177   0.90506
    D8       -1.14115   0.00004  -0.05511   0.00169  -0.05342  -1.19457
    D9        3.06374  -0.00033  -0.05537   0.00087  -0.05450   3.00924
   D10       -2.75229   0.00027  -0.04188   0.00363  -0.03825  -2.79054
   D11        1.43292   0.00033  -0.04344   0.00353  -0.03990   1.39301
   D12       -0.64537  -0.00003  -0.04370   0.00272  -0.04098  -0.68636
         Item               Value     Threshold  Converged?
 Maximum Force            0.002243     0.000450     NO 
 RMS     Force            0.000950     0.000300     NO 
 Maximum Displacement     0.156602     0.001800     NO 
 RMS     Displacement     0.056426     0.001200     NO 
 Predicted change in Energy=-3.254219D-05
 GradGradGradGradGradGradGradGradGradGradGradGradGradGradGradGradGradGrad

                          Input orientation:                          
 ---------------------------------------------------------------------
 Center     Atomic      Atomic             Coordinates (Angstroms)
 Number     Number       Type             X           Y           Z
 ---------------------------------------------------------------------
      1          6           0       -0.451725    0.076394    0.928801
      2          9           0       -0.749670    1.332750    1.278936
      3          9           0        0.452261   -0.389567    1.781326
      4          9           0       -0.856565    0.293032   -1.392261
      5          9           0       -1.564255   -0.646670    1.043015
      6          9           0        2.344543   -0.351027   -0.180094
      7          9           0        1.734820    1.632415   -0.769032
      8          6           0        0.055676    0.008281   -0.486124
      9          6           0        1.464486    0.325648   -0.907268
     10          9           0        1.629222    0.012113   -2.188596
 ---------------------------------------------------------------------
                    Distance matrix (angstroms):
                    1          2          3          4          5
     1  C    0.000000
     2  F    1.337832   0.000000
     3  F    1.327068   2.159493   0.000000
     4  F    2.366042   2.868403   3.500088   0.000000
     5  F    1.331762   2.153441   2.162763   2.704521   0.000000
     6  F    3.038331   3.812877   2.725690   3.482995   4.106350
     7  F    3.175660   3.233676   3.498241   2.982891   4.400186
     8  C    1.504695   2.349093   2.335999   1.316948   2.321940
     9  C    2.665547   3.270509   2.960518   2.371404   3.731257
    10  F    3.748685   4.407605   4.160151   2.625300   4.590817
                    6          7          8          9         10
     6  F    0.000000
     7  F    2.157001   0.000000
     8  C    2.337021   2.353162   0.000000
     9  C    1.327091   1.341578   1.504270   0.000000
    10  F    2.162784   2.156778   2.318291   1.329377   0.000000
 Stoichiometry    C3F7(2)
 Framework group  C1[X(C3F7)]
 Deg. of freedom    24
 Full point group                 C1      NOp   1
 Largest Abelian subgroup         C1      NOp   1
 Largest concise Abelian subgroup C1      NOp   1
                         Standard orientation:                         
 ---------------------------------------------------------------------
 Center     Atomic      Atomic             Coordinates (Angstroms)
 Number     Number       Type             X           Y           Z
 ---------------------------------------------------------------------
      1          6           0       -1.331624   -0.137632   -0.028973
      2          9           0       -1.668050   -0.104637    1.265448
      3          9           0       -1.310261   -1.405345   -0.420837
      4          9           0       -0.007934    1.823255   -0.059308
      5          9           0       -2.279899    0.506627   -0.706685
      6          9           0        1.404248   -1.305982   -0.646562
      7          9           0        1.557225   -0.337402    1.274662
      8          6           0       -0.000329    0.522560   -0.265424
      9          6           0        1.333915   -0.131805   -0.032126
     10          9           0        2.303363    0.654735   -0.489036
 ---------------------------------------------------------------------
 Rotational constants (GHZ):           2.1079553           1.0132825           0.8970557
 Standard basis: 6-311+G(2d) (5D, 7F)
 There are   290 symmetry adapted cartesian basis functions of A   symmetry.
 There are   270 symmetry adapted basis functions of A   symmetry.
   270 basis functions,   420 primitive gaussians,   290 cartesian basis functions
    41 alpha electrons       40 beta electrons
       nuclear repulsion energy       639.6479601647 Hartrees.
 NAtoms=   10 NActive=   10 NUniq=   10 SFac= 1.00D+00 NAtFMM=   60 NAOKFM=F Big=F
 Integral buffers will be    131072 words long.
 Raffenetti 2 integral format.
 Two-electron integral symmetry is turned on.
 Nuclear repulsion after empirical dispersion term =      639.6440884387 Hartrees.
 One-electron integrals computed using PRISM.
 NBasis=   270 RedAO= T EigKep=  8.97D-05  NBF=   270
 NBsUse=   270 1.00D-06 EigRej= -1.00D+00 NBFU=   270
 Initial guess from the checkpoint file:  "2_propyl.chk"
 B after Tr=     0.000000    0.000000    0.000000
         Rot=    0.999965   -0.006575   -0.004701    0.001966 Ang=  -0.95 deg.
 Initial guess <Sx>= 0.0000 <Sy>= 0.0000 <Sz>= 0.5000 <S**2>= 0.7538 S= 0.5019
 ExpMin= 4.38D-02 ExpMax= 1.14D+04 ExpMxC= 1.72D+03 IAcc=2 IRadAn=         4 AccDes= 0.00D+00
 Harris functional with IExCor= 4639 and IRadAn=       4 diagonalized for initial guess.
 HarFok:  IExCor= 4639 AccDes= 0.00D+00 IRadAn=         4 IDoV= 1 UseB2=F ITyADJ=14
 ICtDFT=  3500011 ScaDFX=  1.000000  1.000000  1.000000  1.000000
 FoFCou: FMM=F IPFlag=           0 FMFlag=      100000 FMFlg1=           0
         NFxFlg=           0 DoJE=T BraDBF=F KetDBF=T FulRan=T
         wScrn=  0.000000 ICntrl=       500 IOpCl=  0 I1Cent=   200000004 NGrid=           0
         NMat0=    1 NMatS0=      1 NMatT0=    0 NMatD0=    1 NMtDS0=    0 NMtDT0=    0
 Petite list used in FoFCou.
 Keep R1 and R2 ints in memory in canonical form, NReq=2703878162.
 Requested convergence on RMS density matrix=1.00D-08 within 128 cycles.
 Requested convergence on MAX density matrix=1.00D-06.
 Requested convergence on             energy=1.00D-06.
 No special actions if energy rises.
 SCF Done:  E(UwB97XD) =  -813.196324062     A.U. after   12 cycles
            NFock= 12  Conv=0.36D-08     -V/T= 2.0025
 <Sx>= 0.0000 <Sy>= 0.0000 <Sz>= 0.5000 <S**2>= 0.7538 S= 0.5019
 <L.S>= 0.000000000000E+00
 Annihilation of the first spin contaminant:
 S**2 before annihilation     0.7538,   after     0.7500
 Calling FoFJK, ICntrl=      2127 FMM=F ISym2X=0 I1Cent= 0 IOpClX= 1 NMat=1 NMatS=1 NMatT=0.
 ***** Axes restored to original set *****
 -------------------------------------------------------------------
 Center     Atomic                   Forces (Hartrees/Bohr)
 Number     Number              X              Y              Z
 -------------------------------------------------------------------
      1        6           0.000364517   -0.001421357   -0.001735128
      2        9          -0.000121441    0.001158190    0.000611069
      3        9           0.000697098    0.000230480    0.000490113
      4        9           0.000407534   -0.000629376    0.000854758
      5        9          -0.000464611   -0.000116864   -0.000014963
      6        9           0.000744479   -0.000593472    0.000455621
      7        9           0.000244904    0.000069422    0.000070967
      8        6          -0.001315590    0.000888942   -0.000810809
      9        6          -0.000686830    0.000608895    0.000389418
     10        9           0.000129940   -0.000194859   -0.000311045
 -------------------------------------------------------------------
 Cartesian Forces:  Max     0.001735128 RMS     0.000700076

 GradGradGradGradGradGradGradGradGradGradGradGradGradGradGradGradGradGrad
 Berny optimization.
 Using GEDIIS/GDIIS optimizer.
 FormGI is forming the generalized inverse of G from B-inverse, IUseBI=4.
 Internal  Forces:  Max     0.001275563 RMS     0.000477705
 Search for a local minimum.
 Step number  11 out of a maximum of   46
 All quantities printed in internal units (Hartrees-Bohrs-Radians)
 Mixed Optimization -- En-DIIS/RFO-DIIS
 Swapping is turned off.
 Update second derivatives using D2CorX and points    3    4    5    6    7
                                                      8    9   10   11
 DE= -2.95D-05 DEPred=-3.25D-05 R= 9.08D-01
 TightC=F SS=  1.41D+00  RLast= 2.17D-01 DXNew= 7.1352D-01 6.4993D-01
 Trust test= 9.08D-01 RLast= 2.17D-01 DXMaxT set to 6.50D-01
 ITU=  1 -1  1  1  1  1  1  1  1  1  0
     Eigenvalues ---    0.00029   0.00273   0.01524   0.10700   0.11376
     Eigenvalues ---    0.11998   0.13098   0.19937   0.20876   0.22302
     Eigenvalues ---    0.24933   0.25260   0.26883   0.29695   0.32242
     Eigenvalues ---    0.35080   0.39680   0.46309   0.52508   0.54231
     Eigenvalues ---    0.55213   0.56329   0.59648   1.06279
 En-DIIS/RFO-DIIS/Sim-DIIS IScMMF=       -3 using points:    11   10    9    8    7    6    5
 RFO step:  Lambda=-5.45334558D-05.
 DIIS inversion failure, remove point   7.
 DIIS inversion failure, remove point   6.
 DIIS inversion failure, remove point   5.
 RFO-DIIS uses    4 points instead of    7
 DidBck=T Rises=F RFO-DIIS coefs:    0.18553    0.37429   -1.51230    1.95248    0.00000
                  RFO-DIIS coefs:    0.00000    0.00000
 Iteration  1 RMS(Cart)=  0.07008634 RMS(Int)=  0.00231606
 Iteration  2 RMS(Cart)=  0.00247904 RMS(Int)=  0.00000812
 Iteration  3 RMS(Cart)=  0.00000248 RMS(Int)=  0.00000797
 Iteration  4 RMS(Cart)=  0.00000000 RMS(Int)=  0.00000797
 Variable       Old X    -DE/DX   Delta X   Delta X   Delta X     New X
                                 (Linear)    (Quad)   (Total)
    R1        2.52814   0.00128   0.00607  -0.00053   0.00553   2.53367
    R2        2.50780   0.00071   0.00144   0.00036   0.00179   2.50959
    R3        2.51666   0.00045  -0.00180   0.00054  -0.00125   2.51541
    R4        2.84346  -0.00078  -0.00279   0.00076  -0.00203   2.84144
    R5        2.48867  -0.00101  -0.00370   0.00057  -0.00313   2.48554
    R6        2.50784   0.00105   0.00173   0.00038   0.00211   2.50995
    R7        2.53522   0.00012  -0.00026  -0.00138  -0.00163   2.53358
    R8        2.84266   0.00021  -0.00132   0.00055  -0.00077   2.84188
    R9        2.51216   0.00036   0.00237   0.00012   0.00249   2.51465
    A1        1.88947  -0.00044  -0.00606   0.00086  -0.00520   1.88427
    A2        1.87694  -0.00009   0.00022   0.00043   0.00065   1.87759
    A3        1.94305   0.00027   0.00290  -0.00075   0.00215   1.94520
    A4        1.90004   0.00031   0.00132   0.00023   0.00156   1.90159
    A5        1.93744  -0.00013   0.00187  -0.00084   0.00103   1.93847
    A6        1.91534   0.00008  -0.00037   0.00013  -0.00024   1.91510
    A7        1.98628   0.00005   0.00717   0.00037   0.00755   1.99384
    A8        2.17672  -0.00098  -0.00061  -0.00087  -0.00146   2.17526
    A9        1.99378   0.00094   0.00231   0.00056   0.00290   1.99668
   A10        1.88239  -0.00017  -0.00024   0.00075   0.00051   1.88289
   A11        1.93915  -0.00001   0.00013  -0.00091  -0.00078   1.93838
   A12        1.90255  -0.00019  -0.00062  -0.00032  -0.00094   1.90162
   A13        1.94483   0.00038   0.00185  -0.00004   0.00181   1.94664
   A14        1.87976  -0.00003  -0.00103  -0.00012  -0.00115   1.87861
   A15        1.91362   0.00000  -0.00017   0.00064   0.00048   1.91409
    D1       -1.18076  -0.00032  -0.09736  -0.00008  -0.09743  -1.27818
    D2        1.40889   0.00003  -0.07808   0.00024  -0.07785   1.33104
    D3        2.99618   0.00014  -0.09290  -0.00009  -0.09298   2.90320
    D4       -0.69736   0.00049  -0.07362   0.00023  -0.07340  -0.77076
    D5        0.89510  -0.00021  -0.09551   0.00007  -0.09542   0.79968
    D6       -2.79844   0.00014  -0.07623   0.00040  -0.07584  -2.87428
    D7        0.90506   0.00009  -0.07482   0.00001  -0.07481   0.83024
    D8       -1.19457   0.00005  -0.07586  -0.00029  -0.07616  -1.27073
    D9        3.00924  -0.00015  -0.07562  -0.00054  -0.07617   2.93307
   D10       -2.79054   0.00019  -0.05422   0.00028  -0.05393  -2.84447
   D11        1.39301   0.00015  -0.05525  -0.00002  -0.05527   1.33774
   D12       -0.68636  -0.00005  -0.05502  -0.00027  -0.05528  -0.74164
         Item               Value     Threshold  Converged?
 Maximum Force            0.001276     0.000450     NO 
 RMS     Force            0.000478     0.000300     NO 
 Maximum Displacement     0.187910     0.001800     NO 
 RMS     Displacement     0.070225     0.001200     NO 
 Predicted change in Energy=-3.513213D-05
 GradGradGradGradGradGradGradGradGradGradGradGradGradGradGradGradGradGrad

                          Input orientation:                          
 ---------------------------------------------------------------------
 Center     Atomic      Atomic             Coordinates (Angstroms)
 Number     Number       Type             X           Y           Z
 ---------------------------------------------------------------------
      1          6           0       -0.447688    0.062385    0.929020
      2          9           0       -0.662535    1.324006    1.328759
      3          9           0        0.424831   -0.489004    1.764670
      4          9           0       -0.860621    0.276166   -1.394447
      5          9           0       -1.604304   -0.590284    1.018947
      6          9           0        2.347174   -0.265390   -0.129396
      7          9           0        1.694313    1.661986   -0.846491
      8          6           0        0.054558    0.012287   -0.487356
      9          6           0        1.459904    0.343360   -0.908057
     10          9           0        1.653161   -0.042140   -2.166943
 ---------------------------------------------------------------------
                    Distance matrix (angstroms):
                    1          2          3          4          5
     1  C    0.000000
     2  F    1.340761   0.000000
     3  F    1.328017   2.158562   0.000000
     4  F    2.369539   2.924561   3.495410   0.000000
     5  F    1.331099   2.155788   2.164197   2.669882   0.000000
     6  F    3.006481   3.702802   2.707931   3.490499   4.127762
     7  F    3.209257   3.225007   3.613379   2.957776   4.408339
     8  C    1.503623   2.352255   2.336668   1.315294   2.320315
     9  C    2.663213   3.235700   2.984573   2.371903   3.738235
    10  F    3.742924   4.410072   4.143195   2.648994   4.589274
                    6          7          8          9         10
     6  F    0.000000
     7  F    2.157598   0.000000
     8  C    2.336949   2.353568   0.000000
     9  C    1.328208   1.340714   1.503860   0.000000
    10  F    2.164045   2.156231   2.319376   1.330696   0.000000
 Stoichiometry    C3F7(2)
 Framework group  C1[X(C3F7)]
 Deg. of freedom    24
 Full point group                 C1      NOp   1
 Largest Abelian subgroup         C1      NOp   1
 Largest concise Abelian subgroup C1      NOp   1
                         Standard orientation:                         
 ---------------------------------------------------------------------
 Center     Atomic      Atomic             Coordinates (Angstroms)
 Number     Number       Type             X           Y           Z
 ---------------------------------------------------------------------
      1          6           0       -1.331199   -0.134700   -0.029981
      2          9           0       -1.627608   -0.208562    1.275517
      3          9           0       -1.339992   -1.368045   -0.522333
      4          9           0       -0.003081    1.827500   -0.054303
      5          9           0       -2.291070    0.573480   -0.620702
      6          9           0        1.367023   -1.338479   -0.586260
      7          9           0        1.596728   -0.274365    1.276568
      8          6           0       -0.000204    0.527622   -0.255069
      9          6           0        1.332014   -0.132822   -0.030110
     10          9           0        2.297592    0.615071   -0.558379
 ---------------------------------------------------------------------
 Rotational constants (GHZ):           2.1040947           1.0135220           0.8969252
 Standard basis: 6-311+G(2d) (5D, 7F)
 There are   290 symmetry adapted cartesian basis functions of A   symmetry.
 There are   270 symmetry adapted basis functions of A   symmetry.
   270 basis functions,   420 primitive gaussians,   290 cartesian basis functions
    41 alpha electrons       40 beta electrons
       nuclear repulsion energy       639.4935054143 Hartrees.
 NAtoms=   10 NActive=   10 NUniq=   10 SFac= 1.00D+00 NAtFMM=   60 NAOKFM=F Big=F
 Integral buffers will be    131072 words long.
 Raffenetti 2 integral format.
 Two-electron integral symmetry is turned on.
 Nuclear repulsion after empirical dispersion term =      639.4896370355 Hartrees.
 One-electron integrals computed using PRISM.
 NBasis=   270 RedAO= T EigKep=  8.85D-05  NBF=   270
 NBsUse=   270 1.00D-06 EigRej= -1.00D+00 NBFU=   270
 Initial guess from the checkpoint file:  "2_propyl.chk"
 B after Tr=    -0.000000    0.000000    0.000000
         Rot=    0.999964   -0.005858   -0.005649    0.002397 Ang=  -0.97 deg.
 Initial guess <Sx>= 0.0000 <Sy>= 0.0000 <Sz>= 0.5000 <S**2>= 0.7538 S= 0.5019
 ExpMin= 4.38D-02 ExpMax= 1.14D+04 ExpMxC= 1.72D+03 IAcc=2 IRadAn=         4 AccDes= 0.00D+00
 Harris functional with IExCor= 4639 and IRadAn=       4 diagonalized for initial guess.
 HarFok:  IExCor= 4639 AccDes= 0.00D+00 IRadAn=         4 IDoV= 1 UseB2=F ITyADJ=14
 ICtDFT=  3500011 ScaDFX=  1.000000  1.000000  1.000000  1.000000
 FoFCou: FMM=F IPFlag=           0 FMFlag=      100000 FMFlg1=           0
         NFxFlg=           0 DoJE=T BraDBF=F KetDBF=T FulRan=T
         wScrn=  0.000000 ICntrl=       500 IOpCl=  0 I1Cent=   200000004 NGrid=           0
         NMat0=    1 NMatS0=      1 NMatT0=    0 NMatD0=    1 NMtDS0=    0 NMtDT0=    0
 Petite list used in FoFCou.
 Keep R1 and R2 ints in memory in canonical form, NReq=2703878162.
 Requested convergence on RMS density matrix=1.00D-08 within 128 cycles.
 Requested convergence on MAX density matrix=1.00D-06.
 Requested convergence on             energy=1.00D-06.
 No special actions if energy rises.
 SCF Done:  E(UwB97XD) =  -813.196303127     A.U. after   12 cycles
            NFock= 12  Conv=0.40D-08     -V/T= 2.0025
 <Sx>= 0.0000 <Sy>= 0.0000 <Sz>= 0.5000 <S**2>= 0.7538 S= 0.5019
 <L.S>= 0.000000000000E+00
 Annihilation of the first spin contaminant:
 S**2 before annihilation     0.7538,   after     0.7500
 Calling FoFJK, ICntrl=      2127 FMM=F ISym2X=0 I1Cent= 0 IOpClX= 1 NMat=1 NMatS=1 NMatT=0.
 ***** Axes restored to original set *****
 -------------------------------------------------------------------
 Center     Atomic                   Forces (Hartrees/Bohr)
 Number     Number              X              Y              Z
 -------------------------------------------------------------------
      1        6           0.000070717    0.000016887   -0.000143450
      2        9          -0.000030573   -0.000045670    0.000030383
      3        9          -0.000085047    0.000102443    0.000014348
      4        9           0.000071624    0.000027334    0.000150439
      5        9          -0.000005063    0.000015928   -0.000046402
      6        9           0.000062690    0.000006318   -0.000093581
      7        9           0.000059733    0.000207764    0.000016203
      8        6          -0.000028786   -0.000145867   -0.000005329
      9        6          -0.000063575   -0.000199573    0.000010366
     10        9          -0.000051719    0.000014434    0.000067023
 -------------------------------------------------------------------
 Cartesian Forces:  Max     0.000207764 RMS     0.000084043

 GradGradGradGradGradGradGradGradGradGradGradGradGradGradGradGradGradGrad
 Berny optimization.
 Using GEDIIS/GDIIS optimizer.
 FormGI is forming the generalized inverse of G from B-inverse, IUseBI=4.
 Internal  Forces:  Max     0.000268443 RMS     0.000098914
 Search for a local minimum.
 Step number  12 out of a maximum of   46
 All quantities printed in internal units (Hartrees-Bohrs-Radians)
 Mixed Optimization -- En-DIIS/RFO-DIIS
 Swapping is turned off.
 Update second derivatives using D2CorX and points    3    4    5    6    7
                                                      8    9   10   11   12
 DE=  2.09D-05 DEPred=-3.51D-05 R=-5.96D-01
 Trust test=-5.96D-01 RLast= 2.66D-01 DXMaxT set to 3.25D-01
 ITU= -1  1 -1  1  1  1  1  1  1  1  1  0
     Eigenvalues ---    0.00006   0.00286   0.01522   0.10531   0.11607
     Eigenvalues ---    0.12377   0.13679   0.19836   0.22173   0.24371
     Eigenvalues ---    0.24919   0.26618   0.27280   0.31681   0.34776
     Eigenvalues ---    0.37829   0.40807   0.47033   0.52247   0.55071
     Eigenvalues ---    0.56753   0.58505   0.64605   1.16390
 Eigenvalue     1 is   5.79D-05 Eigenvector:
                          D1        D5        D3        D2        D6
   1                   -0.33405  -0.32853  -0.31790  -0.30934  -0.30382
                          D4        D8        D9        D7        D11
   1                   -0.29319  -0.27766  -0.27529  -0.26846  -0.24777
 En-DIIS/RFO-DIIS/Sim-DIIS IScMMF=       -3 using points:    12   11   10    9    8    7    6    5
 RFO step:  Lambda=-4.77346802D-05.
 DIIS inversion failure, remove point   8.
 DIIS inversion failure, remove point   7.
 DIIS inversion failure, remove point   6.
 DIIS inversion failure, remove point   5.
 RFO-DIIS uses    4 points instead of    8
 EnCoef did   100 forward-backward iterations
 EnCoef did   100 forward-backward iterations
 EnCoef did   100 forward-backward iterations
 DidBck=T Rises=T En-DIIS coefs:    0.05487    0.94513    0.00000    0.00000    0.00000
                  En-DIIS coefs:    0.00000    0.00000    0.00000
 Iteration  1 RMS(Cart)=  0.17780079 RMS(Int)=  0.01856932
 Iteration  2 RMS(Cart)=  0.02168092 RMS(Int)=  0.00019293
 Iteration  3 RMS(Cart)=  0.00026536 RMS(Int)=  0.00001483
 Iteration  4 RMS(Cart)=  0.00000004 RMS(Int)=  0.00001483
 Variable       Old X    -DE/DX   Delta X   Delta X   Delta X     New X
                                 (Linear)    (Quad)   (Total)
    R1        2.53367  -0.00003  -0.00523  -0.00895  -0.01418   2.51949
    R2        2.50959  -0.00009  -0.00169  -0.00078  -0.00247   2.50712
    R3        2.51541  -0.00001   0.00118   0.00407   0.00525   2.52066
    R4        2.84144  -0.00012   0.00192   0.00269   0.00460   2.84604
    R5        2.48554  -0.00015   0.00295   0.00413   0.00709   2.49263
    R6        2.50995  -0.00002  -0.00200  -0.00251  -0.00451   2.50544
    R7        2.53358   0.00021   0.00154   0.00280   0.00434   2.53792
    R8        2.84188   0.00001   0.00073  -0.00031   0.00042   2.84230
    R9        2.51465  -0.00007  -0.00236  -0.00496  -0.00732   2.50733
    A1        1.88427  -0.00010   0.00492   0.01065   0.01557   1.89985
    A2        1.87759  -0.00003  -0.00062  -0.00171  -0.00232   1.87526
    A3        1.94520   0.00007  -0.00204  -0.00471  -0.00674   1.93846
    A4        1.90159   0.00001  -0.00147  -0.00344  -0.00491   1.89668
    A5        1.93847   0.00016  -0.00097  -0.00469  -0.00566   1.93281
    A6        1.91510  -0.00011   0.00023   0.00403   0.00427   1.91937
    A7        1.99384  -0.00021  -0.00714  -0.00564  -0.01277   1.98107
    A8        2.17526   0.00027   0.00138  -0.00012   0.00125   2.17651
    A9        1.99668  -0.00006  -0.00274   0.00432   0.00155   1.99822
   A10        1.88289  -0.00006  -0.00048  -0.00123  -0.00172   1.88117
   A11        1.93838   0.00019   0.00073  -0.00160  -0.00088   1.93750
   A12        1.90162  -0.00005   0.00088   0.00170   0.00258   1.90420
   A13        1.94664   0.00003  -0.00172  -0.00313  -0.00485   1.94179
   A14        1.87861   0.00001   0.00109   0.00082   0.00191   1.88053
   A15        1.91409  -0.00013  -0.00045   0.00354   0.00309   1.91719
    D1       -1.27818   0.00006   0.09208   0.14586   0.23792  -1.04027
    D2        1.33104   0.00003   0.07358   0.14396   0.21756   1.54860
    D3        2.90320   0.00003   0.08788   0.13872   0.22658   3.12977
    D4       -0.77076   0.00001   0.06937   0.13682   0.20622  -0.56454
    D5        0.79968  -0.00000   0.09019   0.14338   0.23354   1.03322
    D6       -2.87428  -0.00003   0.07168   0.14148   0.21319  -2.66109
    D7        0.83024   0.00010   0.07071   0.12222   0.19295   1.02320
    D8       -1.27073   0.00002   0.07198   0.12701   0.19900  -1.07173
    D9        2.93307   0.00007   0.07199   0.12565   0.19766   3.13073
   D10       -2.84447   0.00003   0.05097   0.11766   0.16862  -2.67586
   D11        1.33774  -0.00004   0.05224   0.12245   0.17466   1.51240
   D12       -0.74164   0.00000   0.05225   0.12109   0.17332  -0.56832
         Item               Value     Threshold  Converged?
 Maximum Force            0.000268     0.000450     YES
 RMS     Force            0.000099     0.000300     YES
 Maximum Displacement     0.513682     0.001800     NO 
 RMS     Displacement     0.188881     0.001200     NO 
 Predicted change in Energy=-4.477613D-05
 GradGradGradGradGradGradGradGradGradGradGradGradGradGradGradGradGradGrad

                          Input orientation:                          
 ---------------------------------------------------------------------
 Center     Atomic      Atomic             Coordinates (Angstroms)
 Number     Number       Type             X           Y           Z
 ---------------------------------------------------------------------
      1          6           0       -0.457904    0.103259    0.926637
      2          9           0       -0.892357    1.333861    1.199479
      3          9           0        0.494283   -0.217176    1.793134
      4          9           0       -0.855152    0.305369   -1.395891
      5          9           0       -1.485876   -0.730054    1.094253
      6          9           0        2.323181   -0.492354   -0.268372
      7          9           0        1.809065    1.569106   -0.636061
      8          6           0        0.054011    0.010865   -0.486734
      9          6           0        1.469946    0.297782   -0.905151
     10          9           0        1.599596    0.112713   -2.212591
 ---------------------------------------------------------------------
                    Distance matrix (angstroms):
                    1          2          3          4          5
     1  C    0.000000
     2  F    1.333257   0.000000
     3  F    1.326709   2.163541   0.000000
     4  F    2.364908   2.791975   3.501986   0.000000
     5  F    1.333878   2.150136   2.161598   2.769608   0.000000
     6  F    3.085002   3.978609   2.769549   3.465466   4.052426
     7  F    3.119275   3.274481   3.289444   3.045065   4.374558
     8  C    1.506058   2.342914   2.333161   1.319044   2.328032
     9  C    2.666438   3.329175   2.915106   2.376334   3.713616
    10  F    3.753418   4.398097   4.168498   2.594205   4.600609
                    6          7          8          9         10
     6  F    0.000000
     7  F    2.156184   0.000000
     8  C    2.334532   2.351728   0.000000
     9  C    1.325824   1.343010   1.504083   0.000000
    10  F    2.160941   2.156480   2.319006   1.326823   0.000000
 Stoichiometry    C3F7(2)
 Framework group  C1[X(C3F7)]
 Deg. of freedom    24
 Full point group                 C1      NOp   1
 Largest Abelian subgroup         C1      NOp   1
 Largest concise Abelian subgroup C1      NOp   1
                         Standard orientation:                         
 ---------------------------------------------------------------------
 Center     Atomic      Atomic             Coordinates (Angstroms)
 Number     Number       Type             X           Y           Z
 ---------------------------------------------------------------------
      1          6           0       -1.330709   -0.141342   -0.024826
      2          9           0       -1.739076    0.050753    1.229729
      3          9           0       -1.255241   -1.445542   -0.256176
      4          9           0       -0.017539    1.825008   -0.067752
      5          9           0       -2.255305    0.382569   -0.830972
      6          9           0        1.460453   -1.232901   -0.756368
      7          9           0        1.494908   -0.461920    1.256970
      8          6           0       -0.000491    0.521457   -0.268605
      9          6           0        1.335681   -0.128100   -0.034110
     10          9           0        2.308812    0.714023   -0.357070
 ---------------------------------------------------------------------
 Rotational constants (GHZ):           2.1101355           1.0141664           0.8975496
 Standard basis: 6-311+G(2d) (5D, 7F)
 There are   290 symmetry adapted cartesian basis functions of A   symmetry.
 There are   270 symmetry adapted basis functions of A   symmetry.
   270 basis functions,   420 primitive gaussians,   290 cartesian basis functions
    41 alpha electrons       40 beta electrons
       nuclear repulsion energy       639.8388149592 Hartrees.
 NAtoms=   10 NActive=   10 NUniq=   10 SFac= 1.00D+00 NAtFMM=   60 NAOKFM=F Big=F
 Integral buffers will be    131072 words long.
 Raffenetti 2 integral format.
 Two-electron integral symmetry is turned on.
 Nuclear repulsion after empirical dispersion term =      639.8349302221 Hartrees.
 One-electron integrals computed using PRISM.
 NBasis=   270 RedAO= T EigKep=  9.05D-05  NBF=   270
 NBsUse=   270 1.00D-06 EigRej= -1.00D+00 NBFU=   270
 Initial guess from the checkpoint file:  "2_propyl.chk"
 B after Tr=    -0.000000   -0.000000   -0.000000
         Rot=    0.999801    0.011319    0.015027   -0.006585 Ang=   2.28 deg.
 Initial guess <Sx>= 0.0000 <Sy>= 0.0000 <Sz>= 0.5000 <S**2>= 0.7539 S= 0.5019
 ExpMin= 4.38D-02 ExpMax= 1.14D+04 ExpMxC= 1.72D+03 IAcc=2 IRadAn=         4 AccDes= 0.00D+00
 Harris functional with IExCor= 4639 and IRadAn=       4 diagonalized for initial guess.
 HarFok:  IExCor= 4639 AccDes= 0.00D+00 IRadAn=         4 IDoV= 1 UseB2=F ITyADJ=14
 ICtDFT=  3500011 ScaDFX=  1.000000  1.000000  1.000000  1.000000
 FoFCou: FMM=F IPFlag=           0 FMFlag=      100000 FMFlg1=           0
         NFxFlg=           0 DoJE=T BraDBF=F KetDBF=T FulRan=T
         wScrn=  0.000000 ICntrl=       500 IOpCl=  0 I1Cent=   200000004 NGrid=           0
         NMat0=    1 NMatS0=      1 NMatT0=    0 NMatD0=    1 NMtDS0=    0 NMtDT0=    0
 Petite list used in FoFCou.
 Keep R1 and R2 ints in memory in canonical form, NReq=2703878162.
 Requested convergence on RMS density matrix=1.00D-08 within 128 cycles.
 Requested convergence on MAX density matrix=1.00D-06.
 Requested convergence on             energy=1.00D-06.
 No special actions if energy rises.
 SCF Done:  E(UwB97XD) =  -813.196321890     A.U. after   14 cycles
            NFock= 14  Conv=0.36D-08     -V/T= 2.0025
 <Sx>= 0.0000 <Sy>= 0.0000 <Sz>= 0.5000 <S**2>= 0.7538 S= 0.5019
 <L.S>= 0.000000000000E+00
 Annihilation of the first spin contaminant:
 S**2 before annihilation     0.7538,   after     0.7500
 Calling FoFJK, ICntrl=      2127 FMM=F ISym2X=0 I1Cent= 0 IOpClX= 1 NMat=1 NMatS=1 NMatT=0.
 ***** Axes restored to original set *****
 -------------------------------------------------------------------
 Center     Atomic                   Forces (Hartrees/Bohr)
 Number     Number              X              Y              Z
 -------------------------------------------------------------------
      1        6           0.000796715   -0.004244123   -0.004067697
      2        9          -0.000232319    0.002892055    0.001725428
      3        9           0.001156201    0.000966048    0.001085208
      4        9           0.001283538   -0.001433875    0.001916519
      5        9          -0.000331728    0.000025070   -0.000119643
      6        9           0.001950959   -0.001660263    0.001159730
      7        9           0.000544469   -0.000095131    0.000209729
      8        6          -0.003779236    0.001786621   -0.002094493
      9        6          -0.001474534    0.002480110    0.001313184
     10        9           0.000085936   -0.000716512   -0.001127966
 -------------------------------------------------------------------
 Cartesian Forces:  Max     0.004244123 RMS     0.001821165

 GradGradGradGradGradGradGradGradGradGradGradGradGradGradGradGradGradGrad
 Berny optimization.
 Using GEDIIS/GDIIS optimizer.
 FormGI is forming the generalized inverse of G from B-inverse, IUseBI=4.
 Internal  Forces:  Max     0.003100367 RMS     0.001172976
 Search for a local minimum.
 Step number  13 out of a maximum of   46
 All quantities printed in internal units (Hartrees-Bohrs-Radians)
 Mixed Optimization -- RFO/linear search
 Update second derivatives using D2CorX and points    3    4    5    6    7
                                                      8    9   10   12   13
                                                     11
 DE=  2.17D-06 DEPred=-4.48D-05 R=-4.85D-02
 Trust test=-4.85D-02 RLast= 4.45D-01 DXMaxT set to 1.62D-01
 ITU= -1 -1  1 -1  1  1  1  1  1  1  1  1  0
 Use linear search instead of GDIIS.
     Eigenvalues ---    0.00058   0.00294   0.00909   0.10802   0.11542
     Eigenvalues ---    0.12227   0.13433   0.17991   0.21079   0.22883
     Eigenvalues ---    0.24697   0.25717   0.27283   0.31307   0.33656
     Eigenvalues ---    0.35760   0.39457   0.44258   0.51396   0.54890
     Eigenvalues ---    0.55272   0.57088   0.61591   1.04925
 RFO step:  Lambda=-7.36846003D-05 EMin= 5.80449931D-04
 Quartic linear search produced a step of -0.41569.
 Iteration  1 RMS(Cart)=  0.01418754 RMS(Int)=  0.00012798
 Iteration  2 RMS(Cart)=  0.00014230 RMS(Int)=  0.00003488
 Iteration  3 RMS(Cart)=  0.00000001 RMS(Int)=  0.00003488
 Variable       Old X    -DE/DX   Delta X   Delta X   Delta X     New X
                                 (Linear)    (Quad)   (Total)
    R1        2.51949   0.00310   0.00359  -0.00130   0.00230   2.52179
    R2        2.50712   0.00130   0.00028   0.00208   0.00236   2.50948
    R3        2.52066   0.00022  -0.00166   0.00276   0.00110   2.52177
    R4        2.84604  -0.00179  -0.00107  -0.00102  -0.00209   2.84394
    R5        2.49263  -0.00253  -0.00165  -0.00080  -0.00245   2.49018
    R6        2.50544   0.00280   0.00100   0.00105   0.00205   2.50749
    R7        2.53792   0.00009  -0.00112   0.00083  -0.00029   2.53763
    R8        2.84230   0.00061   0.00015  -0.00150  -0.00136   2.84095
    R9        2.50733   0.00122   0.00201  -0.00176   0.00024   2.50758
    A1        1.89985  -0.00164  -0.00431   0.00322  -0.00109   1.89875
    A2        1.87526  -0.00011   0.00070  -0.00054   0.00015   1.87541
    A3        1.93846   0.00112   0.00191  -0.00162   0.00029   1.93875
    A4        1.89668   0.00055   0.00139  -0.00119   0.00020   1.89688
    A5        1.93281   0.00001   0.00193  -0.00414  -0.00221   1.93059
    A6        1.91937   0.00004  -0.00167   0.00438   0.00271   1.92207
    A7        1.98107   0.00066   0.00217   0.00607   0.00812   1.98918
    A8        2.17651  -0.00251   0.00009  -0.00314  -0.00316   2.17335
    A9        1.99822   0.00183  -0.00185   0.01043   0.00847   2.00669
   A10        1.88117  -0.00051   0.00051  -0.00068  -0.00017   1.88100
   A11        1.93750   0.00009   0.00069  -0.00291  -0.00222   1.93528
   A12        1.90420  -0.00030  -0.00069   0.00022  -0.00046   1.90374
   A13        1.94179   0.00095   0.00126  -0.00040   0.00087   1.94266
   A14        1.88053   0.00023  -0.00032  -0.00047  -0.00079   1.87973
   A15        1.91719  -0.00046  -0.00148   0.00422   0.00273   1.91992
    D1       -1.04027  -0.00097  -0.05840   0.01991  -0.03850  -1.07877
    D2        1.54860  -0.00032  -0.05808   0.05006  -0.00802   1.54059
    D3        3.12977   0.00034  -0.05553   0.01973  -0.03582   3.09396
    D4       -0.56454   0.00098  -0.05521   0.04988  -0.00533  -0.56987
    D5        1.03322  -0.00037  -0.05742   0.02102  -0.03640   0.99682
    D6       -2.66109   0.00027  -0.05709   0.05117  -0.00592  -2.66701
    D7        1.02320   0.00006  -0.04911   0.03099  -0.01813   1.00507
    D8       -1.07173   0.00001  -0.05106   0.03407  -0.01700  -1.08873
    D9        3.13073  -0.00057  -0.05050   0.03217  -0.01834   3.11239
   D10       -2.67586   0.00037  -0.04767   0.06014   0.01248  -2.66338
   D11        1.51240   0.00033  -0.04963   0.06322   0.01361   1.52601
   D12       -0.56832  -0.00026  -0.04907   0.06133   0.01227  -0.55605
         Item               Value     Threshold  Converged?
 Maximum Force            0.003100     0.000450     NO 
 RMS     Force            0.001173     0.000300     NO 
 Maximum Displacement     0.035287     0.001800     NO 
 RMS     Displacement     0.014225     0.001200     NO 
 Predicted change in Energy=-5.273296D-05
 GradGradGradGradGradGradGradGradGradGradGradGradGradGradGradGradGradGrad

                          Input orientation:                          
 ---------------------------------------------------------------------
 Center     Atomic      Atomic             Coordinates (Angstroms)
 Number     Number       Type             X           Y           Z
 ---------------------------------------------------------------------
      1          6           0       -0.456593    0.102891    0.925140
      2          9           0       -0.875733    1.336865    1.212269
      3          9           0        0.497037   -0.235849    1.784977
      4          9           0       -0.860774    0.287379   -1.401958
      5          9           0       -1.493525   -0.720641    1.090532
      6          9           0        2.317321   -0.482851   -0.255366
      7          9           0        1.806346    1.576173   -0.644060
      8          6           0        0.050930    0.018942   -0.489162
      9          6           0        1.467641    0.303055   -0.904273
     10          9           0        1.606142    0.107405   -2.209393
 ---------------------------------------------------------------------
                    Distance matrix (angstroms):
                    1          2          3          4          5
     1  C    0.000000
     2  F    1.334472   0.000000
     3  F    1.327959   2.164699   0.000000
     4  F    2.369132   2.817060   3.503423   0.000000
     5  F    1.334461   2.151701   2.163241   2.762062   0.000000
     6  F    3.071039   3.957387   2.745441   3.465287   4.048522
     7  F    3.123113   3.270591   3.301202   3.057602   4.378733
     8  C    1.504951   2.343180   2.331446   1.317748   2.329755
     9  C    2.662610   3.322636   2.909391   2.381061   3.714257
    10  F    3.752358   4.402164   4.159680   2.601925   4.602510
                    6          7          8          9         10
     6  F    0.000000
     7  F    2.156794   0.000000
     8  C    2.333020   2.351690   0.000000
     9  C    1.326907   1.342856   1.503365   0.000000
    10  F    2.161573   2.155836   2.320713   1.326952   0.000000
 Stoichiometry    C3F7(2)
 Framework group  C1[X(C3F7)]
 Deg. of freedom    24
 Full point group                 C1      NOp   1
 Largest Abelian subgroup         C1      NOp   1
 Largest concise Abelian subgroup C1      NOp   1
                         Standard orientation:                         
 ---------------------------------------------------------------------
 Center     Atomic      Atomic             Coordinates (Angstroms)
 Number     Number       Type             X           Y           Z
 ---------------------------------------------------------------------
      1          6           0       -1.328860   -0.140192   -0.023776
      2          9           0       -1.733024    0.017647    1.238188
      3          9           0       -1.250200   -1.439129   -0.288445
      4          9           0       -0.018291    1.832988   -0.065674
      5          9           0       -2.259079    0.401248   -0.812650
      6          9           0        1.446062   -1.229653   -0.761454
      7          9           0        1.501277   -0.467906    1.255586
      8          6           0       -0.000764    0.528967   -0.254567
      9          6           0        1.333702   -0.126720   -0.032347
     10          9           0        2.310537    0.710101   -0.358424
 ---------------------------------------------------------------------
 Rotational constants (GHZ):           2.1054372           1.0152993           0.8981007
 Standard basis: 6-311+G(2d) (5D, 7F)
 There are   290 symmetry adapted cartesian basis functions of A   symmetry.
 There are   270 symmetry adapted basis functions of A   symmetry.
   270 basis functions,   420 primitive gaussians,   290 cartesian basis functions
    41 alpha electrons       40 beta electrons
       nuclear repulsion energy       639.7608477374 Hartrees.
 NAtoms=   10 NActive=   10 NUniq=   10 SFac= 1.00D+00 NAtFMM=   60 NAOKFM=F Big=F
 Integral buffers will be    131072 words long.
 Raffenetti 2 integral format.
 Two-electron integral symmetry is turned on.
 Nuclear repulsion after empirical dispersion term =      639.7569623335 Hartrees.
 One-electron integrals computed using PRISM.
 NBasis=   270 RedAO= T EigKep=  9.05D-05  NBF=   270
 NBsUse=   270 1.00D-06 EigRej= -1.00D+00 NBFU=   270
 Lowest energy guess from the checkpoint file:  "2_propyl.chk"
 B after Tr=    -0.000000    0.000000    0.000000
         Rot=    0.999957    0.000083    0.008398   -0.003970 Ang=   1.06 deg.
 B after Tr=     0.000000    0.000000   -0.000000
         Rot=    0.999985   -0.005416   -0.001048    0.000200 Ang=  -0.63 deg.
 Initial guess <Sx>= 0.0000 <Sy>= 0.0000 <Sz>= 0.5000 <S**2>= 0.7538 S= 0.5019
 Keep R1 and R2 ints in memory in canonical form, NReq=2703878162.
 Requested convergence on RMS density matrix=1.00D-08 within 128 cycles.
 Requested convergence on MAX density matrix=1.00D-06.
 Requested convergence on             energy=1.00D-06.
 No special actions if energy rises.
 SCF Done:  E(UwB97XD) =  -813.196388728     A.U. after   11 cycles
            NFock= 11  Conv=0.78D-08     -V/T= 2.0025
 <Sx>= 0.0000 <Sy>= 0.0000 <Sz>= 0.5000 <S**2>= 0.7539 S= 0.5019
 <L.S>= 0.000000000000E+00
 Annihilation of the first spin contaminant:
 S**2 before annihilation     0.7539,   after     0.7500
 Calling FoFJK, ICntrl=      2127 FMM=F ISym2X=0 I1Cent= 0 IOpClX= 1 NMat=1 NMatS=1 NMatT=0.
 ***** Axes restored to original set *****
 -------------------------------------------------------------------
 Center     Atomic                   Forces (Hartrees/Bohr)
 Number     Number              X              Y              Z
 -------------------------------------------------------------------
      1        6           0.000566548   -0.003858371   -0.003313137
      2        9          -0.000187988    0.002195445    0.001719679
      3        9           0.000122438    0.001294411    0.000713795
      4        9           0.001192237   -0.000716241    0.001731983
      5        9           0.000367474    0.000580986   -0.000386672
      6        9           0.001751494   -0.001152698    0.000602099
      7        9           0.000593301   -0.000025707    0.000344758
      8        6          -0.003121626    0.000218928   -0.001506118
      9        6          -0.001060315    0.002263495    0.001114769
     10        9          -0.000223564   -0.000800249   -0.001021155
 -------------------------------------------------------------------
 Cartesian Forces:  Max     0.003858371 RMS     0.001508517

 GradGradGradGradGradGradGradGradGradGradGradGradGradGradGradGradGradGrad
 Berny optimization.
 Using GEDIIS/GDIIS optimizer.
 FormGI is forming the generalized inverse of G from B-inverse, IUseBI=4.
 Internal  Forces:  Max     0.002461840 RMS     0.000960576
 Search for a local minimum.
 Step number  14 out of a maximum of   46
 All quantities printed in internal units (Hartrees-Bohrs-Radians)
 Mixed Optimization -- En-DIIS/RFO-DIIS
 Update second derivatives using D2CorX and points    9   10   13   11   14
 DE= -6.47D-05 DEPred=-5.27D-05 R= 1.23D+00
 TightC=F SS=  1.41D+00  RLast= 4.05D-01 DXNew= 2.7326D-01 1.2165D+00
 Trust test= 1.23D+00 RLast= 4.05D-01 DXMaxT set to 2.73D-01
 ITU=  1 -1 -1  1 -1  1  1  1  1  1  1  1  1  0
 Use linear search instead of GDIIS.
     Eigenvalues ---    0.00019   0.00264   0.01182   0.09571   0.11045
     Eigenvalues ---    0.12182   0.13173   0.17421   0.22205   0.24107
     Eigenvalues ---    0.25183   0.26520   0.27498   0.28157   0.34094
     Eigenvalues ---    0.37084   0.39582   0.46662   0.52594   0.54968
     Eigenvalues ---    0.55231   0.57189   0.60121   0.98984
 RFO step:  Lambda=-1.74973132D-04 EMin= 1.90173371D-04
 Quartic linear search produced a step of  0.12783.
 Iteration  1 RMS(Cart)=  0.10369117 RMS(Int)=  0.00509727
 Iteration  2 RMS(Cart)=  0.00539860 RMS(Int)=  0.00011397
 Iteration  3 RMS(Cart)=  0.00001069 RMS(Int)=  0.00011375
 Iteration  4 RMS(Cart)=  0.00000000 RMS(Int)=  0.00011375
 Variable       Old X    -DE/DX   Delta X   Delta X   Delta X     New X
                                 (Linear)    (Quad)   (Total)
    R1        2.52179   0.00246  -0.00081   0.00285   0.00204   2.52383
    R2        2.50948   0.00022   0.00022   0.00278   0.00299   2.51247
    R3        2.52177  -0.00069   0.00065   0.00179   0.00244   2.52420
    R4        2.84394  -0.00147   0.00006  -0.00959  -0.00952   2.83442
    R5        2.49018  -0.00217   0.00019  -0.00842  -0.00822   2.48196
    R6        2.50749   0.00210  -0.00004   0.00720   0.00715   2.51465
    R7        2.53763   0.00019   0.00031  -0.01215  -0.01184   2.52579
    R8        2.84095   0.00077  -0.00022  -0.00546  -0.00568   2.83527
    R9        2.50758   0.00110  -0.00059   0.00071   0.00013   2.50770
    A1        1.89875  -0.00194   0.00119  -0.00336  -0.00218   1.89657
    A2        1.87541  -0.00022  -0.00020  -0.00260  -0.00281   1.87260
    A3        1.93875   0.00133  -0.00055   0.00166   0.00109   1.93984
    A4        1.89688   0.00040  -0.00040  -0.00077  -0.00116   1.89572
    A5        1.93059   0.00085  -0.00088  -0.00549  -0.00636   1.92423
    A6        1.92207  -0.00048   0.00086   0.01046   0.01132   1.93339
    A7        1.98918  -0.00013   0.00037   0.01263   0.01258   2.00176
    A8        2.17335  -0.00078  -0.00043  -0.01099  -0.01178   2.16157
    A9        2.00669   0.00089   0.00165   0.02001   0.02131   2.02800
   A10        1.88100  -0.00072  -0.00018  -0.00658  -0.00674   1.87426
   A11        1.93528   0.00082  -0.00049  -0.00591  -0.00640   1.92888
   A12        1.90374  -0.00037   0.00015  -0.00054  -0.00039   1.90335
   A13        1.94266   0.00093  -0.00028   0.01442   0.01413   1.95679
   A14        1.87973   0.00048  -0.00000  -0.00045  -0.00049   1.87924
   A15        1.91992  -0.00116   0.00081  -0.00108  -0.00030   1.91962
    D1       -1.07877  -0.00050   0.01304   0.03558   0.04863  -1.03013
    D2        1.54059  -0.00025   0.01683   0.08812   0.10492   1.64551
    D3        3.09396   0.00049   0.01250   0.04241   0.05493  -3.13430
    D4       -0.56987   0.00074   0.01630   0.09496   0.11122  -0.45866
    D5        0.99682  -0.00024   0.01300   0.04012   0.05316   1.04999
    D6       -2.66701   0.00001   0.01680   0.09267   0.10945  -2.55755
    D7        1.00507   0.00040   0.01278   0.09659   0.10929   1.11435
    D8       -1.08873   0.00014   0.01353   0.09927   0.11275  -0.97599
    D9        3.11239  -0.00029   0.01318   0.09137   0.10446  -3.06633
   D10       -2.66338   0.00038   0.01626   0.14754   0.16386  -2.49952
   D11        1.52601   0.00012   0.01700   0.15022   0.16732   1.69333
   D12       -0.55605  -0.00031   0.01666   0.14232   0.15904  -0.39701
         Item               Value     Threshold  Converged?
 Maximum Force            0.002462     0.000450     NO 
 RMS     Force            0.000961     0.000300     NO 
 Maximum Displacement     0.275520     0.001800     NO 
 RMS     Displacement     0.104092     0.001200     NO 
 Predicted change in Energy=-1.121974D-04
 GradGradGradGradGradGradGradGradGradGradGradGradGradGradGradGradGradGrad

                          Input orientation:                          
 ---------------------------------------------------------------------
 Center     Atomic      Atomic             Coordinates (Angstroms)
 Number     Number       Type             X           Y           Z
 ---------------------------------------------------------------------
      1          6           0       -0.459341    0.129069    0.914737
      2          9           0       -0.976841    1.335910    1.158523
      3          9           0        0.532135   -0.090050    1.773018
      4          9           0       -0.867199    0.241562   -1.417996
      5          9           0       -1.422918   -0.768626    1.138107
      6          9           0        2.278932   -0.599233   -0.334331
      7          9           0        1.879812    1.504877   -0.517704
      8          6           0        0.043129    0.030563   -0.495069
      9          6           0        1.465274    0.291677   -0.895563
     10          9           0        1.585809    0.217621   -2.215019
 ---------------------------------------------------------------------
                    Distance matrix (angstroms):
                    1          2          3          4          5
     1  C    0.000000
     2  F    1.335553   0.000000
     3  F    1.329542   2.165172   0.000000
     4  F    2.370791   2.801441   3.500096   0.000000
     5  F    1.335751   2.151388   2.164673   2.804099   0.000000
     6  F    3.096568   4.071050   2.784149   3.432114   3.987538
     7  F    3.068610   3.316437   3.099586   3.154767   4.338035
     8  C    1.499910   2.340648   2.323336   1.313397   2.335649
     9  C    2.647219   3.357620   2.852681   2.390790   3.688049
    10  F    3.739766   4.381612   4.136342   2.579354   4.611786
                    6          7          8          9         10
     6  F    0.000000
     7  F    2.149466   0.000000
     8  C    2.328368   2.355317   0.000000
     9  C    1.330693   1.336590   1.500358   0.000000
    10  F    2.164407   2.150429   2.317991   1.327018   0.000000
 Stoichiometry    C3F7(2)
 Framework group  C1[X(C3F7)]
 Deg. of freedom    24
 Full point group                 C1      NOp   1
 Largest Abelian subgroup         C1      NOp   1
 Largest concise Abelian subgroup C1      NOp   1
                         Standard orientation:                         
 ---------------------------------------------------------------------
 Center     Atomic      Atomic             Coordinates (Angstroms)
 Number     Number       Type             X           Y           Z
 ---------------------------------------------------------------------
      1          6           0       -1.320604   -0.138673   -0.020391
      2          9           0       -1.788195    0.078667    1.211608
      3          9           0       -1.191392   -1.449486   -0.201384
      4          9           0       -0.028947    1.848946   -0.060881
      5          9           0       -2.234226    0.322320   -0.878885
      6          9           0        1.484608   -1.116605   -0.893988
      7          9           0        1.450412   -0.635515    1.200669
      8          6           0       -0.002471    0.546429   -0.227497
      9          6           0        1.326544   -0.120147   -0.026329
     10          9           0        2.305428    0.759932   -0.194329
 ---------------------------------------------------------------------
 Rotational constants (GHZ):           2.1004684           1.0214653           0.9013299
 Standard basis: 6-311+G(2d) (5D, 7F)
 There are   290 symmetry adapted cartesian basis functions of A   symmetry.
 There are   270 symmetry adapted basis functions of A   symmetry.
   270 basis functions,   420 primitive gaussians,   290 cartesian basis functions
    41 alpha electrons       40 beta electrons
       nuclear repulsion energy       640.4314752185 Hartrees.
 NAtoms=   10 NActive=   10 NUniq=   10 SFac= 1.00D+00 NAtFMM=   60 NAOKFM=F Big=F
 Integral buffers will be    131072 words long.
 Raffenetti 2 integral format.
 Two-electron integral symmetry is turned on.
 Nuclear repulsion after empirical dispersion term =      640.4275809212 Hartrees.
 One-electron integrals computed using PRISM.
 NBasis=   270 RedAO= T EigKep=  8.68D-05  NBF=   270
 NBsUse=   270 1.00D-06 EigRej= -1.00D+00 NBFU=   270
 Initial guess from the checkpoint file:  "2_propyl.chk"
 B after Tr=     0.000000   -0.000000    0.000000
         Rot=    0.999870   -0.013729    0.007440   -0.004041 Ang=  -1.85 deg.
 Initial guess <Sx>= 0.0000 <Sy>= 0.0000 <Sz>= 0.5000 <S**2>= 0.7538 S= 0.5019
 ExpMin= 4.38D-02 ExpMax= 1.14D+04 ExpMxC= 1.72D+03 IAcc=2 IRadAn=         4 AccDes= 0.00D+00
 Harris functional with IExCor= 4639 and IRadAn=       4 diagonalized for initial guess.
 HarFok:  IExCor= 4639 AccDes= 0.00D+00 IRadAn=         4 IDoV= 1 UseB2=F ITyADJ=14
 ICtDFT=  3500011 ScaDFX=  1.000000  1.000000  1.000000  1.000000
 FoFCou: FMM=F IPFlag=           0 FMFlag=      100000 FMFlg1=           0
         NFxFlg=           0 DoJE=T BraDBF=F KetDBF=T FulRan=T
         wScrn=  0.000000 ICntrl=       500 IOpCl=  0 I1Cent=   200000004 NGrid=           0
         NMat0=    1 NMatS0=      1 NMatT0=    0 NMatD0=    1 NMtDS0=    0 NMtDT0=    0
 Petite list used in FoFCou.
 Keep R1 and R2 ints in memory in canonical form, NReq=2703878162.
 Requested convergence on RMS density matrix=1.00D-08 within 128 cycles.
 Requested convergence on MAX density matrix=1.00D-06.
 Requested convergence on             energy=1.00D-06.
 No special actions if energy rises.
 SCF Done:  E(UwB97XD) =  -813.196424656     A.U. after   12 cycles
            NFock= 12  Conv=0.32D-08     -V/T= 2.0025
 <Sx>= 0.0000 <Sy>= 0.0000 <Sz>= 0.5000 <S**2>= 0.7539 S= 0.5020
 <L.S>= 0.000000000000E+00
 Annihilation of the first spin contaminant:
 S**2 before annihilation     0.7539,   after     0.7500
 Calling FoFJK, ICntrl=      2127 FMM=F ISym2X=0 I1Cent= 0 IOpClX= 1 NMat=1 NMatS=1 NMatT=0.
 ***** Axes restored to original set *****
 -------------------------------------------------------------------
 Center     Atomic                   Forces (Hartrees/Bohr)
 Number     Number              X              Y              Z
 -------------------------------------------------------------------
      1        6          -0.000178451   -0.003122270   -0.000051454
      2        9          -0.000270254    0.001700329    0.001023405
      3        9          -0.000304476    0.000903067    0.000190135
      4        9          -0.000325923   -0.000003107   -0.000028495
      5        9           0.000884311    0.000875389   -0.001033127
      6        9           0.001377332   -0.001488093   -0.000067657
      7        9           0.000317232    0.003587535    0.001902195
      8        6          -0.002333772   -0.000099454    0.000248650
      9        6           0.001189521   -0.000853574   -0.000815100
     10        9          -0.000355521   -0.001499821   -0.001368553
 -------------------------------------------------------------------
 Cartesian Forces:  Max     0.003587535 RMS     0.001300539

 GradGradGradGradGradGradGradGradGradGradGradGradGradGradGradGradGradGrad
 Berny optimization.
 Using GEDIIS/GDIIS optimizer.
 FormGI is forming the generalized inverse of G from B-inverse, IUseBI=4.
 Internal  Forces:  Max     0.003892679 RMS     0.001163726
 Search for a local minimum.
 Step number  15 out of a maximum of   46
 All quantities printed in internal units (Hartrees-Bohrs-Radians)
 Mixed Optimization -- RFO/linear search
 Update second derivatives using D2CorX and points   13   14   15
 DE= -3.59D-05 DEPred=-1.12D-04 R= 3.20D-01
 Trust test= 3.20D-01 RLast= 4.01D-01 DXMaxT set to 2.73D-01
 ITU=  0  1 -1 -1  1 -1  1  1  1  1  1  1  1  1  0
 Use linear search instead of GDIIS.
     Eigenvalues ---    0.00046   0.00254   0.00777   0.10132   0.11010
     Eigenvalues ---    0.12176   0.13080   0.19494   0.22563   0.24109
     Eigenvalues ---    0.24830   0.25877   0.27343   0.28644   0.33938
     Eigenvalues ---    0.36779   0.39924   0.46404   0.52395   0.54874
     Eigenvalues ---    0.55081   0.57184   0.58631   1.00508
 RFO step:  Lambda=-8.20042104D-05 EMin= 4.61101033D-04
 Quartic linear search produced a step of -0.37174.
 Iteration  1 RMS(Cart)=  0.07941769 RMS(Int)=  0.00298621
 Iteration  2 RMS(Cart)=  0.00318815 RMS(Int)=  0.00003452
 Iteration  3 RMS(Cart)=  0.00000414 RMS(Int)=  0.00003442
 Iteration  4 RMS(Cart)=  0.00000000 RMS(Int)=  0.00003442
 Variable       Old X    -DE/DX   Delta X   Delta X   Delta X     New X
                                 (Linear)    (Quad)   (Total)
    R1        2.52383   0.00183  -0.00076   0.00930   0.00854   2.53237
    R2        2.51247  -0.00025  -0.00111   0.00194   0.00082   2.51329
    R3        2.52420  -0.00140  -0.00091  -0.00264  -0.00355   2.52066
    R4        2.83442   0.00010   0.00354  -0.00566  -0.00212   2.83230
    R5        2.48196   0.00025   0.00306  -0.00580  -0.00274   2.47922
    R6        2.51465   0.00181  -0.00266   0.00431   0.00166   2.51630
    R7        2.52579   0.00389   0.00440   0.00097   0.00537   2.53116
    R8        2.83527   0.00245   0.00211   0.00050   0.00261   2.83788
    R9        2.50770   0.00141  -0.00005   0.00343   0.00338   2.51108
    A1        1.89657  -0.00120   0.00081  -0.00920  -0.00838   1.88819
    A2        1.87260   0.00027   0.00105   0.00020   0.00126   1.87386
    A3        1.93984   0.00088  -0.00040   0.00451   0.00411   1.94395
    A4        1.89572   0.00064   0.00043   0.00362   0.00405   1.89978
    A5        1.92423   0.00085   0.00236   0.00138   0.00375   1.92798
    A6        1.93339  -0.00145  -0.00421  -0.00073  -0.00493   1.92846
    A7        2.00176  -0.00049  -0.00468   0.00937   0.00481   2.00657
    A8        2.16157   0.00060   0.00438  -0.00157   0.00291   2.16448
    A9        2.02800  -0.00004  -0.00792   0.00612  -0.00172   2.02629
   A10        1.87426   0.00059   0.00250  -0.00031   0.00219   1.87645
   A11        1.92888   0.00112   0.00238   0.00186   0.00424   1.93312
   A12        1.90335  -0.00068   0.00015  -0.00251  -0.00235   1.90099
   A13        1.95679  -0.00158  -0.00525   0.00120  -0.00405   1.95274
   A14        1.87924   0.00187   0.00018   0.00127   0.00147   1.88071
   A15        1.91962  -0.00126   0.00011  -0.00160  -0.00148   1.91814
    D1       -1.03013  -0.00020  -0.01808  -0.07947  -0.09756  -1.12770
    D2        1.64551  -0.00007  -0.03900  -0.04440  -0.08338   1.56213
    D3       -3.13430   0.00017  -0.02042  -0.07179  -0.09223   3.05665
    D4       -0.45866   0.00030  -0.04134  -0.03672  -0.07804  -0.53670
    D5        1.04999  -0.00024  -0.01976  -0.07675  -0.09655   0.95344
    D6       -2.55755  -0.00011  -0.04069  -0.04169  -0.08236  -2.63991
    D7        1.11435   0.00041  -0.04063  -0.04797  -0.08855   1.02580
    D8       -0.97599  -0.00006  -0.04191  -0.04963  -0.09151  -1.06750
    D9       -3.06633  -0.00053  -0.03883  -0.05094  -0.08973   3.12712
   D10       -2.49952   0.00044  -0.06091  -0.01169  -0.07263  -2.57215
   D11        1.69333  -0.00003  -0.06220  -0.01335  -0.07559   1.61774
   D12       -0.39701  -0.00050  -0.05912  -0.01466  -0.07381  -0.47083
         Item               Value     Threshold  Converged?
 Maximum Force            0.003893     0.000450     NO 
 RMS     Force            0.001164     0.000300     NO 
 Maximum Displacement     0.220797     0.001800     NO 
 RMS     Displacement     0.079594     0.001200     NO 
 Predicted change in Energy=-8.055622D-05
 GradGradGradGradGradGradGradGradGradGradGradGradGradGradGradGradGradGrad

                          Input orientation:                          
 ---------------------------------------------------------------------
 Center     Atomic      Atomic             Coordinates (Angstroms)
 Number     Number       Type             X           Y           Z
 ---------------------------------------------------------------------
      1          6           0       -0.456347    0.111672    0.917076
      2          9           0       -0.888574    1.344501    1.215589
      3          9           0        0.511927   -0.206891    1.771363
      4          9           0       -0.868197    0.234935   -1.415901
      5          9           0       -1.480863   -0.723551    1.095934
      6          9           0        2.300356   -0.514219   -0.269064
      7          9           0        1.833335    1.561797   -0.604612
      8          6           0        0.043337    0.034578   -0.493857
      9          6           0        1.463433    0.308401   -0.898295
     10          9           0        1.600388    0.142149   -2.209528
 ---------------------------------------------------------------------
                    Distance matrix (angstroms):
                    1          2          3          4          5
     1  C    0.000000
     2  F    1.340074   0.000000
     3  F    1.329978   2.162661   0.000000
     4  F    2.372255   2.855922   3.501229   0.000000
     5  F    1.333874   2.154521   2.166646   2.757420   0.000000
     6  F    3.065629   3.978481   2.730617   3.451984   4.025501
     7  F    3.108221   3.281636   3.243398   3.117215   4.370192
     8  C    1.498786   2.346607   2.325749   1.311945   2.329245
     9  C    2.649496   3.327754   2.880618   2.389521   3.702803
    10  F    3.742558   4.401365   4.141747   2.594680   4.601046
                    6          7          8          9         10
     6  F    0.000000
     7  F    2.154193   0.000000
     8  C    2.333634   2.355581   0.000000
     9  C    1.331569   1.339433   1.501740   0.000000
    10  F    2.164758   2.155324   2.319376   1.328808   0.000000
 Stoichiometry    C3F7(2)
 Framework group  C1[X(C3F7)]
 Deg. of freedom    24
 Full point group                 C1      NOp   1
 Largest Abelian subgroup         C1      NOp   1
 Largest concise Abelian subgroup C1      NOp   1
                         Standard orientation:                         
 ---------------------------------------------------------------------
 Center     Atomic      Atomic             Coordinates (Angstroms)
 Number     Number       Type             X           Y           Z
 ---------------------------------------------------------------------
      1          6           0       -1.322073   -0.136673   -0.024057
      2          9           0       -1.748180   -0.025537    1.241597
      3          9           0       -1.222645   -1.430292   -0.316472
      4          9           0       -0.023546    1.848449   -0.050728
      5          9           0       -2.252378    0.411843   -0.806926
      6          9           0        1.446841   -1.175554   -0.831471
      7          9           0        1.490266   -0.556101    1.231279
      8          6           0       -0.002773    0.547438   -0.218478
      9          6           0        1.327384   -0.122379   -0.025477
     10          9           0        2.307949    0.734935   -0.288604
 ---------------------------------------------------------------------
 Rotational constants (GHZ):           2.0959585           1.0192175           0.8999893
 Standard basis: 6-311+G(2d) (5D, 7F)
 There are   290 symmetry adapted cartesian basis functions of A   symmetry.
 There are   270 symmetry adapted basis functions of A   symmetry.
   270 basis functions,   420 primitive gaussians,   290 cartesian basis functions
    41 alpha electrons       40 beta electrons
       nuclear repulsion energy       639.8802482430 Hartrees.
 NAtoms=   10 NActive=   10 NUniq=   10 SFac= 1.00D+00 NAtFMM=   60 NAOKFM=F Big=F
 Integral buffers will be    131072 words long.
 Raffenetti 2 integral format.
 Two-electron integral symmetry is turned on.
 Nuclear repulsion after empirical dispersion term =      639.8763593869 Hartrees.
 One-electron integrals computed using PRISM.
 NBasis=   270 RedAO= T EigKep=  8.85D-05  NBF=   270
 NBsUse=   270 1.00D-06 EigRej= -1.00D+00 NBFU=   270
 Initial guess from the checkpoint file:  "2_propyl.chk"
 B after Tr=    -0.000000    0.000000    0.000000
         Rot=    0.999971   -0.004336   -0.005832    0.002387 Ang=  -0.88 deg.
 Initial guess <Sx>= 0.0000 <Sy>= 0.0000 <Sz>= 0.5000 <S**2>= 0.7539 S= 0.5020
 ExpMin= 4.38D-02 ExpMax= 1.14D+04 ExpMxC= 1.72D+03 IAcc=2 IRadAn=         4 AccDes= 0.00D+00
 Harris functional with IExCor= 4639 and IRadAn=       4 diagonalized for initial guess.
 HarFok:  IExCor= 4639 AccDes= 0.00D+00 IRadAn=         4 IDoV= 1 UseB2=F ITyADJ=14
 ICtDFT=  3500011 ScaDFX=  1.000000  1.000000  1.000000  1.000000
 FoFCou: FMM=F IPFlag=           0 FMFlag=      100000 FMFlg1=           0
         NFxFlg=           0 DoJE=T BraDBF=F KetDBF=T FulRan=T
         wScrn=  0.000000 ICntrl=       500 IOpCl=  0 I1Cent=   200000004 NGrid=           0
         NMat0=    1 NMatS0=      1 NMatT0=    0 NMatD0=    1 NMtDS0=    0 NMtDT0=    0
 Petite list used in FoFCou.
 Keep R1 and R2 ints in memory in canonical form, NReq=2703878162.
 Requested convergence on RMS density matrix=1.00D-08 within 128 cycles.
 Requested convergence on MAX density matrix=1.00D-06.
 Requested convergence on             energy=1.00D-06.
 No special actions if energy rises.
 SCF Done:  E(UwB97XD) =  -813.196427809     A.U. after   12 cycles
            NFock= 12  Conv=0.36D-08     -V/T= 2.0025
 <Sx>= 0.0000 <Sy>= 0.0000 <Sz>= 0.5000 <S**2>= 0.7539 S= 0.5020
 <L.S>= 0.000000000000E+00
 Annihilation of the first spin contaminant:
 S**2 before annihilation     0.7539,   after     0.7500
 Calling FoFJK, ICntrl=      2127 FMM=F ISym2X=0 I1Cent= 0 IOpClX= 1 NMat=1 NMatS=1 NMatT=0.
 ***** Axes restored to original set *****
 -------------------------------------------------------------------
 Center     Atomic                   Forces (Hartrees/Bohr)
 Number     Number              X              Y              Z
 -------------------------------------------------------------------
      1        6          -0.000446574   -0.000278545    0.001430756
      2        9          -0.000003898   -0.000405901   -0.000024857
      3        9          -0.000911706    0.000652337   -0.000343074
      4        9          -0.000956129    0.000710157   -0.000552144
      5        9           0.000709092    0.000659931   -0.000616004
      6        9           0.000065215    0.000060542   -0.000736639
      7        9           0.000175413    0.001467440    0.000845984
      8        6           0.000468608   -0.001567487    0.000673415
      9        6           0.001323670   -0.000673473   -0.000729494
     10        9          -0.000423691   -0.000625001    0.000052055
 -------------------------------------------------------------------
 Cartesian Forces:  Max     0.001567487 RMS     0.000748248

 GradGradGradGradGradGradGradGradGradGradGradGradGradGradGradGradGradGrad
 Berny optimization.
 Using GEDIIS/GDIIS optimizer.
 FormGI is forming the generalized inverse of G from B-inverse, IUseBI=4.
 Internal  Forces:  Max     0.001744247 RMS     0.000739829
 Search for a local minimum.
 Step number  16 out of a maximum of   46
 All quantities printed in internal units (Hartrees-Bohrs-Radians)
 Mixed Optimization -- En-DIIS/RFO-DIIS
 Update second derivatives using D2CorX and points   10   13   11   14   15
                                                     16
 DE= -3.15D-06 DEPred=-8.06D-05 R= 3.92D-02
 Trust test= 3.92D-02 RLast= 2.97D-01 DXMaxT set to 1.37D-01
 ITU= -1  0  1 -1 -1  1 -1  1  1  1  1  1  1  1  1  0
 Use linear search instead of GDIIS.
     Eigenvalues ---    0.00056   0.00276   0.01089   0.10605   0.10991
     Eigenvalues ---    0.12122   0.13154   0.21220   0.22598   0.24149
     Eigenvalues ---    0.24998   0.25940   0.27601   0.29786   0.33907
     Eigenvalues ---    0.37198   0.40843   0.46938   0.51852   0.54925
     Eigenvalues ---    0.55376   0.57334   0.58274   0.92478
 RFO step:  Lambda=-4.82355354D-05 EMin= 5.56461274D-04
 Quartic linear search produced a step of -0.51036.
 Iteration  1 RMS(Cart)=  0.05345617 RMS(Int)=  0.00134679
 Iteration  2 RMS(Cart)=  0.00143745 RMS(Int)=  0.00000645
 Iteration  3 RMS(Cart)=  0.00000082 RMS(Int)=  0.00000643
 Variable       Old X    -DE/DX   Delta X   Delta X   Delta X     New X
                                 (Linear)    (Quad)   (Total)
    R1        2.53237  -0.00038  -0.00436   0.00035  -0.00402   2.52836
    R2        2.51329  -0.00104  -0.00042  -0.00008  -0.00050   2.51280
    R3        2.52066  -0.00104   0.00181  -0.00027   0.00154   2.52220
    R4        2.83230   0.00067   0.00108   0.00120   0.00228   2.83458
    R5        2.47922   0.00116   0.00140   0.00150   0.00290   2.48211
    R6        2.51630  -0.00034  -0.00084  -0.00077  -0.00162   2.51468
    R7        2.53116   0.00161  -0.00274   0.00653   0.00379   2.53495
    R8        2.83788   0.00127  -0.00133   0.00257   0.00124   2.83911
    R9        2.51108  -0.00002  -0.00173  -0.00071  -0.00243   2.50865
    A1        1.88819  -0.00041   0.00428   0.00070   0.00498   1.89317
    A2        1.87386   0.00008  -0.00064   0.00030  -0.00035   1.87351
    A3        1.94395   0.00008  -0.00210  -0.00023  -0.00233   1.94162
    A4        1.89978   0.00026  -0.00207   0.00098  -0.00109   1.89868
    A5        1.92798   0.00094  -0.00191   0.00014  -0.00178   1.92620
    A6        1.92846  -0.00095   0.00251  -0.00180   0.00071   1.92918
    A7        2.00657  -0.00126  -0.00246  -0.00066  -0.00310   2.00348
    A8        2.16448   0.00174  -0.00148   0.00251   0.00105   2.16552
    A9        2.02629  -0.00051   0.00088   0.00033   0.00123   2.02752
   A10        1.87645   0.00007  -0.00112   0.00138   0.00026   1.87670
   A11        1.93312   0.00092  -0.00216   0.00237   0.00021   1.93332
   A12        1.90099  -0.00034   0.00120  -0.00077   0.00042   1.90142
   A13        1.95274  -0.00054   0.00207  -0.00607  -0.00400   1.94874
   A14        1.88071   0.00097  -0.00075   0.00209   0.00134   1.88205
   A15        1.91814  -0.00106   0.00076   0.00109   0.00185   1.91999
    D1       -1.12770   0.00045   0.04979   0.01737   0.06717  -1.06053
    D2        1.56213   0.00020   0.04255   0.02280   0.06535   1.62748
    D3        3.05665   0.00029   0.04707   0.01654   0.06362   3.12028
    D4       -0.53670   0.00004   0.03983   0.02198   0.06181  -0.47489
    D5        0.95344  -0.00002   0.04927   0.01640   0.06568   1.01912
    D6       -2.63991  -0.00028   0.04203   0.02184   0.06387  -2.57605
    D7        1.02580   0.00064   0.04519   0.00555   0.05074   1.07654
    D8       -1.06750   0.00029   0.04670   0.00625   0.05294  -1.01456
    D9        3.12712   0.00012   0.04580   0.00681   0.05261  -3.10346
   D10       -2.57215   0.00022   0.03707   0.01082   0.04789  -2.52426
   D11        1.61774  -0.00014   0.03858   0.01152   0.05010   1.66783
   D12       -0.47083  -0.00030   0.03767   0.01208   0.04976  -0.42107
         Item               Value     Threshold  Converged?
 Maximum Force            0.001744     0.000450     NO 
 RMS     Force            0.000740     0.000300     NO 
 Maximum Displacement     0.151758     0.001800     NO 
 RMS     Displacement     0.053478     0.001200     NO 
 Predicted change in Energy=-4.562030D-05
 GradGradGradGradGradGradGradGradGradGradGradGradGradGradGradGradGradGrad

                          Input orientation:                          
 ---------------------------------------------------------------------
 Center     Atomic      Atomic             Coordinates (Angstroms)
 Number     Number       Type             X           Y           Z
 ---------------------------------------------------------------------
      1          6           0       -0.459035    0.123614    0.917074
      2          9           0       -0.953088    1.338565    1.181486
      3          9           0        0.525670   -0.126584    1.774919
      4          9           0       -0.868325    0.244405   -1.416448
      5          9           0       -1.440431   -0.757850    1.120250
      6          9           0        2.288463   -0.573040   -0.313270
      7          9           0        1.864556    1.527102   -0.548074
      8          6           0        0.042958    0.036182   -0.493719
      9          6           0        1.466582    0.294827   -0.898176
     10          9           0        1.591444    0.186148   -2.215336
 ---------------------------------------------------------------------
                    Distance matrix (angstroms):
                    1          2          3          4          5
     1  C    0.000000
     2  F    1.337949   0.000000
     3  F    1.329715   2.164613   0.000000
     4  F    2.372221   2.820219   3.502239   0.000000
     5  F    1.334690   2.153186   2.166250   2.786873   0.000000
     6  F    3.089955   4.049220   2.768989   3.442460   3.999223
     7  F    3.084722   3.311502   3.150173   3.141341   4.350546
     8  C    1.499993   2.344061   2.325129   1.313477   2.331486
     9  C    2.651875   3.356961   2.865020   2.392266   3.692275
    10  F    3.744377   4.397853   4.141957   2.586905   4.605380
                    6          7          8          9         10
     6  F    0.000000
     7  F    2.155325   0.000000
     8  C    2.333668   2.354573   0.000000
     9  C    1.330713   1.341438   1.502393   0.000000
    10  F    2.163343   2.156967   2.320401   1.327521   0.000000
 Stoichiometry    C3F7(2)
 Framework group  C1[X(C3F7)]
 Deg. of freedom    24
 Full point group                 C1      NOp   1
 Largest Abelian subgroup         C1      NOp   1
 Largest concise Abelian subgroup C1      NOp   1
                         Standard orientation:                         
 ---------------------------------------------------------------------
 Center     Atomic      Atomic             Coordinates (Angstroms)
 Number     Number       Type             X           Y           Z
 ---------------------------------------------------------------------
      1          6           0       -1.322553   -0.138880   -0.022593
      2          9           0       -1.783189    0.046181    1.219854
      3          9           0       -1.202390   -1.445673   -0.237057
      4          9           0       -0.028069    1.848763   -0.054463
      5          9           0       -2.235810    0.352407   -0.862829
      6          9           0        1.475210   -1.138241   -0.872075
      7          9           0        1.463363   -0.606454    1.216583
      8          6           0       -0.002878    0.546092   -0.220703
      9          6           0        1.329258   -0.120965   -0.026708
     10          9           0        2.308334    0.752185   -0.230010
 ---------------------------------------------------------------------
 Rotational constants (GHZ):           2.0962507           1.0188574           0.8997431
 Standard basis: 6-311+G(2d) (5D, 7F)
 There are   290 symmetry adapted cartesian basis functions of A   symmetry.
 There are   270 symmetry adapted basis functions of A   symmetry.
   270 basis functions,   420 primitive gaussians,   290 cartesian basis functions
    41 alpha electrons       40 beta electrons
       nuclear repulsion energy       639.8117286551 Hartrees.
 NAtoms=   10 NActive=   10 NUniq=   10 SFac= 1.00D+00 NAtFMM=   60 NAOKFM=F Big=F
 Integral buffers will be    131072 words long.
 Raffenetti 2 integral format.
 Two-electron integral symmetry is turned on.
 Nuclear repulsion after empirical dispersion term =      639.8078339535 Hartrees.
 One-electron integrals computed using PRISM.
 NBasis=   270 RedAO= T EigKep=  8.80D-05  NBF=   270
 NBsUse=   270 1.00D-06 EigRej= -1.00D+00 NBFU=   270
 Initial guess from the checkpoint file:  "2_propyl.chk"
 B after Tr=    -0.000000   -0.000000   -0.000000
         Rot=    0.999982    0.003503    0.004557   -0.001636 Ang=   0.68 deg.
 Initial guess <Sx>= 0.0000 <Sy>= 0.0000 <Sz>= 0.5000 <S**2>= 0.7539 S= 0.5020
 ExpMin= 4.38D-02 ExpMax= 1.14D+04 ExpMxC= 1.72D+03 IAcc=2 IRadAn=         4 AccDes= 0.00D+00
 Harris functional with IExCor= 4639 and IRadAn=       4 diagonalized for initial guess.
 HarFok:  IExCor= 4639 AccDes= 0.00D+00 IRadAn=         4 IDoV= 1 UseB2=F ITyADJ=14
 ICtDFT=  3500011 ScaDFX=  1.000000  1.000000  1.000000  1.000000
 FoFCou: FMM=F IPFlag=           0 FMFlag=      100000 FMFlg1=           0
         NFxFlg=           0 DoJE=T BraDBF=F KetDBF=T FulRan=T
         wScrn=  0.000000 ICntrl=       500 IOpCl=  0 I1Cent=   200000004 NGrid=           0
         NMat0=    1 NMatS0=      1 NMatT0=    0 NMatD0=    1 NMtDS0=    0 NMtDT0=    0
 Petite list used in FoFCou.
 Keep R1 and R2 ints in memory in canonical form, NReq=2703878162.
 Requested convergence on RMS density matrix=1.00D-08 within 128 cycles.
 Requested convergence on MAX density matrix=1.00D-06.
 Requested convergence on             energy=1.00D-06.
 No special actions if energy rises.
 SCF Done:  E(UwB97XD) =  -813.196487211     A.U. after   12 cycles
            NFock= 12  Conv=0.25D-08     -V/T= 2.0025
 <Sx>= 0.0000 <Sy>= 0.0000 <Sz>= 0.5000 <S**2>= 0.7539 S= 0.5020
 <L.S>= 0.000000000000E+00
 Annihilation of the first spin contaminant:
 S**2 before annihilation     0.7539,   after     0.7500
 Calling FoFJK, ICntrl=      2127 FMM=F ISym2X=0 I1Cent= 0 IOpClX= 1 NMat=1 NMatS=1 NMatT=0.
 ***** Axes restored to original set *****
 -------------------------------------------------------------------
 Center     Atomic                   Forces (Hartrees/Bohr)
 Number     Number              X              Y              Z
 -------------------------------------------------------------------
      1        6          -0.000048306   -0.001349340   -0.000157671
      2        9           0.000025015    0.000300885    0.000535840
      3        9          -0.000685720    0.000706200   -0.000148463
      4        9          -0.000084784    0.000206437    0.000200491
      5        9           0.000643810    0.000718546   -0.000456995
      6        9           0.000608044   -0.000324577   -0.000149550
      7        9           0.000179705    0.000256315    0.000442939
      8        6          -0.000714791   -0.000826521   -0.000055347
      9        6           0.000448389    0.000974355    0.000118850
     10        9          -0.000371364   -0.000662300   -0.000330093
 -------------------------------------------------------------------
 Cartesian Forces:  Max     0.001349340 RMS     0.000525535

 GradGradGradGradGradGradGradGradGradGradGradGradGradGradGradGradGradGrad
 Berny optimization.
 Using GEDIIS/GDIIS optimizer.
 FormGI is forming the generalized inverse of G from B-inverse, IUseBI=4.
 Internal  Forces:  Max     0.001069496 RMS     0.000486993
 Search for a local minimum.
 Step number  17 out of a maximum of   46
 All quantities printed in internal units (Hartrees-Bohrs-Radians)
 Mixed Optimization -- En-DIIS/RFO-DIIS
 Swapping is turned off.
 Update second derivatives using D2CorX and points   10   13   14   15   16
                                                     17
 DE= -5.94D-05 DEPred=-4.56D-05 R= 1.30D+00
 TightC=F SS=  1.41D+00  RLast= 2.01D-01 DXNew= 2.2979D-01 6.0442D-01
 Trust test= 1.30D+00 RLast= 2.01D-01 DXMaxT set to 2.30D-01
 ITU=  1 -1  0  1 -1 -1  1 -1  1  1  1  1  1  1  1  1  0
     Eigenvalues ---    0.00099   0.00279   0.01177   0.10813   0.11343
     Eigenvalues ---    0.12074   0.13235   0.22322   0.22730   0.24468
     Eigenvalues ---    0.25144   0.25994   0.27655   0.30652   0.33821
     Eigenvalues ---    0.36067   0.39282   0.46607   0.48831   0.54944
     Eigenvalues ---    0.55531   0.56835   0.60294   0.65739
 En-DIIS/RFO-DIIS/Sim-DIIS IScMMF=       -3 using points:    17   16
 RFO step:  Lambda=-2.10609447D-05.
 DidBck=F Rises=F RFO-DIIS coefs:    1.00731   -0.00731
 Iteration  1 RMS(Cart)=  0.00310026 RMS(Int)=  0.00000871
 Iteration  2 RMS(Cart)=  0.00000865 RMS(Int)=  0.00000263
 Iteration  3 RMS(Cart)=  0.00000000 RMS(Int)=  0.00000263
 Variable       Old X    -DE/DX   Delta X   Delta X   Delta X     New X
                                 (Linear)    (Quad)   (Total)
    R1        2.52836   0.00037  -0.00003   0.00057   0.00054   2.52890
    R2        2.51280  -0.00074  -0.00000  -0.00116  -0.00116   2.51163
    R3        2.52220  -0.00102   0.00001  -0.00147  -0.00146   2.52074
    R4        2.83458  -0.00017   0.00002  -0.00012  -0.00011   2.83447
    R5        2.48211  -0.00005   0.00002   0.00053   0.00055   2.48266
    R6        2.51468   0.00052  -0.00001   0.00032   0.00030   2.51499
    R7        2.53495   0.00040   0.00003  -0.00054  -0.00051   2.53444
    R8        2.83911   0.00084   0.00001   0.00184   0.00185   2.84096
    R9        2.50865   0.00035  -0.00002   0.00054   0.00052   2.50917
    A1        1.89317  -0.00084   0.00004  -0.00141  -0.00137   1.89180
    A2        1.87351  -0.00006  -0.00000  -0.00021  -0.00021   1.87330
    A3        1.94162   0.00056  -0.00002   0.00042   0.00040   1.94202
    A4        1.89868   0.00020  -0.00001   0.00150   0.00149   1.90017
    A5        1.92620   0.00070  -0.00001   0.00107   0.00106   1.92726
    A6        1.92918  -0.00059   0.00001  -0.00138  -0.00137   1.92780
    A7        2.00348  -0.00058  -0.00002  -0.00246  -0.00250   2.00098
    A8        2.16552   0.00067   0.00001   0.00109   0.00109   2.16662
    A9        2.02752  -0.00011   0.00001  -0.00172  -0.00173   2.02579
   A10        1.87670  -0.00025   0.00000  -0.00006  -0.00006   1.87665
   A11        1.93332   0.00075   0.00000   0.00148   0.00148   1.93480
   A12        1.90142  -0.00025   0.00000  -0.00132  -0.00131   1.90010
   A13        1.94874   0.00010  -0.00003   0.00070   0.00067   1.94940
   A14        1.88205   0.00073   0.00001   0.00205   0.00206   1.88411
   A15        1.91999  -0.00107   0.00001  -0.00282  -0.00281   1.91718
    D1       -1.06053   0.00003   0.00049   0.00636   0.00685  -1.05368
    D2        1.62748  -0.00006   0.00048  -0.00180  -0.00132   1.62616
    D3        3.12028   0.00025   0.00047   0.00715   0.00761   3.12788
    D4       -0.47489   0.00017   0.00045  -0.00102  -0.00057  -0.47546
    D5        1.01912  -0.00007   0.00048   0.00547   0.00595   1.02508
    D6       -2.57605  -0.00016   0.00047  -0.00269  -0.00222  -2.57827
    D7        1.07654   0.00039   0.00037   0.00249   0.00287   1.07940
    D8       -1.01456   0.00013   0.00039   0.00111   0.00149  -1.01307
    D9       -3.10346  -0.00014   0.00038  -0.00004   0.00034  -3.10312
   D10       -2.52426   0.00020   0.00035  -0.00593  -0.00558  -2.52984
   D11        1.66783  -0.00006   0.00037  -0.00732  -0.00696   1.66088
   D12       -0.42107  -0.00033   0.00036  -0.00847  -0.00811  -0.42917
         Item               Value     Threshold  Converged?
 Maximum Force            0.001069     0.000450     NO 
 RMS     Force            0.000487     0.000300     NO 
 Maximum Displacement     0.009112     0.001800     NO 
 RMS     Displacement     0.003099     0.001200     NO 
 Predicted change in Energy=-1.053472D-05
 GradGradGradGradGradGradGradGradGradGradGradGradGradGradGradGradGradGrad

                          Input orientation:                          
 ---------------------------------------------------------------------
 Center     Atomic      Atomic             Coordinates (Angstroms)
 Number     Number       Type             X           Y           Z
 ---------------------------------------------------------------------
      1          6           0       -0.459558    0.122649    0.917513
      2          9           0       -0.954860    1.337662    1.180750
      3          9           0        0.523386   -0.124796    1.777219
      4          9           0       -0.867524    0.249227   -1.414213
      5          9           0       -1.440611   -0.758524    1.118541
      6          9           0        2.292547   -0.572245   -0.315508
      7          9           0        1.865000    1.527165   -0.549044
      8          6           0        0.043771    0.034066   -0.492673
      9          6           0        1.467783    0.294657   -0.898148
     10          9           0        1.588860    0.183510   -2.215731
 ---------------------------------------------------------------------
                    Distance matrix (angstroms):
                    1          2          3          4          5
     1  C    0.000000
     2  F    1.338236   0.000000
     3  F    1.329098   2.163277   0.000000
     4  F    2.370528   2.815342   3.501394   0.000000
     5  F    1.333920   2.152631   2.166275   2.785468   0.000000
     6  F    3.094721   4.053663   2.776625   3.445000   4.003456
     7  F    3.086588   3.313564   3.152840   3.138205   4.351124
     8  C    1.499937   2.344562   2.325442   1.313769   2.329721
     9  C    2.653461   3.358403   2.867999   2.392080   3.692557
    10  F    3.743921   4.397575   4.144145   2.584681   4.602445
                    6          7          8          9         10
     6  F    0.000000
     7  F    2.155193   0.000000
     8  C    2.335807   2.355716   0.000000
     9  C    1.330874   1.341168   1.503372   0.000000
    10  F    2.162681   2.158590   2.319173   1.327795   0.000000
 Stoichiometry    C3F7(2)
 Framework group  C1[X(C3F7)]
 Deg. of freedom    24
 Full point group                 C1      NOp   1
 Largest Abelian subgroup         C1      NOp   1
 Largest concise Abelian subgroup C1      NOp   1
                         Standard orientation:                         
 ---------------------------------------------------------------------
 Center     Atomic      Atomic             Coordinates (Angstroms)
 Number     Number       Type             X           Y           Z
 ---------------------------------------------------------------------
      1          6           0       -1.323223   -0.139658   -0.023988
      2          9           0       -1.784588    0.048681    1.218005
      3          9           0       -1.204684   -1.446760   -0.233593
      4          9           0       -0.029596    1.846577   -0.052319
      5          9           0       -2.234642    0.351301   -0.865188
      6          9           0        1.480701   -1.139965   -0.869384
      7          9           0        1.464133   -0.603635    1.217943
      8          6           0       -0.003319    0.544295   -0.223667
      9          6           0        1.330173   -0.121264   -0.026285
     10          9           0        2.306255    0.754886   -0.232837
 ---------------------------------------------------------------------
 Rotational constants (GHZ):           2.0968198           1.0182555           0.8992872
 Standard basis: 6-311+G(2d) (5D, 7F)
 There are   290 symmetry adapted cartesian basis functions of A   symmetry.
 There are   270 symmetry adapted basis functions of A   symmetry.
   270 basis functions,   420 primitive gaussians,   290 cartesian basis functions
    41 alpha electrons       40 beta electrons
       nuclear repulsion energy       639.7602181948 Hartrees.
 NAtoms=   10 NActive=   10 NUniq=   10 SFac= 1.00D+00 NAtFMM=   60 NAOKFM=F Big=F
 Integral buffers will be    131072 words long.
 Raffenetti 2 integral format.
 Two-electron integral symmetry is turned on.
 Nuclear repulsion after empirical dispersion term =      639.7563241365 Hartrees.
 One-electron integrals computed using PRISM.
 NBasis=   270 RedAO= T EigKep=  8.83D-05  NBF=   270
 NBsUse=   270 1.00D-06 EigRej= -1.00D+00 NBFU=   270
 Initial guess from the checkpoint file:  "2_propyl.chk"
 B after Tr=     0.000000   -0.000000    0.000000
         Rot=    1.000000    0.000706    0.000206   -0.000256 Ang=   0.09 deg.
 Initial guess <Sx>= 0.0000 <Sy>= 0.0000 <Sz>= 0.5000 <S**2>= 0.7539 S= 0.5020
 Keep R1 and R2 ints in memory in canonical form, NReq=2703878162.
 Requested convergence on RMS density matrix=1.00D-08 within 128 cycles.
 Requested convergence on MAX density matrix=1.00D-06.
 Requested convergence on             energy=1.00D-06.
 No special actions if energy rises.
 SCF Done:  E(UwB97XD) =  -813.196502134     A.U. after    9 cycles
            NFock=  9  Conv=0.97D-08     -V/T= 2.0025
 <Sx>= 0.0000 <Sy>= 0.0000 <Sz>= 0.5000 <S**2>= 0.7539 S= 0.5020
 <L.S>= 0.000000000000E+00
 Annihilation of the first spin contaminant:
 S**2 before annihilation     0.7539,   after     0.7500
 Calling FoFJK, ICntrl=      2127 FMM=F ISym2X=0 I1Cent= 0 IOpClX= 1 NMat=1 NMatS=1 NMatT=0.
 ***** Axes restored to original set *****
 -------------------------------------------------------------------
 Center     Atomic                   Forces (Hartrees/Bohr)
 Number     Number              X              Y              Z
 -------------------------------------------------------------------
      1        6          -0.000027986   -0.000702559   -0.000305642
      2        9           0.000003813    0.000315503    0.000329755
      3        9          -0.000288512    0.000310163    0.000066653
      4        9           0.000066480    0.000057972    0.000213798
      5        9           0.000281733    0.000254979   -0.000160403
      6        9           0.000296848   -0.000200480    0.000020054
      7        9           0.000115750    0.000203333    0.000198338
      8        6          -0.000399516   -0.000374130   -0.000161716
      9        6           0.000115675    0.000376589    0.000023941
     10        9          -0.000164283   -0.000241371   -0.000224777
 -------------------------------------------------------------------
 Cartesian Forces:  Max     0.000702559 RMS     0.000261001

 GradGradGradGradGradGradGradGradGradGradGradGradGradGradGradGradGradGrad
 Berny optimization.
 Using GEDIIS/GDIIS optimizer.
 FormGI is forming the generalized inverse of G from B-inverse, IUseBI=4.
 Internal  Forces:  Max     0.000484953 RMS     0.000230095
 Search for a local minimum.
 Step number  18 out of a maximum of   46
 All quantities printed in internal units (Hartrees-Bohrs-Radians)
 Mixed Optimization -- En-DIIS/RFO-DIIS
 Swapping is turned off.
 Update second derivatives using D2CorX and points   10   13   14   15   16
                                                     17   18
 DE= -1.49D-05 DEPred=-1.05D-05 R= 1.42D+00
 TightC=F SS=  1.41D+00  RLast= 1.86D-02 DXNew= 3.8645D-01 5.5759D-02
 Trust test= 1.42D+00 RLast= 1.86D-02 DXMaxT set to 2.30D-01
 ITU=  1  1 -1  0  1 -1 -1  1 -1  1  1  1  1  1  1  1  1  0
     Eigenvalues ---    0.00108   0.00283   0.01141   0.10829   0.11087
     Eigenvalues ---    0.11896   0.13193   0.22475   0.23165   0.24504
     Eigenvalues ---    0.24587   0.25941   0.26332   0.27879   0.31161
     Eigenvalues ---    0.34143   0.39492   0.43545   0.48391   0.54893
     Eigenvalues ---    0.55152   0.57135   0.60053   0.62435
 En-DIIS/RFO-DIIS/Sim-DIIS IScMMF=       -3 using points:    18   17   16
 RFO step:  Lambda=-8.24996103D-06.
 DidBck=F Rises=F RFO-DIIS coefs:    1.66900   -0.76610    0.09710
 Iteration  1 RMS(Cart)=  0.00572602 RMS(Int)=  0.00001711
 Iteration  2 RMS(Cart)=  0.00001881 RMS(Int)=  0.00000384
 Iteration  3 RMS(Cart)=  0.00000000 RMS(Int)=  0.00000384
 Variable       Old X    -DE/DX   Delta X   Delta X   Delta X     New X
                                 (Linear)    (Quad)   (Total)
    R1        2.52890   0.00035   0.00075   0.00053   0.00129   2.53018
    R2        2.51163  -0.00023  -0.00073   0.00003  -0.00070   2.51093
    R3        2.52074  -0.00040  -0.00112  -0.00009  -0.00122   2.51953
    R4        2.83447  -0.00004  -0.00029   0.00043   0.00014   2.83461
    R5        2.48266  -0.00019   0.00009  -0.00015  -0.00006   2.48261
    R6        2.51499   0.00032   0.00036   0.00009   0.00045   2.51543
    R7        2.53444   0.00027  -0.00071   0.00054  -0.00017   2.53427
    R8        2.84096   0.00036   0.00112   0.00033   0.00145   2.84241
    R9        2.50917   0.00023   0.00058   0.00020   0.00078   2.50995
    A1        1.89180  -0.00048  -0.00140  -0.00089  -0.00229   1.88951
    A2        1.87330  -0.00001  -0.00011   0.00053   0.00043   1.87373
    A3        1.94202   0.00028   0.00049   0.00013   0.00062   1.94264
    A4        1.90017  -0.00000   0.00110  -0.00040   0.00070   1.90088
    A5        1.92726   0.00043   0.00088   0.00081   0.00169   1.92895
    A6        1.92780  -0.00025  -0.00099  -0.00022  -0.00120   1.92660
    A7        2.00098  -0.00027  -0.00137  -0.00092  -0.00230   1.99868
    A8        2.16662   0.00030   0.00063   0.00048   0.00110   2.16772
    A9        2.02579  -0.00003  -0.00127  -0.00048  -0.00176   2.02403
   A10        1.87665  -0.00010  -0.00006   0.00008   0.00002   1.87667
   A11        1.93480   0.00026   0.00097  -0.00019   0.00078   1.93558
   A12        1.90010  -0.00005  -0.00092   0.00063  -0.00029   1.89981
   A13        1.94940   0.00007   0.00083  -0.00027   0.00057   1.94997
   A14        1.88411   0.00028   0.00125   0.00005   0.00130   1.88542
   A15        1.91718  -0.00045  -0.00206  -0.00027  -0.00233   1.91486
    D1       -1.05368  -0.00003  -0.00194  -0.00106  -0.00299  -1.05667
    D2        1.62616  -0.00006  -0.00723  -0.00341  -0.01064   1.61552
    D3        3.12788   0.00011  -0.00109  -0.00056  -0.00165   3.12624
    D4       -0.47546   0.00007  -0.00638  -0.00292  -0.00930  -0.48476
    D5        1.02508  -0.00001  -0.00240  -0.00045  -0.00285   1.02223
    D6       -2.57827  -0.00005  -0.00769  -0.00281  -0.01050  -2.58877
    D7        1.07940   0.00016  -0.00301   0.00316   0.00015   1.07955
    D8       -1.01307   0.00006  -0.00414   0.00336  -0.00078  -1.01385
    D9       -3.10312  -0.00003  -0.00488   0.00365  -0.00124  -3.10435
   D10       -2.52984   0.00006  -0.00838   0.00067  -0.00771  -2.53755
   D11        1.66088  -0.00003  -0.00952   0.00088  -0.00864   1.65224
   D12       -0.42917  -0.00013  -0.01026   0.00116  -0.00910  -0.43827
         Item               Value     Threshold  Converged?
 Maximum Force            0.000485     0.000450     NO 
 RMS     Force            0.000230     0.000300     YES
 Maximum Displacement     0.012958     0.001800     NO 
 RMS     Displacement     0.005725     0.001200     NO 
 Predicted change in Energy=-4.116356D-06
 GradGradGradGradGradGradGradGradGradGradGradGradGradGradGradGradGradGrad

                          Input orientation:                          
 ---------------------------------------------------------------------
 Center     Atomic      Atomic             Coordinates (Angstroms)
 Number     Number       Type             X           Y           Z
 ---------------------------------------------------------------------
      1          6           0       -0.459803    0.120837    0.917893
      2          9           0       -0.948437    1.338937    1.182781
      3          9           0        0.519069   -0.131653    1.780199
      4          9           0       -0.866483    0.249605   -1.412209
      5          9           0       -1.445802   -0.754727    1.114924
      6          9           0        2.297714   -0.566361   -0.314348
      7          9           0        1.861744    1.530765   -0.553955
      8          6           0        0.045000    0.030824   -0.491752
      9          6           0        1.468652    0.295760   -0.898521
     10          9           0        1.587138    0.179384   -2.216307
 ---------------------------------------------------------------------
                    Distance matrix (angstroms):
                    1          2          3          4          5
     1  C    0.000000
     2  F    1.338916   0.000000
     3  F    1.328727   2.161740   0.000000
     4  F    2.368828   2.815552   3.500940   0.000000
     5  F    1.333277   2.153000   2.165994   2.780413   0.000000
     6  F    3.097509   4.050809   2.782027   3.447208   4.011510
     7  F    3.089307   3.309103   3.164599   3.133878   4.352987
     8  C    1.500009   2.345663   2.326564   1.313738   2.328302
     9  C    2.654977   3.355944   2.874010   2.391414   3.694798
    10  F    3.743876   4.396306   4.148443   2.582975   4.600912
                    6          7          8          9         10
     6  F    0.000000
     7  F    2.155324   0.000000
     8  C    2.337268   2.356746   0.000000
     9  C    1.331111   1.341076   1.504140   0.000000
    10  F    2.162985   2.159873   2.318265   1.328210   0.000000
 Stoichiometry    C3F7(2)
 Framework group  C1[X(C3F7)]
 Deg. of freedom    24
 Full point group                 C1      NOp   1
 Largest Abelian subgroup         C1      NOp   1
 Largest concise Abelian subgroup C1      NOp   1
                         Standard orientation:                         
 ---------------------------------------------------------------------
 Center     Atomic      Atomic             Coordinates (Angstroms)
 Number     Number       Type             X           Y           Z
 ---------------------------------------------------------------------
      1          6           0       -1.323806   -0.139608   -0.025311
      2          9           0       -1.780503    0.042130    1.220119
      3          9           0       -1.210732   -1.445854   -0.240834
      4          9           0       -0.029790    1.844388   -0.050393
      5          9           0       -2.236104    0.358743   -0.860168
      6          9           0        1.483384   -1.143787   -0.865473
      7          9           0        1.465874   -0.599120    1.219822
      8          6           0       -0.003248    0.542784   -0.226548
      9          6           0        1.331112   -0.121883   -0.026199
     10          9           0        2.305167    0.755970   -0.237700
 ---------------------------------------------------------------------
 Rotational constants (GHZ):           2.0970437           1.0175604           0.8988268
 Standard basis: 6-311+G(2d) (5D, 7F)
 There are   290 symmetry adapted cartesian basis functions of A   symmetry.
 There are   270 symmetry adapted basis functions of A   symmetry.
   270 basis functions,   420 primitive gaussians,   290 cartesian basis functions
    41 alpha electrons       40 beta electrons
       nuclear repulsion energy       639.6715942701 Hartrees.
 NAtoms=   10 NActive=   10 NUniq=   10 SFac= 1.00D+00 NAtFMM=   60 NAOKFM=F Big=F
 Integral buffers will be    131072 words long.
 Raffenetti 2 integral format.
 Two-electron integral symmetry is turned on.
 Nuclear repulsion after empirical dispersion term =      639.6676999684 Hartrees.
 One-electron integrals computed using PRISM.
 NBasis=   270 RedAO= T EigKep=  8.86D-05  NBF=   270
 NBsUse=   270 1.00D-06 EigRej= -1.00D+00 NBFU=   270
 Initial guess from the checkpoint file:  "2_propyl.chk"
 B after Tr=     0.000000    0.000000   -0.000000
         Rot=    1.000000   -0.000449   -0.000294    0.000105 Ang=  -0.06 deg.
 Initial guess <Sx>= 0.0000 <Sy>= 0.0000 <Sz>= 0.5000 <S**2>= 0.7539 S= 0.5020
 Keep R1 and R2 ints in memory in canonical form, NReq=2703878162.
 Requested convergence on RMS density matrix=1.00D-08 within 128 cycles.
 Requested convergence on MAX density matrix=1.00D-06.
 Requested convergence on             energy=1.00D-06.
 No special actions if energy rises.
 SCF Done:  E(UwB97XD) =  -813.196506226     A.U. after   10 cycles
            NFock= 10  Conv=0.22D-08     -V/T= 2.0025
 <Sx>= 0.0000 <Sy>= 0.0000 <Sz>= 0.5000 <S**2>= 0.7539 S= 0.5020
 <L.S>= 0.000000000000E+00
 Annihilation of the first spin contaminant:
 S**2 before annihilation     0.7539,   after     0.7500
 Calling FoFJK, ICntrl=      2127 FMM=F ISym2X=0 I1Cent= 0 IOpClX= 1 NMat=1 NMatS=1 NMatT=0.
 ***** Axes restored to original set *****
 -------------------------------------------------------------------
 Center     Atomic                   Forces (Hartrees/Bohr)
 Number     Number              X              Y              Z
 -------------------------------------------------------------------
      1        6           0.000044407   -0.000025098   -0.000054849
      2        9          -0.000055599    0.000044358   -0.000008428
      3        9           0.000081327   -0.000021891    0.000052471
      4        9           0.000001453    0.000000381    0.000050921
      5        9          -0.000013089    0.000032824   -0.000031581
      6        9           0.000009337    0.000005706   -0.000025421
      7        9           0.000054753    0.000054619    0.000005008
      8        6          -0.000058759   -0.000065866   -0.000042377
      9        6          -0.000114879   -0.000038922   -0.000016910
     10        9           0.000051050    0.000013890    0.000071167
 -------------------------------------------------------------------
 Cartesian Forces:  Max     0.000114879 RMS     0.000046422

 GradGradGradGradGradGradGradGradGradGradGradGradGradGradGradGradGradGrad
 Berny optimization.
 Using GEDIIS/GDIIS optimizer.
 FormGI is forming the generalized inverse of G from B-inverse, IUseBI=4.
 Internal  Forces:  Max     0.000098474 RMS     0.000042671
 Search for a local minimum.
 Step number  19 out of a maximum of   46
 All quantities printed in internal units (Hartrees-Bohrs-Radians)
 Mixed Optimization -- En-DIIS/RFO-DIIS
 Swapping is turned off.
 Update second derivatives using D2CorX and points   10   13   14   15   16
                                                     17   18   19
 DE= -4.09D-06 DEPred=-4.12D-06 R= 9.94D-01
 TightC=F SS=  1.41D+00  RLast= 2.42D-02 DXNew= 3.8645D-01 7.2475D-02
 Trust test= 9.94D-01 RLast= 2.42D-02 DXMaxT set to 2.30D-01
 ITU=  1  1  1 -1  0  1 -1 -1  1 -1  1  1  1  1  1  1  1  1  0
     Eigenvalues ---    0.00108   0.00280   0.01114   0.10718   0.10919
     Eigenvalues ---    0.12170   0.13201   0.22434   0.22615   0.24369
     Eigenvalues ---    0.24638   0.26285   0.26334   0.27939   0.30941
     Eigenvalues ---    0.34992   0.39114   0.42945   0.48227   0.54709
     Eigenvalues ---    0.55236   0.56951   0.61264   0.62522
 En-DIIS/RFO-DIIS/Sim-DIIS IScMMF=       -3 using points:    19   18   17   16
 RFO step:  Lambda=-3.02251943D-07.
 DidBck=F Rises=F RFO-DIIS coefs:    1.42054   -0.85339    0.52104   -0.08818
 Iteration  1 RMS(Cart)=  0.00291543 RMS(Int)=  0.00000460
 Iteration  2 RMS(Cart)=  0.00000430 RMS(Int)=  0.00000209
 Iteration  3 RMS(Cart)=  0.00000000 RMS(Int)=  0.00000209
 Variable       Old X    -DE/DX   Delta X   Delta X   Delta X     New X
                                 (Linear)    (Quad)   (Total)
    R1        2.53018   0.00006  -0.00005   0.00016   0.00011   2.53030
    R2        2.51093   0.00010   0.00016   0.00008   0.00025   2.51118
    R3        2.51953  -0.00002   0.00025  -0.00031  -0.00005   2.51948
    R4        2.83461  -0.00006   0.00030  -0.00068  -0.00037   2.83423
    R5        2.48261  -0.00004  -0.00001  -0.00015  -0.00016   2.48245
    R6        2.51543  -0.00001  -0.00009   0.00018   0.00010   2.51553
    R7        2.53427   0.00007   0.00048  -0.00034   0.00014   2.53441
    R8        2.84241  -0.00000  -0.00008   0.00009   0.00001   2.84242
    R9        2.50995  -0.00007  -0.00011  -0.00008  -0.00019   2.50976
    A1        1.88951   0.00003   0.00007   0.00029   0.00036   1.88987
    A2        1.87373  -0.00002   0.00024  -0.00063  -0.00039   1.87333
    A3        1.94264  -0.00001  -0.00012   0.00002  -0.00010   1.94254
    A4        1.90088   0.00004  -0.00044   0.00070   0.00026   1.90113
    A5        1.92895  -0.00000   0.00010  -0.00015  -0.00006   1.92890
    A6        1.92660  -0.00003   0.00015  -0.00022  -0.00007   1.92653
    A7        1.99868  -0.00001  -0.00016   0.00015  -0.00000   1.99868
    A8        2.16772  -0.00008   0.00008  -0.00078  -0.00069   2.16702
    A9        2.02403   0.00008   0.00011   0.00059   0.00071   2.02474
   A10        1.87667  -0.00003   0.00005  -0.00033  -0.00027   1.87639
   A11        1.93558   0.00001  -0.00029   0.00013  -0.00016   1.93542
   A12        1.89981  -0.00006   0.00048  -0.00094  -0.00045   1.89935
   A13        1.94997   0.00005  -0.00040   0.00078   0.00037   1.95035
   A14        1.88542  -0.00006  -0.00023   0.00036   0.00013   1.88555
   A15        1.91486   0.00008   0.00040  -0.00005   0.00035   1.91521
    D1       -1.05667   0.00003   0.00170  -0.00005   0.00165  -1.05502
    D2        1.61552   0.00002   0.00186   0.00005   0.00190   1.61742
    D3        3.12624   0.00000   0.00162  -0.00033   0.00129   3.12753
    D4       -0.48476  -0.00001   0.00179  -0.00024   0.00155  -0.48321
    D5        1.02223  -0.00002   0.00202  -0.00097   0.00105   1.02328
    D6       -2.58877  -0.00003   0.00218  -0.00087   0.00131  -2.58746
    D7        1.07955   0.00002   0.00330   0.00100   0.00430   1.08385
    D8       -1.01385   0.00003   0.00369   0.00081   0.00450  -1.00934
    D9       -3.10435   0.00001   0.00397  -0.00011   0.00386  -3.10049
   D10       -2.53755  -0.00001   0.00340   0.00099   0.00438  -2.53317
   D11        1.65224  -0.00000   0.00379   0.00079   0.00459   1.65682
   D12       -0.43827  -0.00002   0.00407  -0.00013   0.00395  -0.43432
         Item               Value     Threshold  Converged?
 Maximum Force            0.000098     0.000450     YES
 RMS     Force            0.000043     0.000300     YES
 Maximum Displacement     0.007889     0.001800     NO 
 RMS     Displacement     0.002915     0.001200     NO 
 Predicted change in Energy=-1.117573D-07
 GradGradGradGradGradGradGradGradGradGradGradGradGradGradGradGradGradGrad

                          Input orientation:                          
 ---------------------------------------------------------------------
 Center     Atomic      Atomic             Coordinates (Angstroms)
 Number     Number       Type             X           Y           Z
 ---------------------------------------------------------------------
      1          6           0       -0.459647    0.121554    0.917621
      2          9           0       -0.950653    1.339166    1.180657
      3          9           0        0.520107   -0.128038    1.779972
      4          9           0       -0.867054    0.247717   -1.412254
      5          9           0       -1.444257   -0.755200    1.116115
      6          9           0        2.296897   -0.569385   -0.317129
      7          9           0        1.863245    1.528888   -0.549781
      8          6           0        0.044737    0.030345   -0.491888
      9          6           0        1.468466    0.295449   -0.898297
     10          9           0        1.586950    0.182874   -2.216310
 ---------------------------------------------------------------------
                    Distance matrix (angstroms):
                    1          2          3          4          5
     1  C    0.000000
     2  F    1.338975   0.000000
     3  F    1.328858   2.162175   0.000000
     4  F    2.368589   2.814504   3.500816   0.000000
     5  F    1.333249   2.152714   2.166279   2.780585   0.000000
     6  F    3.098473   4.053703   2.783811   3.446381   4.010604
     7  F    3.087019   3.308842   3.158666   3.136844   4.351073
     8  C    1.499813   2.345468   2.326458   1.313654   2.328059
     9  C    2.654320   3.356118   2.872603   2.391879   3.694005
    10  F    3.743507   4.394977   4.147902   2.583186   4.601441
                    6          7          8          9         10
     6  F    0.000000
     7  F    2.155211   0.000000
     8  C    2.337186   2.357107   0.000000
     9  C    1.331162   1.341151   1.504145   0.000000
    10  F    2.162593   2.159957   2.318473   1.328108   0.000000
 Stoichiometry    C3F7(2)
 Framework group  C1[X(C3F7)]
 Deg. of freedom    24
 Full point group                 C1      NOp   1
 Largest Abelian subgroup         C1      NOp   1
 Largest concise Abelian subgroup C1      NOp   1
                         Standard orientation:                         
 ---------------------------------------------------------------------
 Center     Atomic      Atomic             Coordinates (Angstroms)
 Number     Number       Type             X           Y           Z
 ---------------------------------------------------------------------
      1          6           0       -1.323398   -0.139961   -0.025338
      2          9           0       -1.781215    0.043292    1.219521
      3          9           0       -1.208925   -1.446480   -0.239268
      4          9           0       -0.030991    1.844798   -0.050408
      5          9           0       -2.235581    0.356832   -0.861205
      6          9           0        1.485288   -1.139838   -0.869180
      7          9           0        1.463711   -0.603922    1.218226
      8          6           0       -0.003493    0.543288   -0.226481
      9          6           0        1.330857   -0.121381   -0.026037
     10          9           0        2.305069    0.757354   -0.232449
 ---------------------------------------------------------------------
 Rotational constants (GHZ):           2.0969011           1.0178220           0.8989818
 Standard basis: 6-311+G(2d) (5D, 7F)
 There are   290 symmetry adapted cartesian basis functions of A   symmetry.
 There are   270 symmetry adapted basis functions of A   symmetry.
   270 basis functions,   420 primitive gaussians,   290 cartesian basis functions
    41 alpha electrons       40 beta electrons
       nuclear repulsion energy       639.6962250130 Hartrees.
 NAtoms=   10 NActive=   10 NUniq=   10 SFac= 1.00D+00 NAtFMM=   60 NAOKFM=F Big=F
 Integral buffers will be    131072 words long.
 Raffenetti 2 integral format.
 Two-electron integral symmetry is turned on.
 Nuclear repulsion after empirical dispersion term =      639.6923301753 Hartrees.
 One-electron integrals computed using PRISM.
 NBasis=   270 RedAO= T EigKep=  8.85D-05  NBF=   270
 NBsUse=   270 1.00D-06 EigRej= -1.00D+00 NBFU=   270
 Initial guess from the checkpoint file:  "2_propyl.chk"
 B after Tr=    -0.000000   -0.000000   -0.000000
         Rot=    1.000000   -0.000511    0.000226   -0.000192 Ang=  -0.07 deg.
 Initial guess <Sx>= 0.0000 <Sy>= 0.0000 <Sz>= 0.5000 <S**2>= 0.7539 S= 0.5020
 Keep R1 and R2 ints in memory in canonical form, NReq=2703878162.
 Requested convergence on RMS density matrix=1.00D-08 within 128 cycles.
 Requested convergence on MAX density matrix=1.00D-06.
 Requested convergence on             energy=1.00D-06.
 No special actions if energy rises.
 SCF Done:  E(UwB97XD) =  -813.196506349     A.U. after    9 cycles
            NFock=  9  Conv=0.31D-08     -V/T= 2.0025
 <Sx>= 0.0000 <Sy>= 0.0000 <Sz>= 0.5000 <S**2>= 0.7539 S= 0.5020
 <L.S>= 0.000000000000E+00
 Annihilation of the first spin contaminant:
 S**2 before annihilation     0.7539,   after     0.7500
 Calling FoFJK, ICntrl=      2127 FMM=F ISym2X=0 I1Cent= 0 IOpClX= 1 NMat=1 NMatS=1 NMatT=0.
 ***** Axes restored to original set *****
 -------------------------------------------------------------------
 Center     Atomic                   Forces (Hartrees/Bohr)
 Number     Number              X              Y              Z
 -------------------------------------------------------------------
      1        6          -0.000025671    0.000003114    0.000005965
      2        9           0.000040195    0.000030467    0.000028804
      3        9          -0.000041825    0.000015016   -0.000006775
      4        9           0.000010663    0.000002969   -0.000010035
      5        9           0.000003160   -0.000042271    0.000025152
      6        9           0.000008814   -0.000025769    0.000051303
      7        9          -0.000036707    0.000002816   -0.000018790
      8        6           0.000036341    0.000002235   -0.000039414
      9        6           0.000024763   -0.000041290   -0.000029272
     10        9          -0.000019733    0.000052712   -0.000006939
 -------------------------------------------------------------------
 Cartesian Forces:  Max     0.000052712 RMS     0.000027751

 GradGradGradGradGradGradGradGradGradGradGradGradGradGradGradGradGradGrad
 Berny optimization.
 Using GEDIIS/GDIIS optimizer.
 FormGI is forming the generalized inverse of G from B-inverse, IUseBI=4.
 Internal  Forces:  Max     0.000059181 RMS     0.000029111
 Search for a local minimum.
 Step number  20 out of a maximum of   46
 All quantities printed in internal units (Hartrees-Bohrs-Radians)
 Mixed Optimization -- En-DIIS/RFO-DIIS
 Swapping is turned off.
 Update second derivatives using D2CorX and points   10   13   14   15   16
                                                     17   18   19   20
 DE= -1.23D-07 DEPred=-1.12D-07 R= 1.10D+00
 Trust test= 1.10D+00 RLast= 1.12D-02 DXMaxT set to 2.30D-01
 ITU=  0  1  1  1 -1  0  1 -1 -1  1 -1  1  1  1  1  1  1  1  1  0
     Eigenvalues ---    0.00112   0.00242   0.00989   0.10779   0.11355
     Eigenvalues ---    0.13041   0.14515   0.22385   0.22671   0.24219
     Eigenvalues ---    0.25683   0.25929   0.27062   0.28527   0.29812
     Eigenvalues ---    0.35006   0.38566   0.42515   0.47685   0.54098
     Eigenvalues ---    0.56286   0.56870   0.60119   0.62481
 En-DIIS/RFO-DIIS/Sim-DIIS IScMMF=       -3 using points:    20   19   18   17   16
 RFO step:  Lambda=-1.64238273D-07.
 DidBck=F Rises=F RFO-DIIS coefs:    0.97185    0.40505   -0.60471    0.23987   -0.01206
 Iteration  1 RMS(Cart)=  0.00154937 RMS(Int)=  0.00000145
 Iteration  2 RMS(Cart)=  0.00000133 RMS(Int)=  0.00000075
 Iteration  3 RMS(Cart)=  0.00000000 RMS(Int)=  0.00000075
 Variable       Old X    -DE/DX   Delta X   Delta X   Delta X     New X
                                 (Linear)    (Quad)   (Total)
    R1        2.53030   0.00002   0.00031  -0.00028   0.00003   2.53032
    R2        2.51118  -0.00004  -0.00001  -0.00003  -0.00004   2.51114
    R3        2.51948   0.00003  -0.00011   0.00011   0.00001   2.51948
    R4        2.83423   0.00006   0.00011   0.00009   0.00020   2.83444
    R5        2.48245   0.00000  -0.00011   0.00015   0.00004   2.48249
    R6        2.51553   0.00004   0.00008  -0.00005   0.00003   2.51556
    R7        2.53441  -0.00001   0.00009  -0.00011  -0.00002   2.53439
    R8        2.84242  -0.00002   0.00014  -0.00015  -0.00001   2.84241
    R9        2.50976   0.00000   0.00015  -0.00015   0.00001   2.50977
    A1        1.88987  -0.00005  -0.00050   0.00028  -0.00022   1.88965
    A2        1.87333   0.00003   0.00022  -0.00002   0.00019   1.87353
    A3        1.94254   0.00001   0.00012  -0.00008   0.00004   1.94258
    A4        1.90113  -0.00004  -0.00009   0.00001  -0.00008   1.90105
    A5        1.92890   0.00002   0.00038  -0.00031   0.00007   1.92897
    A6        1.92653   0.00002  -0.00013   0.00013  -0.00000   1.92653
    A7        1.99868   0.00002  -0.00033   0.00020  -0.00013   1.99855
    A8        2.16702  -0.00002   0.00020  -0.00032  -0.00013   2.16690
    A9        2.02474  -0.00001  -0.00028   0.00005  -0.00022   2.02452
   A10        1.87639   0.00004   0.00003   0.00010   0.00013   1.87652
   A11        1.93542  -0.00002  -0.00004  -0.00000  -0.00004   1.93538
   A12        1.89935   0.00006   0.00021   0.00003   0.00023   1.89959
   A13        1.95035  -0.00005   0.00000  -0.00018  -0.00017   1.95017
   A14        1.88555  -0.00001   0.00003  -0.00017  -0.00014   1.88541
   A15        1.91521  -0.00000  -0.00022   0.00022  -0.00000   1.91521
    D1       -1.05502  -0.00003  -0.00193   0.00007  -0.00186  -1.05688
    D2        1.61742  -0.00004  -0.00298  -0.00008  -0.00305   1.61437
    D3        3.12753   0.00001  -0.00162  -0.00003  -0.00165   3.12588
    D4       -0.48321  -0.00000  -0.00267  -0.00017  -0.00285  -0.48605
    D5        1.02328   0.00003  -0.00167   0.00007  -0.00159   1.02168
    D6       -2.58746   0.00001  -0.00272  -0.00007  -0.00279  -2.59025
    D7        1.08385  -0.00002  -0.00011   0.00001  -0.00010   1.08375
    D8       -1.00934  -0.00001  -0.00012   0.00001  -0.00012  -1.00946
    D9       -3.10049   0.00004  -0.00002   0.00019   0.00017  -3.10032
   D10       -2.53317  -0.00002  -0.00118  -0.00011  -0.00129  -2.53445
   D11        1.65682  -0.00002  -0.00120  -0.00011  -0.00131   1.65552
   D12       -0.43432   0.00004  -0.00109   0.00007  -0.00102  -0.43534
         Item               Value     Threshold  Converged?
 Maximum Force            0.000059     0.000450     YES
 RMS     Force            0.000029     0.000300     YES
 Maximum Displacement     0.004552     0.001800     NO 
 RMS     Displacement     0.001549     0.001200     NO 
 Predicted change in Energy=-7.803542D-08
 GradGradGradGradGradGradGradGradGradGradGradGradGradGradGradGradGradGrad

                          Input orientation:                          
 ---------------------------------------------------------------------
 Center     Atomic      Atomic             Coordinates (Angstroms)
 Number     Number       Type             X           Y           Z
 ---------------------------------------------------------------------
      1          6           0       -0.459581    0.121267    0.917641
      2          9           0       -0.948244    1.339753    1.181064
      3          9           0        0.519517   -0.130290    1.780132
      4          9           0       -0.866926    0.246894   -1.412285
      5          9           0       -1.445735   -0.753840    1.115756
      6          9           0        2.297563   -0.567977   -0.316404
      7          9           0        1.861779    1.529787   -0.550635
      8          6           0        0.044898    0.029543   -0.491916
      9          6           0        1.468422    0.295679   -0.898348
     10          9           0        1.587101    0.182555   -2.216300
 ---------------------------------------------------------------------
                    Distance matrix (angstroms):
                    1          2          3          4          5
     1  C    0.000000
     2  F    1.338989   0.000000
     3  F    1.328836   2.161997   0.000000
     4  F    2.368600   2.815388   3.500860   0.000000
     5  F    1.333252   2.152880   2.166201   2.779835   0.000000
     6  F    3.098349   4.051803   2.783609   3.446586   4.012220
     7  F    3.086823   3.306225   3.160696   3.135935   4.351030
     8  C    1.499921   2.345601   2.326588   1.313676   2.328150
     9  C    2.654323   3.354746   2.873347   2.391728   3.694647
    10  F    3.743561   4.394219   4.148382   2.583181   4.601905
                    6          7          8          9         10
     6  F    0.000000
     7  F    2.155316   0.000000
     8  C    2.337163   2.356955   0.000000
     9  C    1.331178   1.341140   1.504140   0.000000
    10  F    2.162789   2.159843   2.318470   1.328111   0.000000
 Stoichiometry    C3F7(2)
 Framework group  C1[X(C3F7)]
 Deg. of freedom    24
 Full point group                 C1      NOp   1
 Largest Abelian subgroup         C1      NOp   1
 Largest concise Abelian subgroup C1      NOp   1
                         Standard orientation:                         
 ---------------------------------------------------------------------
 Center     Atomic      Atomic             Coordinates (Angstroms)
 Number     Number       Type             X           Y           Z
 ---------------------------------------------------------------------
      1          6           0       -1.323407   -0.139805   -0.025406
      2          9           0       -1.779407    0.041262    1.220456
      3          9           0       -1.209904   -1.445993   -0.241724
      4          9           0       -0.030629    1.844724   -0.050652
      5          9           0       -2.236458    0.358799   -0.859248
      6          9           0        1.484993   -1.140740   -0.868483
      7          9           0        1.463455   -0.602917    1.218540
      8          6           0       -0.003365    0.543243   -0.227140
      9          6           0        1.330853   -0.121524   -0.026182
     10          9           0        2.305229    0.756922   -0.233071
 ---------------------------------------------------------------------
 Rotational constants (GHZ):           2.0969226           1.0178564           0.8990225
 Standard basis: 6-311+G(2d) (5D, 7F)
 There are   290 symmetry adapted cartesian basis functions of A   symmetry.
 There are   270 symmetry adapted basis functions of A   symmetry.
   270 basis functions,   420 primitive gaussians,   290 cartesian basis functions
    41 alpha electrons       40 beta electrons
       nuclear repulsion energy       639.6996088319 Hartrees.
 NAtoms=   10 NActive=   10 NUniq=   10 SFac= 1.00D+00 NAtFMM=   60 NAOKFM=F Big=F
 Integral buffers will be    131072 words long.
 Raffenetti 2 integral format.
 Two-electron integral symmetry is turned on.
 Nuclear repulsion after empirical dispersion term =      639.6957135925 Hartrees.
 One-electron integrals computed using PRISM.
 NBasis=   270 RedAO= T EigKep=  8.85D-05  NBF=   270
 NBsUse=   270 1.00D-06 EigRej= -1.00D+00 NBFU=   270
 Initial guess from the checkpoint file:  "2_propyl.chk"
 B after Tr=     0.000000   -0.000000    0.000000
         Rot=    1.000000   -0.000171   -0.000117    0.000084 Ang=  -0.03 deg.
 Initial guess <Sx>= 0.0000 <Sy>= 0.0000 <Sz>= 0.5000 <S**2>= 0.7539 S= 0.5020
 Keep R1 and R2 ints in memory in canonical form, NReq=2703878162.
 Requested convergence on RMS density matrix=1.00D-08 within 128 cycles.
 Requested convergence on MAX density matrix=1.00D-06.
 Requested convergence on             energy=1.00D-06.
 No special actions if energy rises.
 SCF Done:  E(UwB97XD) =  -813.196506465     A.U. after    8 cycles
            NFock=  8  Conv=0.79D-08     -V/T= 2.0025
 <Sx>= 0.0000 <Sy>= 0.0000 <Sz>= 0.5000 <S**2>= 0.7539 S= 0.5020
 <L.S>= 0.000000000000E+00
 Annihilation of the first spin contaminant:
 S**2 before annihilation     0.7539,   after     0.7500
 Calling FoFJK, ICntrl=      2127 FMM=F ISym2X=0 I1Cent= 0 IOpClX= 1 NMat=1 NMatS=1 NMatT=0.
 ***** Axes restored to original set *****
 -------------------------------------------------------------------
 Center     Atomic                   Forces (Hartrees/Bohr)
 Number     Number              X              Y              Z
 -------------------------------------------------------------------
      1        6          -0.000001796   -0.000004467    0.000010079
      2        9           0.000003883    0.000013595    0.000007502
      3        9          -0.000006346    0.000000587   -0.000006493
      4        9           0.000007658    0.000002348   -0.000005102
      5        9           0.000009102   -0.000002399   -0.000000752
      6        9           0.000001680    0.000006427    0.000006166
      7        9          -0.000002362    0.000007857    0.000003133
      8        6          -0.000014680   -0.000010580   -0.000008332
      9        6           0.000001087   -0.000026816   -0.000015019
     10        9           0.000001775    0.000013448    0.000008817
 -------------------------------------------------------------------
 Cartesian Forces:  Max     0.000026816 RMS     0.000008957

 GradGradGradGradGradGradGradGradGradGradGradGradGradGradGradGradGradGrad
 Berny optimization.
 Using GEDIIS/GDIIS optimizer.
 FormGI is forming the generalized inverse of G from B-inverse, IUseBI=4.
 Internal  Forces:  Max     0.000025362 RMS     0.000008602
 Search for a local minimum.
 Step number  21 out of a maximum of   46
 All quantities printed in internal units (Hartrees-Bohrs-Radians)
 Mixed Optimization -- En-DIIS/RFO-DIIS
 Swapping is turned off.
 Update second derivatives using D2CorX and points   10   13   14   15   16
                                                     17   18   19   20   21
 DE= -1.15D-07 DEPred=-7.80D-08 R= 1.48D+00
 Trust test= 1.48D+00 RLast= 6.22D-03 DXMaxT set to 2.30D-01
 ITU=  0  0  1  1  1 -1  0  1 -1 -1  1 -1  1  1  1  1  1  1  1  1
 ITU=  0
     Eigenvalues ---    0.00113   0.00179   0.00901   0.10642   0.11086
     Eigenvalues ---    0.13001   0.13776   0.22235   0.22557   0.23406
     Eigenvalues ---    0.24724   0.26035   0.26410   0.27920   0.29139
     Eigenvalues ---    0.35642   0.38651   0.42426   0.47194   0.54242
     Eigenvalues ---    0.56396   0.56711   0.59692   0.63079
 En-DIIS/RFO-DIIS/Sim-DIIS IScMMF=       -3 using points:    21   20   19   18   17   16
 RFO step:  Lambda=-3.85954995D-08.
 DIIS inversion failure, remove point   6.
 DIIS inversion failure, remove point   5.
 RFO-DIIS uses    4 points instead of    6
 DidBck=F Rises=F RFO-DIIS coefs:    1.72579   -0.56133   -0.15735   -0.00711    0.00000
                  RFO-DIIS coefs:    0.00000
 Iteration  1 RMS(Cart)=  0.00090669 RMS(Int)=  0.00000045
 Iteration  2 RMS(Cart)=  0.00000052 RMS(Int)=  0.00000011
 Variable       Old X    -DE/DX   Delta X   Delta X   Delta X     New X
                                 (Linear)    (Quad)   (Total)
    R1        2.53032   0.00001   0.00005  -0.00000   0.00005   2.53037
    R2        2.51114  -0.00001   0.00001  -0.00001  -0.00001   2.51113
    R3        2.51948  -0.00001  -0.00001  -0.00003  -0.00004   2.51944
    R4        2.83444   0.00001   0.00009  -0.00001   0.00008   2.83452
    R5        2.48249  -0.00000   0.00000   0.00000   0.00001   2.48249
    R6        2.51556  -0.00000   0.00004  -0.00004  -0.00000   2.51556
    R7        2.53439   0.00001   0.00001   0.00003   0.00004   2.53443
    R8        2.84241   0.00000   0.00000   0.00004   0.00004   2.84245
    R9        2.50977  -0.00001  -0.00002  -0.00002  -0.00004   2.50973
    A1        1.88965  -0.00000  -0.00012   0.00006  -0.00005   1.88960
    A2        1.87353   0.00001   0.00008   0.00000   0.00008   1.87361
    A3        1.94258   0.00001   0.00002   0.00003   0.00004   1.94262
    A4        1.90105  -0.00000  -0.00001   0.00001   0.00000   1.90106
    A5        1.92897  -0.00001   0.00005  -0.00007  -0.00001   1.92895
    A6        1.92653  -0.00000  -0.00002  -0.00004  -0.00006   1.92647
    A7        1.99855   0.00002  -0.00011   0.00010  -0.00002   1.99853
    A8        2.16690  -0.00003  -0.00020  -0.00008  -0.00027   2.16662
    A9        2.02452   0.00000  -0.00006  -0.00003  -0.00009   2.02443
   A10        1.87652  -0.00000   0.00005  -0.00007  -0.00003   1.87650
   A11        1.93538   0.00000  -0.00005   0.00006   0.00001   1.93539
   A12        1.89959   0.00000   0.00009  -0.00004   0.00005   1.89964
   A13        1.95017  -0.00001  -0.00006  -0.00004  -0.00010   1.95007
   A14        1.88541  -0.00001  -0.00007   0.00004  -0.00003   1.88538
   A15        1.91521   0.00001   0.00004   0.00005   0.00009   1.91530
    D1       -1.05688  -0.00000  -0.00110   0.00004  -0.00106  -1.05794
    D2        1.61437  -0.00001  -0.00198   0.00000  -0.00197   1.61240
    D3        3.12588   0.00000  -0.00100  -0.00001  -0.00101   3.12487
    D4       -0.48605  -0.00000  -0.00188  -0.00005  -0.00193  -0.48798
    D5        1.02168   0.00001  -0.00100   0.00004  -0.00097   1.02072
    D6       -2.59025   0.00000  -0.00188   0.00000  -0.00188  -2.59213
    D7        1.08375  -0.00001   0.00064  -0.00004   0.00060   1.08436
    D8       -1.00946   0.00000   0.00065   0.00004   0.00069  -1.00877
    D9       -3.10032   0.00001   0.00075  -0.00001   0.00073  -3.09959
   D10       -2.53445  -0.00001  -0.00027  -0.00004  -0.00031  -2.53476
   D11        1.65552  -0.00000  -0.00025   0.00004  -0.00022   1.65530
   D12       -0.43534   0.00001  -0.00016  -0.00002  -0.00018  -0.43552
         Item               Value     Threshold  Converged?
 Maximum Force            0.000025     0.000450     YES
 RMS     Force            0.000009     0.000300     YES
 Maximum Displacement     0.002751     0.001800     NO 
 RMS     Displacement     0.000907     0.001200     YES
 Predicted change in Energy=-1.927368D-08
 GradGradGradGradGradGradGradGradGradGradGradGradGradGradGradGradGradGrad

                          Input orientation:                          
 ---------------------------------------------------------------------
 Center     Atomic      Atomic             Coordinates (Angstroms)
 Number     Number       Type             X           Y           Z
 ---------------------------------------------------------------------
      1          6           0       -0.459503    0.121187    0.917614
      2          9           0       -0.946788    1.340249    1.181050
      3          9           0        0.519311   -0.131418    1.780116
      4          9           0       -0.866935    0.245984   -1.412367
      5          9           0       -1.446569   -0.752866    1.115690
      6          9           0        2.297943   -0.567354   -0.316301
      7          9           0        1.860871    1.530139   -0.550523
      8          6           0        0.044913    0.028840   -0.491967
      9          6           0        1.468326    0.295779   -0.898340
     10          9           0        1.587224    0.182832   -2.216266
 ---------------------------------------------------------------------
                    Distance matrix (angstroms):
                    1          2          3          4          5
     1  C    0.000000
     2  F    1.339013   0.000000
     3  F    1.328832   2.161974   0.000000
     4  F    2.368625   2.815955   3.500865   0.000000
     5  F    1.333231   2.152948   2.166181   2.779343   0.000000
     6  F    3.098409   4.050838   2.783620   3.446641   4.013276
     7  F    3.086212   3.304142   3.161081   3.135722   4.350579
     8  C    1.499961   2.345688   2.326607   1.313680   2.328121
     9  C    2.654184   3.353737   2.873544   2.391683   3.694940
    10  F    3.743540   4.393471   4.148525   2.583242   4.602321
                    6          7          8          9         10
     6  F    0.000000
     7  F    2.155311   0.000000
     8  C    2.337188   2.356911   0.000000
     9  C    1.331177   1.341160   1.504160   0.000000
    10  F    2.162814   2.159819   2.318543   1.328090   0.000000
 Stoichiometry    C3F7(2)
 Framework group  C1[X(C3F7)]
 Deg. of freedom    24
 Full point group                 C1      NOp   1
 Largest Abelian subgroup         C1      NOp   1
 Largest concise Abelian subgroup C1      NOp   1
                         Standard orientation:                         
 ---------------------------------------------------------------------
 Center     Atomic      Atomic             Coordinates (Angstroms)
 Number     Number       Type             X           Y           Z
 ---------------------------------------------------------------------
      1          6           0       -1.323346   -0.139762   -0.025468
      2          9           0       -1.778200    0.039867    1.221046
      3          9           0       -1.210211   -1.445712   -0.243390
      4          9           0       -0.030551    1.844784   -0.050801
      5          9           0       -2.237009    0.359929   -0.857953
      6          9           0        1.485115   -1.140758   -0.868495
      7          9           0        1.462806   -0.602961    1.218522
      8          6           0       -0.003356    0.543346   -0.227639
      9          6           0        1.330776   -0.121515   -0.026263
     10          9           0        2.305334    0.756806   -0.232683
 ---------------------------------------------------------------------
 Rotational constants (GHZ):           2.0969107           1.0179496           0.8990920
 Standard basis: 6-311+G(2d) (5D, 7F)
 There are   290 symmetry adapted cartesian basis functions of A   symmetry.
 There are   270 symmetry adapted basis functions of A   symmetry.
   270 basis functions,   420 primitive gaussians,   290 cartesian basis functions
    41 alpha electrons       40 beta electrons
       nuclear repulsion energy       639.7092933245 Hartrees.
 NAtoms=   10 NActive=   10 NUniq=   10 SFac= 1.00D+00 NAtFMM=   60 NAOKFM=F Big=F
 Integral buffers will be    131072 words long.
 Raffenetti 2 integral format.
 Two-electron integral symmetry is turned on.
 Nuclear repulsion after empirical dispersion term =      639.7053976790 Hartrees.
 One-electron integrals computed using PRISM.
 NBasis=   270 RedAO= T EigKep=  8.85D-05  NBF=   270
 NBsUse=   270 1.00D-06 EigRej= -1.00D+00 NBFU=   270
 Initial guess from the checkpoint file:  "2_propyl.chk"
 B after Tr=    -0.000000    0.000000   -0.000000
         Rot=    1.000000   -0.000218   -0.000042    0.000026 Ang=  -0.03 deg.
 Initial guess <Sx>= 0.0000 <Sy>= 0.0000 <Sz>= 0.5000 <S**2>= 0.7539 S= 0.5020
 Keep R1 and R2 ints in memory in canonical form, NReq=2703878162.
 Requested convergence on RMS density matrix=1.00D-08 within 128 cycles.
 Requested convergence on MAX density matrix=1.00D-06.
 Requested convergence on             energy=1.00D-06.
 No special actions if energy rises.
 SCF Done:  E(UwB97XD) =  -813.196506487     A.U. after    7 cycles
            NFock=  7  Conv=0.81D-08     -V/T= 2.0025
 <Sx>= 0.0000 <Sy>= 0.0000 <Sz>= 0.5000 <S**2>= 0.7539 S= 0.5020
 <L.S>= 0.000000000000E+00
 Annihilation of the first spin contaminant:
 S**2 before annihilation     0.7539,   after     0.7500
 Calling FoFJK, ICntrl=      2127 FMM=F ISym2X=0 I1Cent= 0 IOpClX= 1 NMat=1 NMatS=1 NMatT=0.
 ***** Axes restored to original set *****
 -------------------------------------------------------------------
 Center     Atomic                   Forces (Hartrees/Bohr)
 Number     Number              X              Y              Z
 -------------------------------------------------------------------
      1        6           0.000001999   -0.000003236    0.000003794
      2        9          -0.000000313   -0.000005896    0.000001320
      3        9          -0.000001338    0.000001655   -0.000003884
      4        9           0.000003862    0.000001039   -0.000004129
      5        9           0.000001950    0.000005547   -0.000000405
      6        9          -0.000002865    0.000003739   -0.000003792
      7        9          -0.000001207    0.000004706    0.000002033
      8        6          -0.000011283   -0.000001351   -0.000001562
      9        6           0.000010398   -0.000006920    0.000003201
     10        9          -0.000001203    0.000000717    0.000003423
 -------------------------------------------------------------------
 Cartesian Forces:  Max     0.000011283 RMS     0.000004198

 GradGradGradGradGradGradGradGradGradGradGradGradGradGradGradGradGradGrad
 Berny optimization.
 Using GEDIIS/GDIIS optimizer.
 FormGI is forming the generalized inverse of G from B-inverse, IUseBI=4.
 Internal  Forces:  Max     0.000010447 RMS     0.000003625
 Search for a local minimum.
 Step number  22 out of a maximum of   46
 All quantities printed in internal units (Hartrees-Bohrs-Radians)
 Mixed Optimization -- En-DIIS/RFO-DIIS
 Swapping is turned off.
 Update second derivatives using D2CorX and points   10   13   14   15   16
                                                     17   18   19   20   21
                                                     22
 DE= -2.26D-08 DEPred=-1.93D-08 R= 1.17D+00
 Trust test= 1.17D+00 RLast= 3.99D-03 DXMaxT set to 2.30D-01
 ITU=  0  0  0  1  1  1 -1  0  1 -1 -1  1 -1  1  1  1  1  1  1  1
 ITU=  1  0
     Eigenvalues ---    0.00115   0.00172   0.00868   0.10613   0.11205
     Eigenvalues ---    0.13202   0.13395   0.21261   0.22499   0.23171
     Eigenvalues ---    0.24929   0.26108   0.26392   0.28074   0.29320
     Eigenvalues ---    0.35537   0.38524   0.42699   0.47219   0.54430
     Eigenvalues ---    0.56556   0.56749   0.60190   0.63199
 En-DIIS/RFO-DIIS/Sim-DIIS IScMMF=       -3 using points:    22   21   20   19   18   17   16
 RFO step:  Lambda=-1.50978908D-09.
 DIIS inversion failure, remove point   7.
 DIIS inversion failure, remove point   6.
 DIIS inversion failure, remove point   5.
 DIIS inversion failure, remove point   4.
 RFO-DIIS uses    3 points instead of    7
 DidBck=F Rises=F RFO-DIIS coefs:    1.23170   -0.35386    0.12217    0.00000    0.00000
                  RFO-DIIS coefs:    0.00000    0.00000
 Iteration  1 RMS(Cart)=  0.00009879 RMS(Int)=  0.00000001
 Iteration  2 RMS(Cart)=  0.00000001 RMS(Int)=  0.00000001
 Variable       Old X    -DE/DX   Delta X   Delta X   Delta X     New X
                                 (Linear)    (Quad)   (Total)
    R1        2.53037  -0.00000   0.00001  -0.00002  -0.00001   2.53036
    R2        2.51113  -0.00000   0.00000  -0.00001  -0.00000   2.51112
    R3        2.51944  -0.00001  -0.00001  -0.00000  -0.00001   2.51943
    R4        2.83452   0.00000  -0.00001   0.00002   0.00001   2.83452
    R5        2.48249   0.00000  -0.00000   0.00000  -0.00000   2.48249
    R6        2.51556  -0.00001  -0.00000  -0.00001  -0.00001   2.51555
    R7        2.53443   0.00000   0.00001   0.00001   0.00002   2.53444
    R8        2.84245   0.00000   0.00001   0.00000   0.00002   2.84247
    R9        2.50973  -0.00000  -0.00001  -0.00000  -0.00001   2.50971
    A1        1.88960  -0.00000   0.00001  -0.00002  -0.00001   1.88959
    A2        1.87361  -0.00000  -0.00000  -0.00002  -0.00002   1.87359
    A3        1.94262   0.00000   0.00001   0.00001   0.00001   1.94263
    A4        1.90106   0.00000   0.00001   0.00001   0.00002   1.90107
    A5        1.92895  -0.00000  -0.00001  -0.00001  -0.00002   1.92893
    A6        1.92647   0.00000  -0.00001   0.00004   0.00002   1.92650
    A7        1.99853   0.00001   0.00001   0.00003   0.00005   1.99858
    A8        2.16662  -0.00001  -0.00005  -0.00003  -0.00008   2.16655
    A9        2.02443  -0.00000   0.00001  -0.00002  -0.00001   2.02442
   A10        1.87650   0.00000  -0.00002   0.00004   0.00002   1.87651
   A11        1.93539   0.00000   0.00001   0.00001   0.00002   1.93541
   A12        1.89964  -0.00000  -0.00002   0.00002   0.00000   1.89965
   A13        1.95007  -0.00000  -0.00000  -0.00003  -0.00003   1.95004
   A14        1.88538   0.00000   0.00001  -0.00001  -0.00000   1.88538
   A15        1.91530  -0.00000   0.00002  -0.00003  -0.00001   1.91529
    D1       -1.05794   0.00000  -0.00002   0.00001  -0.00001  -1.05795
    D2        1.61240  -0.00000  -0.00008  -0.00002  -0.00010   1.61229
    D3        3.12487   0.00000  -0.00003   0.00005   0.00001   3.12488
    D4       -0.48798   0.00000  -0.00010   0.00001  -0.00009  -0.48807
    D5        1.02072   0.00000  -0.00003   0.00002  -0.00001   1.02071
    D6       -2.59213  -0.00000  -0.00010  -0.00001  -0.00011  -2.59224
    D7        1.08436   0.00000   0.00015   0.00002   0.00018   1.08453
    D8       -1.00877  -0.00000   0.00017  -0.00002   0.00016  -1.00861
    D9       -3.09959   0.00000   0.00015   0.00003   0.00018  -3.09940
   D10       -2.53476   0.00000   0.00009   0.00000   0.00009  -2.53467
   D11        1.65530  -0.00000   0.00011  -0.00004   0.00007   1.65537
   D12       -0.43552   0.00000   0.00008   0.00001   0.00010  -0.43542
         Item               Value     Threshold  Converged?
 Maximum Force            0.000010     0.000450     YES
 RMS     Force            0.000004     0.000300     YES
 Maximum Displacement     0.000279     0.001800     YES
 RMS     Displacement     0.000099     0.001200     YES
 Predicted change in Energy=-1.071259D-09
 Optimization completed.
    -- Stationary point found.
                           ----------------------------
                           !   Optimized Parameters   !
                           ! (Angstroms and Degrees)  !
 --------------------------                            --------------------------
 ! Name  Definition              Value          Derivative Info.                !
 --------------------------------------------------------------------------------
 ! R1    R(1,2)                  1.339          -DE/DX =    0.0                 !
 ! R2    R(1,3)                  1.3288         -DE/DX =    0.0                 !
 ! R3    R(1,5)                  1.3332         -DE/DX =    0.0                 !
 ! R4    R(1,8)                  1.5            -DE/DX =    0.0                 !
 ! R5    R(4,8)                  1.3137         -DE/DX =    0.0                 !
 ! R6    R(6,9)                  1.3312         -DE/DX =    0.0                 !
 ! R7    R(7,9)                  1.3412         -DE/DX =    0.0                 !
 ! R8    R(8,9)                  1.5042         -DE/DX =    0.0                 !
 ! R9    R(9,10)                 1.3281         -DE/DX =    0.0                 !
 ! A1    A(2,1,3)              108.2659         -DE/DX =    0.0                 !
 ! A2    A(2,1,5)              107.3499         -DE/DX =    0.0                 !
 ! A3    A(2,1,8)              111.3039         -DE/DX =    0.0                 !
 ! A4    A(3,1,5)              108.9224         -DE/DX =    0.0                 !
 ! A5    A(3,1,8)              110.5208         -DE/DX =    0.0                 !
 ! A6    A(5,1,8)              110.3788         -DE/DX =    0.0                 !
 ! A7    A(1,8,4)              114.5075         -DE/DX =    0.0                 !
 ! A8    A(1,8,9)              124.1384         -DE/DX =    0.0                 !
 ! A9    A(4,8,9)              115.9914         -DE/DX =    0.0                 !
 ! A10   A(6,9,7)              107.5153         -DE/DX =    0.0                 !
 ! A11   A(6,9,8)              110.8896         -DE/DX =    0.0                 !
 ! A12   A(6,9,10)             108.8416         -DE/DX =    0.0                 !
 ! A13   A(7,9,8)              111.7309         -DE/DX =    0.0                 !
 ! A14   A(7,9,10)             108.0246         -DE/DX =    0.0                 !
 ! A15   A(8,9,10)             109.7383         -DE/DX =    0.0                 !
 ! D1    D(2,1,8,4)            -60.6156         -DE/DX =    0.0                 !
 ! D2    D(2,1,8,9)             92.3836         -DE/DX =    0.0                 !
 ! D3    D(3,1,8,4)            179.0417         -DE/DX =    0.0                 !
 ! D4    D(3,1,8,9)            -27.9592         -DE/DX =    0.0                 !
 ! D5    D(5,1,8,4)             58.4829         -DE/DX =    0.0                 !
 ! D6    D(5,1,8,9)           -148.518          -DE/DX =    0.0                 !
 ! D7    D(1,8,9,6)             62.129          -DE/DX =    0.0                 !
 ! D8    D(1,8,9,7)            -57.7981         -DE/DX =    0.0                 !
 ! D9    D(1,8,9,10)          -177.5932         -DE/DX =    0.0                 !
 ! D10   D(4,8,9,6)           -145.2313         -DE/DX =    0.0                 !
 ! D11   D(4,8,9,7)             94.8417         -DE/DX =    0.0                 !
 ! D12   D(4,8,9,10)           -24.9535         -DE/DX =    0.0                 !
 --------------------------------------------------------------------------------
 GradGradGradGradGradGradGradGradGradGradGradGradGradGradGradGradGradGrad

                          Input orientation:                          
 ---------------------------------------------------------------------
 Center     Atomic      Atomic             Coordinates (Angstroms)
 Number     Number       Type             X           Y           Z
 ---------------------------------------------------------------------
      1          6           0       -0.459503    0.121187    0.917614
      2          9           0       -0.946788    1.340249    1.181050
      3          9           0        0.519311   -0.131418    1.780116
      4          9           0       -0.866935    0.245984   -1.412367
      5          9           0       -1.446569   -0.752866    1.115690
      6          9           0        2.297943   -0.567354   -0.316301
      7          9           0        1.860871    1.530139   -0.550523
      8          6           0        0.044913    0.028840   -0.491967
      9          6           0        1.468326    0.295779   -0.898340
     10          9           0        1.587224    0.182832   -2.216266
 ---------------------------------------------------------------------
                    Distance matrix (angstroms):
                    1          2          3          4          5
     1  C    0.000000
     2  F    1.339013   0.000000
     3  F    1.328832   2.161974   0.000000
     4  F    2.368625   2.815955   3.500865   0.000000
     5  F    1.333231   2.152948   2.166181   2.779343   0.000000
     6  F    3.098409   4.050838   2.783620   3.446641   4.013276
     7  F    3.086212   3.304142   3.161081   3.135722   4.350579
     8  C    1.499961   2.345688   2.326607   1.313680   2.328121
     9  C    2.654184   3.353737   2.873544   2.391683   3.694940
    10  F    3.743540   4.393471   4.148525   2.583242   4.602321
                    6          7          8          9         10
     6  F    0.000000
     7  F    2.155311   0.000000
     8  C    2.337188   2.356911   0.000000
     9  C    1.331177   1.341160   1.504160   0.000000
    10  F    2.162814   2.159819   2.318543   1.328090   0.000000
 Stoichiometry    C3F7(2)
 Framework group  C1[X(C3F7)]
 Deg. of freedom    24
 Full point group                 C1      NOp   1
 Largest Abelian subgroup         C1      NOp   1
 Largest concise Abelian subgroup C1      NOp   1
                         Standard orientation:                         
 ---------------------------------------------------------------------
 Center     Atomic      Atomic             Coordinates (Angstroms)
 Number     Number       Type             X           Y           Z
 ---------------------------------------------------------------------
      1          6           0       -1.323346   -0.139762   -0.025468
      2          9           0       -1.778200    0.039867    1.221046
      3          9           0       -1.210211   -1.445712   -0.243390
      4          9           0       -0.030551    1.844784   -0.050801
      5          9           0       -2.237009    0.359929   -0.857953
      6          9           0        1.485115   -1.140758   -0.868495
      7          9           0        1.462806   -0.602961    1.218522
      8          6           0       -0.003356    0.543346   -0.227639
      9          6           0        1.330776   -0.121515   -0.026263
     10          9           0        2.305334    0.756806   -0.232683
 ---------------------------------------------------------------------
 Rotational constants (GHZ):           2.0969107           1.0179496           0.8990920

 **********************************************************************

            Population analysis using the SCF density.

 **********************************************************************

 Orbital symmetries:
 Alpha Orbitals:
       Occupied  (A) (A) (A) (A) (A) (A) (A) (A) (A) (A) (A) (A)
                 (A) (A) (A) (A) (A) (A) (A) (A) (A) (A) (A) (A)
                 (A) (A) (A) (A) (A) (A) (A) (A) (A) (A) (A) (A)
                 (A) (A) (A) (A) (A)
       Virtual   (A) (A) (A) (A) (A) (A) (A) (A) (A) (A) (A) (A)
                 (A) (A) (A) (A) (A) (A) (A) (A) (A) (A) (A) (A)
                 (A) (A) (A) (A) (A) (A) (A) (A) (A) (A) (A) (A)
                 (A) (A) (A) (A) (A) (A) (A) (A) (A) (A) (A) (A)
                 (A) (A) (A) (A) (A) (A) (A) (A) (A) (A) (A) (A)
                 (A) (A) (A) (A) (A) (A) (A) (A) (A) (A) (A) (A)
                 (A) (A) (A) (A) (A) (A) (A) (A) (A) (A) (A) (A)
                 (A) (A) (A) (A) (A) (A) (A) (A) (A) (A) (A) (A)
                 (A) (A) (A) (A) (A) (A) (A) (A) (A) (A) (A) (A)
                 (A) (A) (A) (A) (A) (A) (A) (A) (A) (A) (A) (A)
                 (A) (A) (A) (A) (A) (A) (A) (A) (A) (A) (A) (A)
                 (A) (A) (A) (A) (A) (A) (A) (A) (A) (A) (A) (A)
                 (A) (A) (A) (A) (A) (A) (A) (A) (A) (A) (A) (A)
                 (A) (A) (A) (A) (A) (A) (A) (A) (A) (A) (A) (A)
                 (A) (A) (A) (A) (A) (A) (A) (A) (A) (A) (A) (A)
                 (A) (A) (A) (A) (A) (A) (A) (A) (A) (A) (A) (A)
                 (A) (A) (A) (A) (A) (A) (A) (A) (A) (A) (A) (A)
                 (A) (A) (A) (A) (A) (A) (A) (A) (A) (A) (A) (A)
                 (A) (A) (A) (A) (A) (A) (A) (A) (A) (A) (A) (A)
                 (A)
 Beta  Orbitals:
       Occupied  (A) (A) (A) (A) (A) (A) (A) (A) (A) (A) (A) (A)
                 (A) (A) (A) (A) (A) (A) (A) (A) (A) (A) (A) (A)
                 (A) (A) (A) (A) (A) (A) (A) (A) (A) (A) (A) (A)
                 (A) (A) (A) (A)
       Virtual   (A) (A) (A) (A) (A) (A) (A) (A) (A) (A) (A) (A)
                 (A) (A) (A) (A) (A) (A) (A) (A) (A) (A) (A) (A)
                 (A) (A) (A) (A) (A) (A) (A) (A) (A) (A) (A) (A)
                 (A) (A) (A) (A) (A) (A) (A) (A) (A) (A) (A) (A)
                 (A) (A) (A) (A) (A) (A) (A) (A) (A) (A) (A) (A)
                 (A) (A) (A) (A) (A) (A) (A) (A) (A) (A) (A) (A)
                 (A) (A) (A) (A) (A) (A) (A) (A) (A) (A) (A) (A)
                 (A) (A) (A) (A) (A) (A) (A) (A) (A) (A) (A) (A)
                 (A) (A) (A) (A) (A) (A) (A) (A) (A) (A) (A) (A)
                 (A) (A) (A) (A) (A) (A) (A) (A) (A) (A) (A) (A)
                 (A) (A) (A) (A) (A) (A) (A) (A) (A) (A) (A) (A)
                 (A) (A) (A) (A) (A) (A) (A) (A) (A) (A) (A) (A)
                 (A) (A) (A) (A) (A) (A) (A) (A) (A) (A) (A) (A)
                 (A) (A) (A) (A) (A) (A) (A) (A) (A) (A) (A) (A)
                 (A) (A) (A) (A) (A) (A) (A) (A) (A) (A) (A) (A)
                 (A) (A) (A) (A) (A) (A) (A) (A) (A) (A) (A) (A)
                 (A) (A) (A) (A) (A) (A) (A) (A) (A) (A) (A) (A)
                 (A) (A) (A) (A) (A) (A) (A) (A) (A) (A) (A) (A)
                 (A) (A) (A) (A) (A) (A) (A) (A) (A) (A) (A) (A)
                 (A) (A)
 The electronic state is 2-A.
 Alpha  occ. eigenvalues --  -24.89951 -24.87982 -24.87837 -24.87607 -24.87533
 Alpha  occ. eigenvalues --  -24.87416 -24.87380 -10.58643 -10.58564 -10.45500
 Alpha  occ. eigenvalues --   -1.46959  -1.46353  -1.42061  -1.37573  -1.37362
 Alpha  occ. eigenvalues --   -1.37037  -1.36900  -0.95664  -0.86378  -0.80134
 Alpha  occ. eigenvalues --   -0.75512  -0.74604  -0.73733  -0.72565  -0.72041
 Alpha  occ. eigenvalues --   -0.70694  -0.64625  -0.61167  -0.60259  -0.59846
 Alpha  occ. eigenvalues --   -0.59581  -0.59190  -0.57015  -0.56448  -0.56117
 Alpha  occ. eigenvalues --   -0.55505  -0.55006  -0.53697  -0.53638  -0.49856
 Alpha  occ. eigenvalues --   -0.37718
 Alpha virt. eigenvalues --    0.06635   0.08422   0.09205   0.09964   0.11832
 Alpha virt. eigenvalues --    0.12570   0.12773   0.13313   0.14449   0.15112
 Alpha virt. eigenvalues --    0.17325   0.17610   0.19088   0.20251   0.21001
 Alpha virt. eigenvalues --    0.23858   0.26478   0.27156   0.27452   0.28581
 Alpha virt. eigenvalues --    0.30636   0.31074   0.32873   0.33133   0.34557
 Alpha virt. eigenvalues --    0.35320   0.35921   0.36832   0.37466   0.38310
 Alpha virt. eigenvalues --    0.38908   0.40344   0.40695   0.41470   0.41594
 Alpha virt. eigenvalues --    0.41892   0.42255   0.43107   0.43760   0.44615
 Alpha virt. eigenvalues --    0.44831   0.45916   0.48343   0.49119   0.50647
 Alpha virt. eigenvalues --    0.51775   0.52398   0.54665   0.56471   0.62563
 Alpha virt. eigenvalues --    0.66290   0.68226   0.70706   0.71991   0.73949
 Alpha virt. eigenvalues --    0.75527   0.77132   0.79646   0.83818   0.85580
 Alpha virt. eigenvalues --    0.91666   0.96850   1.00284   1.04180   1.06704
 Alpha virt. eigenvalues --    1.09778   1.13535   1.17372   1.22677   1.26388
 Alpha virt. eigenvalues --    1.29204   1.30814   1.33100   1.34727   1.35425
 Alpha virt. eigenvalues --    1.38226   1.39673   1.40765   1.41219   1.41762
 Alpha virt. eigenvalues --    1.44286   1.44838   1.45545   1.45679   1.46721
 Alpha virt. eigenvalues --    1.47772   1.48330   1.50953   1.51088   1.52319
 Alpha virt. eigenvalues --    1.53983   1.55095   1.56201   1.57603   1.60289
 Alpha virt. eigenvalues --    1.63914   1.68575   1.92099   1.94731   1.96380
 Alpha virt. eigenvalues --    1.98883   2.01645   2.02670   2.03343   2.04602
 Alpha virt. eigenvalues --    2.06261   2.06750   2.09049   2.10552   2.12139
 Alpha virt. eigenvalues --    2.16106   2.16873   2.18406   2.20975   2.21360
 Alpha virt. eigenvalues --    2.21944   2.23914   2.24729   2.27132   2.28389
 Alpha virt. eigenvalues --    2.29066   2.37491   2.44306   2.49868   2.56607
 Alpha virt. eigenvalues --    2.63395   2.64602   2.65680   2.67576   2.70603
 Alpha virt. eigenvalues --    2.72745   2.75229   2.81075   2.82138   2.86010
 Alpha virt. eigenvalues --    2.94326   3.05847   3.19438   3.24571   3.25980
 Alpha virt. eigenvalues --    3.27750   3.35392   3.41775   3.43911   3.48607
 Alpha virt. eigenvalues --    3.51045   3.52778   3.53606   3.56059   3.58017
 Alpha virt. eigenvalues --    3.58855   3.61533   3.64716   3.69127   3.71390
 Alpha virt. eigenvalues --    3.78104   3.97018   4.28384   4.28962   4.30836
 Alpha virt. eigenvalues --    4.31918   4.38892   4.57115   6.36090   6.39278
 Alpha virt. eigenvalues --    6.40278   6.41341   6.42480   6.43067   6.44672
 Alpha virt. eigenvalues --    6.45566   6.46186   6.46462   6.48210   6.49116
 Alpha virt. eigenvalues --    6.50697   6.53006   6.54762   6.55530   6.76924
 Alpha virt. eigenvalues --    6.83183   6.84969   6.89897   6.94242   9.07736
 Alpha virt. eigenvalues --    9.07828   9.08694   9.09658   9.10054   9.10600
 Alpha virt. eigenvalues --    9.12644   9.13712   9.20724   9.20909   9.21613
 Alpha virt. eigenvalues --    9.21670   9.22137   9.22687   9.23429   9.26101
 Alpha virt. eigenvalues --    9.28939   9.31929   9.32718   9.34955   9.39768
 Alpha virt. eigenvalues --    9.48068   9.49436   9.50795   9.66324   9.67647
 Alpha virt. eigenvalues --    9.69767   9.71771   9.74903   9.76562   9.78511
 Alpha virt. eigenvalues --    9.87531   9.87759   9.90247   9.92325  23.88725
 Alpha virt. eigenvalues --   24.00182  24.04729  66.89987  66.92176  66.93671
 Alpha virt. eigenvalues --   66.95008  66.95226  66.98039  66.99512
  Beta  occ. eigenvalues --  -24.89557 -24.87973 -24.87829 -24.87563 -24.87486
  Beta  occ. eigenvalues --  -24.87289 -24.87271 -10.58699 -10.58620 -10.44273
  Beta  occ. eigenvalues --   -1.46774  -1.46244  -1.41052  -1.37488  -1.37299
  Beta  occ. eigenvalues --   -1.36797  -1.36672  -0.93341  -0.86036  -0.79525
  Beta  occ. eigenvalues --   -0.75160  -0.74275  -0.72954  -0.72347  -0.71916
  Beta  occ. eigenvalues --   -0.70284  -0.61521  -0.60775  -0.60036  -0.59545
  Beta  occ. eigenvalues --   -0.59196  -0.59012  -0.56736  -0.55756  -0.55435
  Beta  occ. eigenvalues --   -0.55273  -0.54931  -0.53567  -0.53506  -0.49134
  Beta virt. eigenvalues --   -0.06743   0.06873   0.08595   0.09207   0.10311
  Beta virt. eigenvalues --    0.11900   0.12652   0.12833   0.13644   0.14606
  Beta virt. eigenvalues --    0.15197   0.17603   0.17842   0.19493   0.20594
  Beta virt. eigenvalues --    0.21357   0.25732   0.26599   0.27222   0.28457
  Beta virt. eigenvalues --    0.28756   0.31025   0.31507   0.32845   0.33652
  Beta virt. eigenvalues --    0.34610   0.35589   0.36340   0.36995   0.37907
  Beta virt. eigenvalues --    0.38370   0.39398   0.40387   0.40759   0.41535
  Beta virt. eigenvalues --    0.41661   0.41945   0.42480   0.43310   0.43869
  Beta virt. eigenvalues --    0.44744   0.45110   0.45969   0.48447   0.49165
  Beta virt. eigenvalues --    0.50794   0.52035   0.52482   0.54722   0.56525
  Beta virt. eigenvalues --    0.63484   0.66424   0.68438   0.71137   0.72453
  Beta virt. eigenvalues --    0.75256   0.75956   0.78029   0.79591   0.84513
  Beta virt. eigenvalues --    0.86369   0.93001   0.97054   1.00376   1.04519
  Beta virt. eigenvalues --    1.07533   1.09968   1.13922   1.17926   1.23009
  Beta virt. eigenvalues --    1.26607   1.29610   1.31289   1.33405   1.34960
  Beta virt. eigenvalues --    1.35646   1.38534   1.39823   1.41066   1.41416
  Beta virt. eigenvalues --    1.42097   1.44428   1.44926   1.45713   1.45881
  Beta virt. eigenvalues --    1.46780   1.47903   1.48601   1.51095   1.51233
  Beta virt. eigenvalues --    1.52477   1.54162   1.55190   1.56329   1.57851
  Beta virt. eigenvalues --    1.60521   1.64208   1.69160   1.92289   1.94828
  Beta virt. eigenvalues --    1.96501   1.99004   2.01778   2.02739   2.03432
  Beta virt. eigenvalues --    2.04663   2.06426   2.06882   2.09145   2.10699
  Beta virt. eigenvalues --    2.12249   2.16236   2.17166   2.18852   2.21220
  Beta virt. eigenvalues --    2.21455   2.22014   2.24272   2.25388   2.27524
  Beta virt. eigenvalues --    2.29033   2.30098   2.38106   2.44563   2.50157
  Beta virt. eigenvalues --    2.57036   2.63514   2.64866   2.65776   2.67926
  Beta virt. eigenvalues --    2.70687   2.73466   2.76473   2.81678   2.82611
  Beta virt. eigenvalues --    2.87511   2.95030   3.06257   3.19801   3.25228
  Beta virt. eigenvalues --    3.26474   3.29996   3.38248   3.43063   3.46124
  Beta virt. eigenvalues --    3.49113   3.51100   3.53638   3.54026   3.57373
  Beta virt. eigenvalues --    3.58293   3.59804   3.64501   3.66380   3.70123
  Beta virt. eigenvalues --    3.73085   3.79131   3.99089   4.28609   4.28989
  Beta virt. eigenvalues --    4.31095   4.31996   4.40110   4.58273   6.37259
  Beta virt. eigenvalues --    6.39403   6.40404   6.41646   6.42599   6.43183
  Beta virt. eigenvalues --    6.44761   6.45670   6.46313   6.46570   6.48400
  Beta virt. eigenvalues --    6.49248   6.50798   6.53216   6.54937   6.55693
  Beta virt. eigenvalues --    6.77393   6.83328   6.85150   6.90007   6.94339
  Beta virt. eigenvalues --    9.07929   9.08013   9.09035   9.09870   9.10217
  Beta virt. eigenvalues --    9.10726   9.13705   9.14853   9.20996   9.21077
  Beta virt. eigenvalues --    9.21793   9.21842   9.22343   9.22950   9.23643
  Beta virt. eigenvalues --    9.26289   9.29551   9.32119   9.32954   9.35320
  Beta virt. eigenvalues --    9.40372   9.48307   9.49596   9.51010   9.66505
  Beta virt. eigenvalues --    9.67801   9.70061   9.71988   9.75219   9.76791
  Beta virt. eigenvalues --    9.78736   9.87724   9.87965   9.90336   9.92430
  Beta virt. eigenvalues --   23.90870  24.00280  24.04653  66.90224  66.92220
  Beta virt. eigenvalues --   66.93715  66.95056  66.95267  66.98091  66.99597
          Condensed to atoms (all electrons):
               1          2          3          4          5          6
     1  C    4.739128   0.244340   0.222406  -0.110990   0.205053  -0.024951
     2  F    0.244340   9.081629   0.003912   0.011206  -0.011552  -0.002127
     3  F    0.222406   0.003912   9.095058   0.005445   0.011146   0.007904
     4  F   -0.110990   0.011206   0.005445   9.156364   0.021805  -0.001125
     5  F    0.205053  -0.011552   0.011146   0.021805   9.102470  -0.001351
     6  F   -0.024951  -0.002127   0.007904  -0.001125  -0.001351   9.073329
     7  F   -0.007819   0.005374   0.007079   0.002667   0.000089  -0.001849
     8  C    0.106283  -0.036864  -0.064409   0.196292  -0.081365  -0.025582
     9  C   -0.218408  -0.033398   0.007960  -0.071876   0.024951   0.234755
    10  F    0.032239  -0.000624  -0.000110   0.015998  -0.000118   0.001799
               7          8          9         10
     1  C   -0.007819   0.106283  -0.218408   0.032239
     2  F    0.005374  -0.036864  -0.033398  -0.000624
     3  F    0.007079  -0.064409   0.007960  -0.000110
     4  F    0.002667   0.196292  -0.071876   0.015998
     5  F    0.000089  -0.081365   0.024951  -0.000118
     6  F   -0.001849  -0.025582   0.234755   0.001799
     7  F    9.098120  -0.056469   0.221177   0.000040
     8  C   -0.056469   5.610060   0.116020  -0.066984
     9  C    0.221177   0.116020   4.751511   0.210236
    10  F    0.000040  -0.066984   0.210236   9.095920
          Atomic-Atomic Spin Densities.
               1          2          3          4          5          6
     1  C   -0.048602  -0.019352   0.005463   0.003132   0.003019  -0.000673
     2  F   -0.019352   0.058630   0.001189   0.003482  -0.003699  -0.000271
     3  F    0.005463   0.001189   0.001868  -0.000119   0.000917   0.000246
     4  F    0.003132   0.003482  -0.000119   0.172768   0.002250   0.000552
     5  F    0.003019  -0.003699   0.000917   0.002250   0.025096   0.000353
     6  F   -0.000673  -0.000271   0.000246   0.000552   0.000353   0.016505
     7  F   -0.004424   0.002641   0.000389   0.002066  -0.000524  -0.001223
     8  C    0.049001  -0.023042  -0.005438  -0.115346  -0.023254  -0.015832
     9  C    0.017075  -0.003384  -0.000942   0.001045   0.000054   0.005742
    10  F   -0.000821  -0.000067   0.000004   0.000607   0.000039   0.001049
               7          8          9         10
     1  C   -0.004424   0.049001   0.017075  -0.000821
     2  F    0.002641  -0.023042  -0.003384  -0.000067
     3  F    0.000389  -0.005438  -0.000942   0.000004
     4  F    0.002066  -0.115346   0.001045   0.000607
     5  F   -0.000524  -0.023254   0.000054   0.000039
     6  F   -0.001223  -0.015832   0.005742   0.001049
     7  F    0.059969  -0.021900  -0.016524  -0.000603
     8  C   -0.021900   1.003641   0.035089  -0.006358
     9  C   -0.016524   0.035089  -0.050950   0.008476
    10  F   -0.000603  -0.006358   0.008476   0.000909
 Mulliken charges and spin densities:
               1          2
     1  C    0.812719   0.003818
     2  F   -0.261894   0.016126
     3  F   -0.296391   0.003578
     4  F   -0.225786   0.070437
     5  F   -0.271129   0.004250
     6  F   -0.260802   0.006447
     7  F   -0.268409   0.019867
     8  C    0.303017   0.876561
     9  C    0.757073  -0.004320
    10  F   -0.288397   0.003235
 Sum of Mulliken charges =  -0.00000   1.00000
 Mulliken charges and spin densities with hydrogens summed into heavy atoms:
               1          2
     1  C    0.812719   0.003818
     2  F   -0.261894   0.016126
     3  F   -0.296391   0.003578
     4  F   -0.225786   0.070437
     5  F   -0.271129   0.004250
     6  F   -0.260802   0.006447
     7  F   -0.268409   0.019867
     8  C    0.303017   0.876561
     9  C    0.757073  -0.004320
    10  F   -0.288397   0.003235
 Electronic spatial extent (au):  <R**2>=           1222.2879
 Charge=              0.0000 electrons
 Dipole moment (field-independent basis, Debye):
    X=              0.0510    Y=              0.3786    Z=             -0.3035  Tot=              0.4879
 Quadrupole moment (field-independent basis, Debye-Ang):
   XX=            -54.3952   YY=            -53.0179   ZZ=            -52.1653
   XY=              0.1925   XZ=             -0.0178   YZ=             -0.0786
 Traceless Quadrupole moment (field-independent basis, Debye-Ang):
   XX=             -1.2024   YY=              0.1749   ZZ=              1.0275
   XY=              0.1925   XZ=             -0.0178   YZ=             -0.0786
 Octapole moment (field-independent basis, Debye-Ang**2):
  XXX=              0.4903  YYY=             -1.6577  ZZZ=              0.3788  XYY=             -0.5674
  XXY=             -1.7157  XXZ=              1.0842  XZZ=              0.5938  YZZ=              0.6220
  YYZ=              1.3462  XYZ=             -0.0825
 Hexadecapole moment (field-independent basis, Debye-Ang**3):
 XXXX=           -733.5386 YYYY=           -277.8373 ZZZZ=           -172.5170 XXXY=             -0.1613
 XXXZ=             -0.6341 YYYX=             -0.7562 YYYZ=              0.9236 ZZZX=             -0.1134
 ZZZY=              0.9252 XXYY=           -167.9980 XXZZ=           -154.0941 YYZZ=            -74.3095
 XXYZ=              0.6217 YYXZ=              0.1590 ZZXY=              1.4818
 N-N= 6.397053976790D+02 E-N=-3.212120257134D+03  KE= 8.111690320241D+02
                          Isotropic Fermi Contact Couplings
        Atom                 a.u.       MegaHertz       Gauss      10(-4) cm-1
     1  C(13)             -0.02745     -30.86070     -11.01186     -10.29402
     2  F(19)              0.02304      96.95289      34.59520      32.34000
     3  F(19)             -0.00170      -7.16308      -2.55597      -2.38935
     4  F(19)              0.03971     167.07059      59.61494      55.72875
     5  F(19)              0.01007      42.36504      15.11690      14.13146
     6  F(19)              0.01047      44.03773      15.71376      14.68941
     7  F(19)              0.03030     127.47404      45.48591      42.52076
     8  C(13)              0.13085     147.10559      52.49093      49.06914
     9  C(13)             -0.02721     -30.58933     -10.91503     -10.20350
    10  F(19)             -0.00108      -4.53356      -1.61769      -1.51223
 --------------------------------------------------------
       Center         ----  Spin Dipole Couplings  ----
                      3XX-RR        3YY-RR        3ZZ-RR
 --------------------------------------------------------
     1   Atom        0.015740     -0.012707     -0.003033
     2   Atom        0.162920     -0.116590     -0.046330
     3   Atom       -0.027644     -0.012051      0.039695
     4   Atom       -0.462142     -0.562838      1.024980
     5   Atom        0.109613     -0.057449     -0.052164
     6   Atom       -0.017545      0.061310     -0.043765
     7   Atom        0.072464     -0.019171     -0.053293
     8   Atom       -0.571298     -0.585096      1.156394
     9   Atom        0.014463     -0.011175     -0.003288
    10   Atom       -0.008388     -0.015338      0.023726
 --------------------------------------------------------
                        XY            XZ            YZ
 --------------------------------------------------------
     1   Atom        0.014028      0.013905      0.005026
     2   Atom        0.038964     -0.146796     -0.023478
     3   Atom       -0.005446      0.008251     -0.014209
     4   Atom        0.002965     -0.001955     -0.043091
     5   Atom       -0.022004     -0.026033      0.002986
     6   Atom       -0.069580      0.022177     -0.033396
     7   Atom       -0.158337      0.137723     -0.099701
     8   Atom        0.001196     -0.003659     -0.054631
     9   Atom       -0.014765     -0.013096      0.005893
    10   Atom        0.011161      0.017861      0.010725
 --------------------------------------------------------


 ---------------------------------------------------------------------------------
              Anisotropic Spin Dipole Couplings in Principal Axis System
 ---------------------------------------------------------------------------------

       Atom             a.u.   MegaHertz   Gauss  10(-4) cm-1        Axes

              Baa    -0.0185    -2.483    -0.886    -0.828 -0.4000  0.9144  0.0624
     1 C(13)  Bbb    -0.0099    -1.333    -0.476    -0.445 -0.3676 -0.2224  0.9030
              Bcc     0.0284     3.815     1.361     1.273  0.8396  0.3382  0.4251
 
              Baa    -0.1251   -62.848   -22.426   -20.964  0.2349  0.7206  0.6523
     2 F(19)  Bbb    -0.1191   -59.830   -21.349   -19.957 -0.4096  0.6820 -0.6059
              Bcc     0.2443   122.678    43.775    40.921  0.8815  0.1248 -0.4554
 
              Baa    -0.0296   -14.861    -5.303    -4.957  0.9666  0.2481 -0.0642
     3 F(19)  Bbb    -0.0150    -7.514    -2.681    -2.507 -0.2217  0.9351  0.2766
              Bcc     0.0446    22.375     7.984     7.464  0.1287 -0.2531  0.9588
 
              Baa    -0.5641  -283.300  -101.089   -94.499 -0.0285  0.9992  0.0271
     4 F(19)  Bbb    -0.4621  -232.059   -82.804   -77.407  0.9996  0.0285  0.0021
              Bcc     1.0262   515.359   183.893   171.905 -0.0014 -0.0271  0.9996
 
              Baa    -0.0603   -30.301   -10.812   -10.107  0.1415  0.9858  0.0907
     5 F(19)  Bbb    -0.0562   -28.224   -10.071    -9.415  0.1398 -0.1106  0.9840
              Bcc     0.1165    58.525    20.883    19.522  0.9800 -0.1266 -0.1535
 
              Baa    -0.0591   -29.688   -10.593    -9.903  0.8382  0.3743 -0.3967
     6 F(19)  Bbb    -0.0530   -26.628    -9.502    -8.882  0.2382  0.4031  0.8836
              Bcc     0.1121    56.316    20.095    18.785 -0.4906  0.8351 -0.2487
 
              Baa    -0.1422   -71.422   -25.485   -23.824 -0.6371 -0.2216  0.7382
     7 F(19)  Bbb    -0.1364   -68.481   -24.436   -22.843  0.2918  0.8172  0.4971
              Bcc     0.2786   139.903    49.921    46.667  0.7134 -0.5321  0.4559
 
              Baa    -0.5869   -78.754   -28.101   -26.270 -0.0692  0.9971  0.0311
     8 C(13)  Bbb    -0.5712   -76.654   -27.352   -25.569  0.9976  0.0691  0.0043
              Bcc     1.1581   155.408    55.453    51.838 -0.0021 -0.0313  0.9995
 
              Baa    -0.0179    -2.403    -0.858    -0.802  0.4176  0.9086  0.0078
     9 C(13)  Bbb    -0.0099    -1.331    -0.475    -0.444  0.3778 -0.1814  0.9079
              Bcc     0.0278     3.734     1.332     1.246  0.8264 -0.3762 -0.4191
 
              Baa    -0.0237   -11.894    -4.244    -3.968 -0.6378  0.7673  0.0667
    10 F(19)  Bbb    -0.0121    -6.067    -2.165    -2.024  0.6460  0.5801 -0.4960
              Bcc     0.0358    17.961     6.409     5.991  0.4193  0.2733  0.8657
 

 ---------------------------------------------------------------------------------

 1\1\GINC-CCLEARCO\FOpt\UwB97XD\6-311+G(2d)\C3F7(2)\RAPPE\12-Aug-2023\0
 \\# opt wb97xd/6-311+g(2d) geom=connectivity freq\\Title Card Required
 \\0,2\C,-0.459502587,0.1211872531,0.9176136798\F,-0.9467883095,1.34024
 87886,1.1810498939\F,0.5193105122,-0.1314181305,1.7801160327\F,-0.8669
 35334,0.2459839714,-1.4123665642\F,-1.4465686808,-0.752866474,1.115690
 1692\F,2.2979430162,-0.5673535399,-0.3163013855\F,1.8608711741,1.53013
 85345,-0.550523218\C,0.0449133782,0.0288397318,-0.4919674777\C,1.46832
 58702,0.2957791263,-0.8983398824\F,1.5872240506,0.1828316387,-2.216265
 7977\\Version=EM64M-G16RevA.03\State=2-A\HF=-813.1965065\S2=0.753916\S
 2-1=0.\S2A=0.750011\RMSD=8.072e-09\RMSF=4.198e-06\Dipole=-0.0838059,-0
 .1128808,-0.1306825\Quadrupole=-0.5610204,0.7511073,-0.1900869,-0.0385
 143,0.4977999,0.1305568\PG=C01 [X(C3F7)]\\@


 A SOLDIER'S LIFE IS A LIFE OF HONOR, BUT A DOG WOULD NOT LEAD IT.
 -- PRINCE RUPERT, FOUNDER OF THE HUDSON'S BAY COMPANY
 Job cpu time:       0 days  6 hours 14 minutes 15.0 seconds.
 Elapsed time:       0 days  0 hours 21 minutes 51.1 seconds.
 File lengths (MBytes):  RWF=     62 Int=      0 D2E=      0 Chk=      8 Scr=      1
 Normal termination of Gaussian 16 at Sat Aug 12 08:52:40 2023.
 Link1:  Proceeding to internal job step number  2.
 ----------------------------------------------------------------------
 #N Geom=AllCheck Guess=TCheck SCRF=Check GenChk UwB97XD/6-311+G(2d) Fr
 eq
 ----------------------------------------------------------------------
 1/10=4,29=7,30=1,38=1,40=1/1,3;
 2/12=2,40=1/2;
 3/5=4,6=6,7=12,11=2,14=-4,25=1,30=1,70=2,71=2,74=-58,116=2,140=1/1,2,3;
 4/5=101/1;
 5/5=2,38=6,98=1/2;
 8/6=4,10=90,11=11/1;
 11/6=1,8=1,9=11,15=111,16=1/1,2,10;
 10/6=1/2;
 6/7=2,8=2,9=2,10=2,28=1/1;
 7/8=1,10=1,25=1/1,2,3,16;
 1/10=4,30=1/3;
 99//99;
 Structure from the checkpoint file:  "2_propyl.chk"
 -------------------
 Title Card Required
 -------------------
 Charge =  0 Multiplicity = 2
 Redundant internal coordinates found in file.  (old form).
 C,0,-0.459502587,0.1211872531,0.9176136798
 F,0,-0.9467883095,1.3402487886,1.1810498939
 F,0,0.5193105122,-0.1314181305,1.7801160327
 F,0,-0.866935334,0.2459839714,-1.4123665642
 F,0,-1.4465686808,-0.752866474,1.1156901692
 F,0,2.2979430162,-0.5673535399,-0.3163013855
 F,0,1.8608711741,1.5301385345,-0.550523218
 C,0,0.0449133782,0.0288397318,-0.4919674777
 C,0,1.4683258702,0.2957791263,-0.8983398824
 F,0,1.5872240506,0.1828316387,-2.2162657977
 Recover connectivity data from disk.

 GradGradGradGradGradGradGradGradGradGradGradGradGradGradGradGradGradGrad
 Berny optimization.
 Initialization pass.
                           ----------------------------
                           !    Initial Parameters    !
                           ! (Angstroms and Degrees)  !
 --------------------------                            --------------------------
 ! Name  Definition              Value          Derivative Info.                !
 --------------------------------------------------------------------------------
 ! R1    R(1,2)                  1.339          calculate D2E/DX2 analytically  !
 ! R2    R(1,3)                  1.3288         calculate D2E/DX2 analytically  !
 ! R3    R(1,5)                  1.3332         calculate D2E/DX2 analytically  !
 ! R4    R(1,8)                  1.5            calculate D2E/DX2 analytically  !
 ! R5    R(4,8)                  1.3137         calculate D2E/DX2 analytically  !
 ! R6    R(6,9)                  1.3312         calculate D2E/DX2 analytically  !
 ! R7    R(7,9)                  1.3412         calculate D2E/DX2 analytically  !
 ! R8    R(8,9)                  1.5042         calculate D2E/DX2 analytically  !
 ! R9    R(9,10)                 1.3281         calculate D2E/DX2 analytically  !
 ! A1    A(2,1,3)              108.2659         calculate D2E/DX2 analytically  !
 ! A2    A(2,1,5)              107.3499         calculate D2E/DX2 analytically  !
 ! A3    A(2,1,8)              111.3039         calculate D2E/DX2 analytically  !
 ! A4    A(3,1,5)              108.9224         calculate D2E/DX2 analytically  !
 ! A5    A(3,1,8)              110.5208         calculate D2E/DX2 analytically  !
 ! A6    A(5,1,8)              110.3788         calculate D2E/DX2 analytically  !
 ! A7    A(1,8,4)              114.5075         calculate D2E/DX2 analytically  !
 ! A8    A(1,8,9)              124.1384         calculate D2E/DX2 analytically  !
 ! A9    A(4,8,9)              115.9914         calculate D2E/DX2 analytically  !
 ! A10   A(6,9,7)              107.5153         calculate D2E/DX2 analytically  !
 ! A11   A(6,9,8)              110.8896         calculate D2E/DX2 analytically  !
 ! A12   A(6,9,10)             108.8416         calculate D2E/DX2 analytically  !
 ! A13   A(7,9,8)              111.7309         calculate D2E/DX2 analytically  !
 ! A14   A(7,9,10)             108.0246         calculate D2E/DX2 analytically  !
 ! A15   A(8,9,10)             109.7383         calculate D2E/DX2 analytically  !
 ! D1    D(2,1,8,4)            -60.6156         calculate D2E/DX2 analytically  !
 ! D2    D(2,1,8,9)             92.3836         calculate D2E/DX2 analytically  !
 ! D3    D(3,1,8,4)            179.0417         calculate D2E/DX2 analytically  !
 ! D4    D(3,1,8,9)            -27.9592         calculate D2E/DX2 analytically  !
 ! D5    D(5,1,8,4)             58.4829         calculate D2E/DX2 analytically  !
 ! D6    D(5,1,8,9)           -148.518          calculate D2E/DX2 analytically  !
 ! D7    D(1,8,9,6)             62.129          calculate D2E/DX2 analytically  !
 ! D8    D(1,8,9,7)            -57.7981         calculate D2E/DX2 analytically  !
 ! D9    D(1,8,9,10)          -177.5932         calculate D2E/DX2 analytically  !
 ! D10   D(4,8,9,6)           -145.2313         calculate D2E/DX2 analytically  !
 ! D11   D(4,8,9,7)             94.8417         calculate D2E/DX2 analytically  !
 ! D12   D(4,8,9,10)           -24.9535         calculate D2E/DX2 analytically  !
 --------------------------------------------------------------------------------
 Trust Radius=3.00D-01 FncErr=1.00D-07 GrdErr=1.00D-07 EigMax=2.50D+02 EigMin=1.00D-04
 Number of steps in this run=      2 maximum allowed number of steps=      2.
 GradGradGradGradGradGradGradGradGradGradGradGradGradGradGradGradGradGrad

                          Input orientation:                          
 ---------------------------------------------------------------------
 Center     Atomic      Atomic             Coordinates (Angstroms)
 Number     Number       Type             X           Y           Z
 ---------------------------------------------------------------------
      1          6           0       -0.459503    0.121187    0.917614
      2          9           0       -0.946788    1.340249    1.181050
      3          9           0        0.519311   -0.131418    1.780116
      4          9           0       -0.866935    0.245984   -1.412367
      5          9           0       -1.446569   -0.752866    1.115690
      6          9           0        2.297943   -0.567354   -0.316301
      7          9           0        1.860871    1.530139   -0.550523
      8          6           0        0.044913    0.028840   -0.491967
      9          6           0        1.468326    0.295779   -0.898340
     10          9           0        1.587224    0.182832   -2.216266
 ---------------------------------------------------------------------
                    Distance matrix (angstroms):
                    1          2          3          4          5
     1  C    0.000000
     2  F    1.339013   0.000000
     3  F    1.328832   2.161974   0.000000
     4  F    2.368625   2.815955   3.500865   0.000000
     5  F    1.333231   2.152948   2.166181   2.779343   0.000000
     6  F    3.098409   4.050838   2.783620   3.446641   4.013276
     7  F    3.086212   3.304142   3.161081   3.135722   4.350579
     8  C    1.499961   2.345688   2.326607   1.313680   2.328121
     9  C    2.654184   3.353737   2.873544   2.391683   3.694940
    10  F    3.743540   4.393471   4.148525   2.583242   4.602321
                    6          7          8          9         10
     6  F    0.000000
     7  F    2.155311   0.000000
     8  C    2.337188   2.356911   0.000000
     9  C    1.331177   1.341160   1.504160   0.000000
    10  F    2.162814   2.159819   2.318543   1.328090   0.000000
 Stoichiometry    C3F7(2)
 Framework group  C1[X(C3F7)]
 Deg. of freedom    24
 Full point group                 C1      NOp   1
 Largest Abelian subgroup         C1      NOp   1
 Largest concise Abelian subgroup C1      NOp   1
                         Standard orientation:                         
 ---------------------------------------------------------------------
 Center     Atomic      Atomic             Coordinates (Angstroms)
 Number     Number       Type             X           Y           Z
 ---------------------------------------------------------------------
      1          6           0       -1.323346   -0.139762   -0.025468
      2          9           0       -1.778200    0.039867    1.221046
      3          9           0       -1.210211   -1.445712   -0.243390
      4          9           0       -0.030551    1.844784   -0.050801
      5          9           0       -2.237009    0.359929   -0.857953
      6          9           0        1.485115   -1.140758   -0.868495
      7          9           0        1.462806   -0.602961    1.218522
      8          6           0       -0.003356    0.543346   -0.227639
      9          6           0        1.330776   -0.121515   -0.026263
     10          9           0        2.305334    0.756806   -0.232683
 ---------------------------------------------------------------------
 Rotational constants (GHZ):           2.0969107           1.0179496           0.8990920
 Standard basis: 6-311+G(2d) (5D, 7F)
 There are   290 symmetry adapted cartesian basis functions of A   symmetry.
 There are   270 symmetry adapted basis functions of A   symmetry.
   270 basis functions,   420 primitive gaussians,   290 cartesian basis functions
    41 alpha electrons       40 beta electrons
       nuclear repulsion energy       639.7092933245 Hartrees.
 NAtoms=   10 NActive=   10 NUniq=   10 SFac= 1.00D+00 NAtFMM=   60 NAOKFM=F Big=F
 Integral buffers will be    131072 words long.
 Raffenetti 2 integral format.
 Two-electron integral symmetry is turned on.
 Nuclear repulsion after empirical dispersion term =      639.7053976790 Hartrees.
 One-electron integrals computed using PRISM.
 NBasis=   270 RedAO= T EigKep=  8.85D-05  NBF=   270
 NBsUse=   270 1.00D-06 EigRej= -1.00D+00 NBFU=   270
 Initial guess from the checkpoint file:  "2_propyl.chk"
 B after Tr=     0.000000   -0.000000   -0.000000
         Rot=    1.000000   -0.000000   -0.000000    0.000000 Ang=   0.00 deg.
 Initial guess <Sx>= 0.0000 <Sy>= 0.0000 <Sz>= 0.5000 <S**2>= 0.7539 S= 0.5020
 Keep R1 and R2 ints in memory in canonical form, NReq=2703878162.
 Requested convergence on RMS density matrix=1.00D-08 within 128 cycles.
 Requested convergence on MAX density matrix=1.00D-06.
 Requested convergence on             energy=1.00D-06.
 No special actions if energy rises.
 SCF Done:  E(UwB97XD) =  -813.196506487     A.U. after    1 cycles
            NFock=  1  Conv=0.31D-08     -V/T= 2.0025
 <Sx>= 0.0000 <Sy>= 0.0000 <Sz>= 0.5000 <S**2>= 0.7539 S= 0.5020
 <L.S>= 0.000000000000E+00
 Annihilation of the first spin contaminant:
 S**2 before annihilation     0.7539,   after     0.7500
 DoSCS=F DFT=T ScalE2(SS,OS)=  1.000000  1.000000
 Range of M.O.s used for correlation:     1   270
 NBasis=   270 NAE=    41 NBE=    40 NFC=     0 NFV=     0
 NROrb=    270 NOA=    41 NOB=    40 NVA=   229 NVB=   230

 **** Warning!!: The largest alpha MO coefficient is  0.38853030D+02


 **** Warning!!: The largest beta MO coefficient is  0.43437900D+02

 Symmetrizing basis deriv contribution to polar:
 IMax=3 JMax=2 DiffMx= 0.00D+00
 G2DrvN: will do    11 centers at a time, making    1 passes.
 Calling FoFCou, ICntrl=  3107 FMM=F I1Cent=   0 AccDes= 0.00D+00.
 End of G2Drv F.D. properties file   721 does not exist.
 End of G2Drv F.D. properties file   722 does not exist.
 End of G2Drv F.D. properties file   788 does not exist.
          IDoAtm=1111111111
          Differentiating once with respect to electric field.
                with respect to dipole field.
          Differentiating once with respect to nuclear coordinates.
 Keep R1 and R2 ints in memory in canonical form, NReq=2703804475.
          There are    33 degrees of freedom in the 1st order CPHF.  IDoFFX=6 NUNeed=     3.
     30 vectors produced by pass  0 Test12= 5.63D-14 3.03D-09 XBig12= 2.55D+01 1.08D+00.
 AX will form    30 AO Fock derivatives at one time.
     30 vectors produced by pass  1 Test12= 5.63D-14 3.03D-09 XBig12= 4.34D+00 2.19D-01.
     30 vectors produced by pass  2 Test12= 5.63D-14 3.03D-09 XBig12= 2.74D-01 9.56D-02.
     30 vectors produced by pass  3 Test12= 5.63D-14 3.03D-09 XBig12= 1.03D-02 2.26D-02.
     30 vectors produced by pass  4 Test12= 5.63D-14 3.03D-09 XBig12= 2.29D-04 2.82D-03.
     30 vectors produced by pass  5 Test12= 5.63D-14 3.03D-09 XBig12= 3.30D-06 2.57D-04.
     30 vectors produced by pass  6 Test12= 5.63D-14 3.03D-09 XBig12= 4.03D-08 2.06D-05.
     30 vectors produced by pass  7 Test12= 5.63D-14 3.03D-09 XBig12= 4.76D-10 1.79D-06.
      7 vectors produced by pass  8 Test12= 5.63D-14 3.03D-09 XBig12= 5.89D-12 2.29D-07.
      3 vectors produced by pass  9 Test12= 5.63D-14 3.03D-09 XBig12= 7.96D-14 2.72D-08.
      1 vectors produced by pass 10 Test12= 5.63D-14 3.03D-09 XBig12= 9.78D-16 3.36D-09.
 InvSVY:  IOpt=1 It=  1 EMax= 1.78D-15
 Solved reduced A of dimension   251 with    33 vectors.
 Isotropic polarizability for W=    0.000000       40.83 Bohr**3.
 End of Minotr F.D. properties file   721 does not exist.
 End of Minotr F.D. properties file   722 does not exist.
 End of Minotr F.D. properties file   788 does not exist.

 **********************************************************************

            Population analysis using the SCF density.

 **********************************************************************

 Orbital symmetries:
 Alpha Orbitals:
       Occupied  (A) (A) (A) (A) (A) (A) (A) (A) (A) (A) (A) (A)
                 (A) (A) (A) (A) (A) (A) (A) (A) (A) (A) (A) (A)
                 (A) (A) (A) (A) (A) (A) (A) (A) (A) (A) (A) (A)
                 (A) (A) (A) (A) (A)
       Virtual   (A) (A) (A) (A) (A) (A) (A) (A) (A) (A) (A) (A)
                 (A) (A) (A) (A) (A) (A) (A) (A) (A) (A) (A) (A)
                 (A) (A) (A) (A) (A) (A) (A) (A) (A) (A) (A) (A)
                 (A) (A) (A) (A) (A) (A) (A) (A) (A) (A) (A) (A)
                 (A) (A) (A) (A) (A) (A) (A) (A) (A) (A) (A) (A)
                 (A) (A) (A) (A) (A) (A) (A) (A) (A) (A) (A) (A)
                 (A) (A) (A) (A) (A) (A) (A) (A) (A) (A) (A) (A)
                 (A) (A) (A) (A) (A) (A) (A) (A) (A) (A) (A) (A)
                 (A) (A) (A) (A) (A) (A) (A) (A) (A) (A) (A) (A)
                 (A) (A) (A) (A) (A) (A) (A) (A) (A) (A) (A) (A)
                 (A) (A) (A) (A) (A) (A) (A) (A) (A) (A) (A) (A)
                 (A) (A) (A) (A) (A) (A) (A) (A) (A) (A) (A) (A)
                 (A) (A) (A) (A) (A) (A) (A) (A) (A) (A) (A) (A)
                 (A) (A) (A) (A) (A) (A) (A) (A) (A) (A) (A) (A)
                 (A) (A) (A) (A) (A) (A) (A) (A) (A) (A) (A) (A)
                 (A) (A) (A) (A) (A) (A) (A) (A) (A) (A) (A) (A)
                 (A) (A) (A) (A) (A) (A) (A) (A) (A) (A) (A) (A)
                 (A) (A) (A) (A) (A) (A) (A) (A) (A) (A) (A) (A)
                 (A) (A) (A) (A) (A) (A) (A) (A) (A) (A) (A) (A)
                 (A)
 Beta  Orbitals:
       Occupied  (A) (A) (A) (A) (A) (A) (A) (A) (A) (A) (A) (A)
                 (A) (A) (A) (A) (A) (A) (A) (A) (A) (A) (A) (A)
                 (A) (A) (A) (A) (A) (A) (A) (A) (A) (A) (A) (A)
                 (A) (A) (A) (A)
       Virtual   (A) (A) (A) (A) (A) (A) (A) (A) (A) (A) (A) (A)
                 (A) (A) (A) (A) (A) (A) (A) (A) (A) (A) (A) (A)
                 (A) (A) (A) (A) (A) (A) (A) (A) (A) (A) (A) (A)
                 (A) (A) (A) (A) (A) (A) (A) (A) (A) (A) (A) (A)
                 (A) (A) (A) (A) (A) (A) (A) (A) (A) (A) (A) (A)
                 (A) (A) (A) (A) (A) (A) (A) (A) (A) (A) (A) (A)
                 (A) (A) (A) (A) (A) (A) (A) (A) (A) (A) (A) (A)
                 (A) (A) (A) (A) (A) (A) (A) (A) (A) (A) (A) (A)
                 (A) (A) (A) (A) (A) (A) (A) (A) (A) (A) (A) (A)
                 (A) (A) (A) (A) (A) (A) (A) (A) (A) (A) (A) (A)
                 (A) (A) (A) (A) (A) (A) (A) (A) (A) (A) (A) (A)
                 (A) (A) (A) (A) (A) (A) (A) (A) (A) (A) (A) (A)
                 (A) (A) (A) (A) (A) (A) (A) (A) (A) (A) (A) (A)
                 (A) (A) (A) (A) (A) (A) (A) (A) (A) (A) (A) (A)
                 (A) (A) (A) (A) (A) (A) (A) (A) (A) (A) (A) (A)
                 (A) (A) (A) (A) (A) (A) (A) (A) (A) (A) (A) (A)
                 (A) (A) (A) (A) (A) (A) (A) (A) (A) (A) (A) (A)
                 (A) (A) (A) (A) (A) (A) (A) (A) (A) (A) (A) (A)
                 (A) (A) (A) (A) (A) (A) (A) (A) (A) (A) (A) (A)
                 (A) (A)
 The electronic state is 2-A.
 Alpha  occ. eigenvalues --  -24.89951 -24.87982 -24.87837 -24.87607 -24.87533
 Alpha  occ. eigenvalues --  -24.87416 -24.87380 -10.58643 -10.58564 -10.45500
 Alpha  occ. eigenvalues --   -1.46959  -1.46353  -1.42061  -1.37573  -1.37362
 Alpha  occ. eigenvalues --   -1.37037  -1.36900  -0.95664  -0.86378  -0.80134
 Alpha  occ. eigenvalues --   -0.75512  -0.74604  -0.73733  -0.72565  -0.72041
 Alpha  occ. eigenvalues --   -0.70694  -0.64625  -0.61167  -0.60259  -0.59846
 Alpha  occ. eigenvalues --   -0.59581  -0.59190  -0.57015  -0.56448  -0.56117
 Alpha  occ. eigenvalues --   -0.55505  -0.55006  -0.53697  -0.53638  -0.49856
 Alpha  occ. eigenvalues --   -0.37718
 Alpha virt. eigenvalues --    0.06635   0.08422   0.09205   0.09964   0.11832
 Alpha virt. eigenvalues --    0.12570   0.12773   0.13313   0.14449   0.15112
 Alpha virt. eigenvalues --    0.17325   0.17610   0.19088   0.20251   0.21001
 Alpha virt. eigenvalues --    0.23858   0.26478   0.27156   0.27452   0.28581
 Alpha virt. eigenvalues --    0.30636   0.31074   0.32873   0.33133   0.34557
 Alpha virt. eigenvalues --    0.35320   0.35921   0.36832   0.37466   0.38310
 Alpha virt. eigenvalues --    0.38908   0.40344   0.40695   0.41470   0.41594
 Alpha virt. eigenvalues --    0.41892   0.42255   0.43107   0.43760   0.44615
 Alpha virt. eigenvalues --    0.44831   0.45916   0.48343   0.49119   0.50647
 Alpha virt. eigenvalues --    0.51775   0.52398   0.54665   0.56471   0.62563
 Alpha virt. eigenvalues --    0.66290   0.68226   0.70706   0.71991   0.73949
 Alpha virt. eigenvalues --    0.75527   0.77132   0.79646   0.83818   0.85580
 Alpha virt. eigenvalues --    0.91666   0.96850   1.00284   1.04180   1.06704
 Alpha virt. eigenvalues --    1.09778   1.13535   1.17372   1.22677   1.26388
 Alpha virt. eigenvalues --    1.29204   1.30814   1.33100   1.34727   1.35425
 Alpha virt. eigenvalues --    1.38226   1.39673   1.40765   1.41219   1.41762
 Alpha virt. eigenvalues --    1.44286   1.44838   1.45545   1.45679   1.46721
 Alpha virt. eigenvalues --    1.47772   1.48330   1.50953   1.51088   1.52319
 Alpha virt. eigenvalues --    1.53983   1.55095   1.56201   1.57603   1.60289
 Alpha virt. eigenvalues --    1.63914   1.68575   1.92099   1.94731   1.96380
 Alpha virt. eigenvalues --    1.98883   2.01645   2.02670   2.03343   2.04602
 Alpha virt. eigenvalues --    2.06261   2.06750   2.09049   2.10552   2.12139
 Alpha virt. eigenvalues --    2.16106   2.16873   2.18406   2.20975   2.21360
 Alpha virt. eigenvalues --    2.21944   2.23914   2.24729   2.27132   2.28389
 Alpha virt. eigenvalues --    2.29066   2.37491   2.44306   2.49868   2.56607
 Alpha virt. eigenvalues --    2.63395   2.64602   2.65680   2.67576   2.70603
 Alpha virt. eigenvalues --    2.72745   2.75229   2.81075   2.82138   2.86010
 Alpha virt. eigenvalues --    2.94326   3.05847   3.19438   3.24571   3.25980
 Alpha virt. eigenvalues --    3.27750   3.35392   3.41775   3.43911   3.48607
 Alpha virt. eigenvalues --    3.51045   3.52778   3.53606   3.56059   3.58017
 Alpha virt. eigenvalues --    3.58855   3.61533   3.64716   3.69127   3.71390
 Alpha virt. eigenvalues --    3.78104   3.97018   4.28384   4.28962   4.30836
 Alpha virt. eigenvalues --    4.31918   4.38892   4.57115   6.36090   6.39278
 Alpha virt. eigenvalues --    6.40278   6.41341   6.42480   6.43067   6.44672
 Alpha virt. eigenvalues --    6.45566   6.46186   6.46462   6.48210   6.49116
 Alpha virt. eigenvalues --    6.50697   6.53006   6.54762   6.55530   6.76924
 Alpha virt. eigenvalues --    6.83183   6.84969   6.89896   6.94242   9.07736
 Alpha virt. eigenvalues --    9.07828   9.08694   9.09658   9.10054   9.10600
 Alpha virt. eigenvalues --    9.12644   9.13712   9.20724   9.20909   9.21613
 Alpha virt. eigenvalues --    9.21670   9.22137   9.22687   9.23429   9.26101
 Alpha virt. eigenvalues --    9.28939   9.31929   9.32718   9.34955   9.39768
 Alpha virt. eigenvalues --    9.48068   9.49436   9.50795   9.66324   9.67647
 Alpha virt. eigenvalues --    9.69767   9.71771   9.74903   9.76562   9.78511
 Alpha virt. eigenvalues --    9.87531   9.87759   9.90247   9.92325  23.88725
 Alpha virt. eigenvalues --   24.00182  24.04729  66.89987  66.92176  66.93671
 Alpha virt. eigenvalues --   66.95008  66.95226  66.98039  66.99512
  Beta  occ. eigenvalues --  -24.89557 -24.87973 -24.87829 -24.87563 -24.87486
  Beta  occ. eigenvalues --  -24.87289 -24.87271 -10.58699 -10.58620 -10.44273
  Beta  occ. eigenvalues --   -1.46774  -1.46244  -1.41052  -1.37488  -1.37299
  Beta  occ. eigenvalues --   -1.36797  -1.36672  -0.93341  -0.86036  -0.79525
  Beta  occ. eigenvalues --   -0.75160  -0.74275  -0.72954  -0.72347  -0.71916
  Beta  occ. eigenvalues --   -0.70284  -0.61520  -0.60775  -0.60036  -0.59545
  Beta  occ. eigenvalues --   -0.59196  -0.59012  -0.56736  -0.55756  -0.55435
  Beta  occ. eigenvalues --   -0.55273  -0.54931  -0.53567  -0.53506  -0.49134
  Beta virt. eigenvalues --   -0.06743   0.06873   0.08595   0.09207   0.10311
  Beta virt. eigenvalues --    0.11900   0.12652   0.12833   0.13644   0.14606
  Beta virt. eigenvalues --    0.15197   0.17603   0.17842   0.19493   0.20594
  Beta virt. eigenvalues --    0.21357   0.25732   0.26599   0.27222   0.28457
  Beta virt. eigenvalues --    0.28756   0.31025   0.31507   0.32845   0.33652
  Beta virt. eigenvalues --    0.34610   0.35589   0.36340   0.36995   0.37907
  Beta virt. eigenvalues --    0.38370   0.39398   0.40387   0.40759   0.41535
  Beta virt. eigenvalues --    0.41661   0.41945   0.42480   0.43310   0.43869
  Beta virt. eigenvalues --    0.44744   0.45110   0.45969   0.48447   0.49165
  Beta virt. eigenvalues --    0.50794   0.52035   0.52482   0.54722   0.56525
  Beta virt. eigenvalues --    0.63484   0.66424   0.68438   0.71137   0.72453
  Beta virt. eigenvalues --    0.75256   0.75956   0.78029   0.79591   0.84513
  Beta virt. eigenvalues --    0.86369   0.93001   0.97054   1.00376   1.04519
  Beta virt. eigenvalues --    1.07533   1.09968   1.13922   1.17926   1.23009
  Beta virt. eigenvalues --    1.26607   1.29610   1.31289   1.33405   1.34960
  Beta virt. eigenvalues --    1.35646   1.38534   1.39823   1.41066   1.41416
  Beta virt. eigenvalues --    1.42097   1.44428   1.44926   1.45713   1.45881
  Beta virt. eigenvalues --    1.46780   1.47903   1.48601   1.51095   1.51233
  Beta virt. eigenvalues --    1.52477   1.54162   1.55190   1.56329   1.57851
  Beta virt. eigenvalues --    1.60521   1.64208   1.69160   1.92289   1.94828
  Beta virt. eigenvalues --    1.96501   1.99004   2.01778   2.02739   2.03432
  Beta virt. eigenvalues --    2.04663   2.06426   2.06882   2.09145   2.10699
  Beta virt. eigenvalues --    2.12249   2.16236   2.17166   2.18852   2.21220
  Beta virt. eigenvalues --    2.21455   2.22014   2.24272   2.25388   2.27524
  Beta virt. eigenvalues --    2.29033   2.30098   2.38106   2.44563   2.50157
  Beta virt. eigenvalues --    2.57036   2.63514   2.64866   2.65776   2.67926
  Beta virt. eigenvalues --    2.70687   2.73466   2.76473   2.81678   2.82611
  Beta virt. eigenvalues --    2.87511   2.95030   3.06257   3.19801   3.25228
  Beta virt. eigenvalues --    3.26474   3.29996   3.38248   3.43063   3.46124
  Beta virt. eigenvalues --    3.49113   3.51100   3.53638   3.54026   3.57373
  Beta virt. eigenvalues --    3.58293   3.59804   3.64501   3.66380   3.70123
  Beta virt. eigenvalues --    3.73085   3.79131   3.99089   4.28609   4.28989
  Beta virt. eigenvalues --    4.31095   4.31996   4.40110   4.58273   6.37259
  Beta virt. eigenvalues --    6.39403   6.40404   6.41646   6.42599   6.43183
  Beta virt. eigenvalues --    6.44761   6.45670   6.46313   6.46570   6.48400
  Beta virt. eigenvalues --    6.49248   6.50798   6.53216   6.54937   6.55693
  Beta virt. eigenvalues --    6.77393   6.83328   6.85150   6.90007   6.94339
  Beta virt. eigenvalues --    9.07929   9.08013   9.09035   9.09870   9.10217
  Beta virt. eigenvalues --    9.10726   9.13705   9.14853   9.20996   9.21077
  Beta virt. eigenvalues --    9.21793   9.21842   9.22343   9.22950   9.23643
  Beta virt. eigenvalues --    9.26289   9.29551   9.32119   9.32954   9.35320
  Beta virt. eigenvalues --    9.40372   9.48307   9.49596   9.51010   9.66505
  Beta virt. eigenvalues --    9.67801   9.70061   9.71988   9.75219   9.76791
  Beta virt. eigenvalues --    9.78736   9.87724   9.87965   9.90336   9.92430
  Beta virt. eigenvalues --   23.90870  24.00280  24.04653  66.90224  66.92220
  Beta virt. eigenvalues --   66.93715  66.95056  66.95267  66.98091  66.99597
          Condensed to atoms (all electrons):
               1          2          3          4          5          6
     1  C    4.739128   0.244340   0.222406  -0.110990   0.205053  -0.024951
     2  F    0.244340   9.081629   0.003912   0.011206  -0.011552  -0.002127
     3  F    0.222406   0.003912   9.095058   0.005445   0.011146   0.007904
     4  F   -0.110990   0.011206   0.005445   9.156364   0.021805  -0.001125
     5  F    0.205053  -0.011552   0.011146   0.021805   9.102470  -0.001351
     6  F   -0.024951  -0.002127   0.007904  -0.001125  -0.001351   9.073329
     7  F   -0.007819   0.005374   0.007079   0.002667   0.000089  -0.001849
     8  C    0.106283  -0.036864  -0.064409   0.196292  -0.081365  -0.025582
     9  C   -0.218408  -0.033398   0.007960  -0.071876   0.024951   0.234755
    10  F    0.032239  -0.000624  -0.000110   0.015998  -0.000118   0.001799
               7          8          9         10
     1  C   -0.007819   0.106283  -0.218408   0.032239
     2  F    0.005374  -0.036864  -0.033398  -0.000624
     3  F    0.007079  -0.064409   0.007960  -0.000110
     4  F    0.002667   0.196292  -0.071876   0.015998
     5  F    0.000089  -0.081365   0.024951  -0.000118
     6  F   -0.001849  -0.025582   0.234755   0.001799
     7  F    9.098120  -0.056468   0.221177   0.000040
     8  C   -0.056468   5.610060   0.116020  -0.066984
     9  C    0.221177   0.116020   4.751511   0.210236
    10  F    0.000040  -0.066984   0.210236   9.095920
          Atomic-Atomic Spin Densities.
               1          2          3          4          5          6
     1  C   -0.048602  -0.019352   0.005463   0.003132   0.003019  -0.000673
     2  F   -0.019352   0.058630   0.001189   0.003482  -0.003699  -0.000271
     3  F    0.005463   0.001189   0.001868  -0.000119   0.000917   0.000246
     4  F    0.003132   0.003482  -0.000119   0.172768   0.002250   0.000552
     5  F    0.003019  -0.003699   0.000917   0.002250   0.025096   0.000353
     6  F   -0.000673  -0.000271   0.000246   0.000552   0.000353   0.016505
     7  F   -0.004424   0.002641   0.000389   0.002066  -0.000524  -0.001223
     8  C    0.049001  -0.023042  -0.005438  -0.115346  -0.023254  -0.015832
     9  C    0.017075  -0.003384  -0.000942   0.001045   0.000054   0.005742
    10  F   -0.000821  -0.000067   0.000004   0.000607   0.000039   0.001049
               7          8          9         10
     1  C   -0.004424   0.049001   0.017075  -0.000821
     2  F    0.002641  -0.023042  -0.003384  -0.000067
     3  F    0.000389  -0.005438  -0.000942   0.000004
     4  F    0.002066  -0.115346   0.001045   0.000607
     5  F   -0.000524  -0.023254   0.000054   0.000039
     6  F   -0.001223  -0.015832   0.005742   0.001049
     7  F    0.059969  -0.021900  -0.016524  -0.000603
     8  C   -0.021900   1.003641   0.035089  -0.006358
     9  C   -0.016524   0.035089  -0.050950   0.008476
    10  F   -0.000603  -0.006358   0.008476   0.000909
 Mulliken charges and spin densities:
               1          2
     1  C    0.812719   0.003818
     2  F   -0.261894   0.016126
     3  F   -0.296391   0.003578
     4  F   -0.225786   0.070437
     5  F   -0.271129   0.004250
     6  F   -0.260802   0.006447
     7  F   -0.268409   0.019867
     8  C    0.303017   0.876561
     9  C    0.757073  -0.004319
    10  F   -0.288398   0.003235
 Sum of Mulliken charges =  -0.00000   1.00000
 Mulliken charges and spin densities with hydrogens summed into heavy atoms:
               1          2
     1  C    0.812719   0.003818
     2  F   -0.261894   0.016126
     3  F   -0.296391   0.003578
     4  F   -0.225786   0.070437
     5  F   -0.271129   0.004250
     6  F   -0.260802   0.006447
     7  F   -0.268409   0.019867
     8  C    0.303017   0.876561
     9  C    0.757073  -0.004319
    10  F   -0.288398   0.003235
 APT charges:
               1
     1  C    1.655425
     2  F   -0.546656
     3  F   -0.503631
     4  F   -0.409632
     5  F   -0.542114
     6  F   -0.513103
     7  F   -0.542334
     8  C    0.280592
     9  C    1.649918
    10  F   -0.528464
 Sum of APT charges =   0.00000
 APT charges with hydrogens summed into heavy atoms:
               1
     1  C    1.655425
     2  F   -0.546656
     3  F   -0.503631
     4  F   -0.409632
     5  F   -0.542114
     6  F   -0.513103
     7  F   -0.542334
     8  C    0.280592
     9  C    1.649918
    10  F   -0.528464
 Electronic spatial extent (au):  <R**2>=           1222.2879
 Charge=              0.0000 electrons
 Dipole moment (field-independent basis, Debye):
    X=              0.0510    Y=              0.3786    Z=             -0.3035  Tot=              0.4879
 Quadrupole moment (field-independent basis, Debye-Ang):
   XX=            -54.3952   YY=            -53.0179   ZZ=            -52.1653
   XY=              0.1925   XZ=             -0.0178   YZ=             -0.0786
 Traceless Quadrupole moment (field-independent basis, Debye-Ang):
   XX=             -1.2024   YY=              0.1749   ZZ=              1.0275
   XY=              0.1925   XZ=             -0.0178   YZ=             -0.0786
 Octapole moment (field-independent basis, Debye-Ang**2):
  XXX=              0.4903  YYY=             -1.6577  ZZZ=              0.3788  XYY=             -0.5674
  XXY=             -1.7157  XXZ=              1.0842  XZZ=              0.5938  YZZ=              0.6220
  YYZ=              1.3462  XYZ=             -0.0825
 Hexadecapole moment (field-independent basis, Debye-Ang**3):
 XXXX=           -733.5386 YYYY=           -277.8373 ZZZZ=           -172.5170 XXXY=             -0.1613
 XXXZ=             -0.6341 YYYX=             -0.7562 YYYZ=              0.9236 ZZZX=             -0.1134
 ZZZY=              0.9252 XXYY=           -167.9980 XXZZ=           -154.0941 YYZZ=            -74.3095
 XXYZ=              0.6217 YYXZ=              0.1590 ZZXY=              1.4818
 N-N= 6.397053976790D+02 E-N=-3.212120260177D+03  KE= 8.111690337637D+02
  Exact polarizability:  43.785  -0.208  41.453   0.010   0.076  37.247
 Approx polarizability:  41.779  -0.257  46.198  -0.008   0.396  42.504
                          Isotropic Fermi Contact Couplings
        Atom                 a.u.       MegaHertz       Gauss      10(-4) cm-1
     1  C(13)             -0.02745     -30.86060     -11.01183     -10.29399
     2  F(19)              0.02304      96.95300      34.59524      32.34004
     3  F(19)             -0.00170      -7.16304      -2.55595      -2.38933
     4  F(19)              0.03971     167.07026      59.61482      55.72864
     5  F(19)              0.01007      42.36477      15.11680      14.13137
     6  F(19)              0.01047      44.03786      15.71380      14.68945
     7  F(19)              0.03030     127.47387      45.48584      42.52070
     8  C(13)              0.13085     147.10572      52.49098      49.06919
     9  C(13)             -0.02721     -30.58923     -10.91500     -10.20347
    10  F(19)             -0.00108      -4.53363      -1.61771      -1.51226
 --------------------------------------------------------
       Center         ----  Spin Dipole Couplings  ----
                      3XX-RR        3YY-RR        3ZZ-RR
 --------------------------------------------------------
     1   Atom        0.015740     -0.012707     -0.003033
     2   Atom        0.162919     -0.116590     -0.046330
     3   Atom       -0.027644     -0.012051      0.039695
     4   Atom       -0.462142     -0.562838      1.024980
     5   Atom        0.109613     -0.057449     -0.052164
     6   Atom       -0.017545      0.061310     -0.043765
     7   Atom        0.072464     -0.019171     -0.053293
     8   Atom       -0.571298     -0.585096      1.156394
     9   Atom        0.014463     -0.011175     -0.003288
    10   Atom       -0.008388     -0.015338      0.023726
 --------------------------------------------------------
                        XY            XZ            YZ
 --------------------------------------------------------
     1   Atom        0.014028      0.013905      0.005026
     2   Atom        0.038964     -0.146796     -0.023478
     3   Atom       -0.005446      0.008251     -0.014209
     4   Atom        0.002965     -0.001955     -0.043091
     5   Atom       -0.022004     -0.026033      0.002986
     6   Atom       -0.069581      0.022177     -0.033396
     7   Atom       -0.158336      0.137722     -0.099701
     8   Atom        0.001196     -0.003660     -0.054631
     9   Atom       -0.014765     -0.013096      0.005893
    10   Atom        0.011161      0.017861      0.010725
 --------------------------------------------------------


 ---------------------------------------------------------------------------------
              Anisotropic Spin Dipole Couplings in Principal Axis System
 ---------------------------------------------------------------------------------

       Atom             a.u.   MegaHertz   Gauss  10(-4) cm-1        Axes

              Baa    -0.0185    -2.483    -0.886    -0.828 -0.4000  0.9144  0.0624
     1 C(13)  Bbb    -0.0099    -1.333    -0.476    -0.445 -0.3676 -0.2224  0.9030
              Bcc     0.0284     3.815     1.361     1.273  0.8396  0.3382  0.4251
 
              Baa    -0.1251   -62.848   -22.426   -20.964  0.2349  0.7206  0.6523
     2 F(19)  Bbb    -0.1191   -59.830   -21.349   -19.957 -0.4096  0.6820 -0.6059
              Bcc     0.2443   122.678    43.775    40.921  0.8815  0.1248 -0.4554
 
              Baa    -0.0296   -14.861    -5.303    -4.957  0.9666  0.2481 -0.0642
     3 F(19)  Bbb    -0.0150    -7.515    -2.681    -2.507 -0.2217  0.9351  0.2766
              Bcc     0.0446    22.375     7.984     7.464  0.1287 -0.2531  0.9588
 
              Baa    -0.5641  -283.300  -101.089   -94.499 -0.0285  0.9992  0.0271
     4 F(19)  Bbb    -0.4621  -232.059   -82.804   -77.407  0.9996  0.0285  0.0021
              Bcc     1.0262   515.359   183.893   171.905 -0.0014 -0.0271  0.9996
 
              Baa    -0.0603   -30.301   -10.812   -10.107  0.1415  0.9858  0.0907
     5 F(19)  Bbb    -0.0562   -28.225   -10.071    -9.415  0.1398 -0.1106  0.9840
              Bcc     0.1165    58.525    20.883    19.522  0.9800 -0.1266 -0.1535
 
              Baa    -0.0591   -29.688   -10.593    -9.903  0.8382  0.3743 -0.3967
     6 F(19)  Bbb    -0.0530   -26.629    -9.502    -8.882  0.2382  0.4031  0.8836
              Bcc     0.1121    56.316    20.095    18.785 -0.4906  0.8351 -0.2487
 
              Baa    -0.1422   -71.422   -25.485   -23.824 -0.6371 -0.2216  0.7382
     7 F(19)  Bbb    -0.1364   -68.481   -24.436   -22.843  0.2918  0.8172  0.4971
              Bcc     0.2786   139.903    49.921    46.666  0.7134 -0.5321  0.4559
 
              Baa    -0.5869   -78.754   -28.101   -26.270 -0.0692  0.9971  0.0311
     8 C(13)  Bbb    -0.5712   -76.654   -27.352   -25.569  0.9976  0.0691  0.0043
              Bcc     1.1581   155.408    55.453    51.838 -0.0021 -0.0313  0.9995
 
              Baa    -0.0179    -2.403    -0.858    -0.802  0.4176  0.9086  0.0078
     9 C(13)  Bbb    -0.0099    -1.331    -0.475    -0.444  0.3778 -0.1814  0.9079
              Bcc     0.0278     3.734     1.332     1.246  0.8264 -0.3762 -0.4191
 
              Baa    -0.0237   -11.894    -4.244    -3.968 -0.6378  0.7673  0.0667
    10 F(19)  Bbb    -0.0121    -6.067    -2.165    -2.024  0.6460  0.5801 -0.4960
              Bcc     0.0358    17.961     6.409     5.991  0.4193  0.2733  0.8657
 

 ---------------------------------------------------------------------------------

 Calling FoFJK, ICntrl=    100127 FMM=F ISym2X=0 I1Cent= 0 IOpClX= 1 NMat=1 NMatS=1 NMatT=0.
 Full mass-weighted force constant matrix:
 Low frequencies ---   -7.7528   -4.0862   -1.8098   -0.0009   -0.0007   -0.0007
 Low frequencies ---   26.9556   38.7884  126.8076
 Diagonal vibrational polarizability:
       14.0262557      15.2205943      17.1626984
 Harmonic frequencies (cm**-1), IR intensities (KM/Mole), Raman scattering
 activities (A**4/AMU), depolarization ratios for plane and unpolarized
 incident light, reduced masses (AMU), force constants (mDyne/A),
 and normal coordinates:
                      1                      2                      3
                      A                      A                      A
 Frequencies --     26.8775                38.7837               126.8074
 Red. masses --     18.8803                18.6537                17.5471
 Frc consts  --      0.0080                 0.0165                 0.1662
 IR Inten    --      0.1001                 0.0952                 0.8932
  Atom  AN      X      Y      Z        X      Y      Z        X      Y      Z
     1   6     0.00   0.03   0.08    -0.02  -0.00  -0.04    -0.10  -0.02   0.12
     2   9    -0.18   0.36  -0.03    -0.31   0.11  -0.17    -0.37  -0.12   0.04
     3   9     0.11  -0.03   0.47     0.04  -0.02   0.10    -0.28  -0.01  -0.01
     4   9     0.01   0.03  -0.02     0.01  -0.03   0.58    -0.02  -0.08  -0.39
     5   9     0.08  -0.27  -0.18     0.15  -0.10  -0.30     0.16   0.26  -0.01
     6   9     0.05   0.24  -0.36    -0.21  -0.10   0.06     0.12   0.07  -0.01
     7   9    -0.07  -0.40  -0.20     0.33   0.16   0.00     0.48  -0.14   0.03
     8   6    -0.00   0.02   0.07     0.00   0.02   0.21    -0.00  -0.18   0.36
     9   6    -0.01  -0.02  -0.05     0.02   0.00  -0.03     0.10  -0.03   0.11
    10   9    -0.01   0.06   0.26    -0.00  -0.05  -0.38    -0.09   0.17  -0.01
                      4                      5                      6
                      A                      A                      A
 Frequencies --    162.4855               259.5299               295.5608
 Red. masses --     17.8886                18.5142                18.2496
 Frc consts  --      0.2783                 0.7347                 0.9393
 IR Inten    --      2.1979                 0.9672                 1.1984
  Atom  AN      X      Y      Z        X      Y      Z        X      Y      Z
     1   6    -0.08  -0.05  -0.09    -0.14   0.12   0.07    -0.07   0.07  -0.21
     2   9     0.18   0.28  -0.04    -0.35  -0.09   0.02     0.29   0.25  -0.10
     3   9    -0.48  -0.10   0.06     0.26   0.15  -0.02     0.04   0.08  -0.22
     4   9    -0.04  -0.29   0.30     0.59   0.00   0.03     0.11   0.02  -0.03
     5   9    -0.09   0.08  -0.02    -0.28  -0.08   0.10    -0.41  -0.25  -0.02
     6   9     0.49  -0.04  -0.00     0.35  -0.13   0.03    -0.23  -0.01   0.11
     7   9     0.01   0.07  -0.04    -0.13   0.02  -0.04     0.48  -0.22   0.09
     8   6     0.00  -0.23  -0.27    -0.06  -0.00   0.00    -0.01   0.02   0.00
     9   6     0.09  -0.04  -0.09    -0.07  -0.11  -0.10    -0.04  -0.06   0.22
    10   9    -0.09   0.20   0.02    -0.27   0.12  -0.12    -0.20   0.12   0.16
                      7                      8                      9
                      A                      A                      A
 Frequencies --    322.1520               349.3588               457.1469
 Red. masses --     18.2951                18.6390                17.6010
 Frc consts  --      1.1187                 1.3403                 2.1672
 IR Inten    --      0.2972                 0.2164                 2.6536
  Atom  AN      X      Y      Z        X      Y      Z        X      Y      Z
     1   6    -0.19   0.01  -0.02    -0.00  -0.16  -0.01    -0.01   0.04   0.04
     2   9    -0.28  -0.02  -0.04     0.09  -0.20   0.02     0.17  -0.10   0.15
     3   9    -0.17   0.02  -0.05    -0.40  -0.22   0.07    -0.34   0.05  -0.07
     4   9    -0.03   0.09  -0.00     0.59  -0.00  -0.02    -0.01   0.43   0.00
     5   9    -0.44  -0.19   0.11     0.10  -0.16  -0.11     0.05  -0.29  -0.21
     6   9     0.14   0.13  -0.07    -0.34   0.25  -0.13     0.25  -0.04   0.22
     7   9     0.14   0.14   0.00    -0.07   0.24   0.06    -0.13  -0.30  -0.07
     8   6     0.01   0.08  -0.02     0.06  -0.01  -0.02     0.01   0.29   0.33
     9   6     0.22   0.09  -0.02    -0.04   0.14   0.03     0.02   0.06   0.03
    10   9     0.61  -0.28   0.09     0.02   0.11   0.11     0.00   0.01  -0.28
                     10                     11                     12
                      A                      A                      A
 Frequencies --    489.2917               541.5574               550.3018
 Red. masses --     16.8871                17.9157                17.9334
 Frc consts  --      2.3820                 3.0958                 3.1997
 IR Inten    --      2.6245                 3.6676                 0.8034
  Atom  AN      X      Y      Z        X      Y      Z        X      Y      Z
     1   6    -0.04   0.07  -0.12     0.13  -0.14   0.17    -0.07   0.15   0.20
     2   9    -0.01  -0.37  -0.11    -0.24   0.27   0.01     0.03  -0.04   0.38
     3   9    -0.05  -0.00   0.40    -0.05  -0.13  -0.31    -0.06   0.30  -0.16
     4   9    -0.01   0.20   0.06     0.03  -0.01   0.00    -0.07   0.01  -0.00
     5   9    -0.08   0.18  -0.09     0.16  -0.17   0.29     0.15  -0.22  -0.26
     6   9    -0.07  -0.26   0.21    -0.20  -0.26   0.24     0.04  -0.28  -0.21
     7   9     0.19  -0.11  -0.25    -0.10  -0.06  -0.34     0.17   0.33  -0.12
     8   6    -0.00   0.21  -0.47     0.11   0.00  -0.02    -0.11   0.00  -0.00
     9   6     0.03   0.04  -0.10     0.13   0.15  -0.18    -0.08  -0.16  -0.21
    10   9     0.04   0.15   0.21     0.17   0.34   0.13    -0.09  -0.10   0.37
                     13                     14                     15
                      A                      A                      A
 Frequencies --    616.1588               646.5029               708.4322
 Red. masses --     17.4228                14.6386                16.5085
 Frc consts  --      3.8972                 3.6049                 4.8815
 IR Inten    --      0.4209                 0.6714                48.8138
  Atom  AN      X      Y      Z        X      Y      Z        X      Y      Z
     1   6     0.12  -0.17  -0.10    -0.08   0.02  -0.16     0.27   0.19  -0.04
     2   9     0.01   0.11  -0.30     0.21  -0.05  -0.09    -0.06  -0.15  -0.24
     3   9    -0.05  -0.37  -0.00     0.08   0.01   0.14    -0.18   0.33   0.10
     4   9    -0.00   0.42   0.01     0.00  -0.14  -0.05    -0.12  -0.01  -0.00
     5   9     0.03   0.07   0.27    -0.25   0.14  -0.16     0.00  -0.21   0.18
     6   9     0.15  -0.20  -0.22    -0.06  -0.18   0.00    -0.09  -0.21  -0.29
     7   9     0.10   0.21   0.01    -0.15   0.12  -0.19    -0.11  -0.02   0.32
     8   6     0.00   0.22   0.28     0.00  -0.16   0.73     0.37   0.00   0.00
     9   6    -0.12  -0.16  -0.10     0.09   0.04  -0.15     0.28  -0.18   0.03
    10   9    -0.23  -0.18   0.18     0.16   0.17   0.08    -0.02   0.25  -0.06
                     16                     17                     18
                      A                      A                      A
 Frequencies --    781.4397               999.7862              1138.9622
 Red. masses --     17.8007                14.4700                13.2881
 Frc consts  --      6.4044                 8.5219                10.1562
 IR Inten    --      2.9910               190.2554                30.2941
  Atom  AN      X      Y      Z        X      Y      Z        X      Y      Z
     1   6    -0.23  -0.13   0.04     0.30   0.08  -0.11    -0.14   0.04  -0.55
     2   9    -0.04   0.11   0.34    -0.13   0.01   0.25    -0.05   0.01   0.16
     3   9     0.14  -0.34  -0.09    -0.01  -0.15  -0.01     0.01   0.03   0.04
     4   9    -0.00   0.20   0.02    -0.07  -0.00   0.00     0.01   0.03   0.01
     5   9    -0.13   0.19  -0.24    -0.22   0.07  -0.14     0.15  -0.06   0.14
     6   9    -0.06  -0.25  -0.27    -0.04   0.13   0.08     0.03  -0.09  -0.12
     7   9    -0.05  -0.10   0.36    -0.05   0.10  -0.21    -0.04   0.09  -0.24
     8   6    -0.00   0.06  -0.15     0.66   0.02  -0.00    -0.10  -0.04  -0.01
     9   6     0.24  -0.11   0.03     0.27  -0.10   0.11    -0.08  -0.14   0.67
    10   9     0.15   0.30  -0.07    -0.25  -0.15   0.03     0.09   0.08  -0.06
                     19                     20                     21
                      A                      A                      A
 Frequencies --   1161.4979              1195.2160              1222.5262
 Red. masses --     13.2170                13.1621                13.3109
 Frc consts  --     10.5055                11.0782                11.7212
 IR Inten    --    481.5894               110.4213               125.1931
  Atom  AN      X      Y      Z        X      Y      Z        X      Y      Z
     1   6    -0.18   0.09   0.67     0.24  -0.51   0.14    -0.43  -0.32  -0.18
     2   9     0.12  -0.02  -0.27    -0.02   0.03  -0.01     0.04   0.02  -0.01
     3   9     0.02  -0.04  -0.05    -0.02   0.19   0.01     0.04   0.19   0.03
     4   9    -0.01   0.11   0.01     0.03  -0.05  -0.00     0.00   0.24   0.03
     5   9    -0.05   0.02  -0.09    -0.12   0.07  -0.09     0.12  -0.02   0.08
     6   9    -0.02   0.01  -0.03     0.05  -0.22  -0.16    -0.07   0.08   0.07
     7   9    -0.05   0.09  -0.21     0.00  -0.03  -0.03    -0.04   0.00  -0.00
     8   6     0.01  -0.17  -0.08    -0.01   0.07  -0.02     0.01  -0.39  -0.03
     9   6     0.15  -0.24   0.47     0.01   0.62   0.33     0.55   0.07  -0.16
    10   9     0.00   0.03  -0.03    -0.08  -0.10  -0.01    -0.18  -0.11   0.04
                     22                     23                     24
                      A                      A                      A
 Frequencies --   1251.8476              1372.9232              1442.1755
 Red. masses --     13.0975                12.1676                12.8470
 Frc consts  --     12.0933                13.5128                15.7430
 IR Inten    --    510.6416               275.9851                 7.2662
  Atom  AN      X      Y      Z        X      Y      Z        X      Y      Z
     1   6    -0.33   0.60   0.00    -0.48  -0.20   0.05    -0.29  -0.25   0.03
     2   9     0.04  -0.04  -0.04     0.03   0.00  -0.03     0.04   0.02  -0.04
     3   9     0.02  -0.23  -0.03     0.04   0.07   0.01     0.01   0.05   0.01
     4   9    -0.01  -0.13  -0.01    -0.04   0.01  -0.00     0.01  -0.31  -0.05
     5   9     0.10  -0.08   0.07     0.05  -0.01   0.02     0.06   0.00   0.03
     6   9     0.02  -0.14  -0.09     0.04  -0.02  -0.02    -0.02   0.04   0.02
     7   9    -0.00  -0.05   0.03     0.03  -0.01   0.02    -0.02   0.03  -0.03
     8   6     0.09   0.07   0.01     0.65  -0.00  -0.00    -0.02   0.76   0.06
     9   6     0.18   0.57   0.06    -0.52   0.05  -0.04     0.31  -0.22   0.02
    10   9    -0.13  -0.13   0.02     0.07   0.04  -0.01    -0.07  -0.02   0.00

 -------------------
 - Thermochemistry -
 -------------------
 Temperature   298.150 Kelvin.  Pressure   1.00000 Atm.
 Atom     1 has atomic number  6 and mass  12.00000
 Atom     2 has atomic number  9 and mass  18.99840
 Atom     3 has atomic number  9 and mass  18.99840
 Atom     4 has atomic number  9 and mass  18.99840
 Atom     5 has atomic number  9 and mass  18.99840
 Atom     6 has atomic number  9 and mass  18.99840
 Atom     7 has atomic number  9 and mass  18.99840
 Atom     8 has atomic number  6 and mass  12.00000
 Atom     9 has atomic number  6 and mass  12.00000
 Atom    10 has atomic number  9 and mass  18.99840
 Molecular mass:   168.98882 amu.
 Principal axes and moments of inertia in atomic units:
                           1         2         3
     Eigenvalues --   860.666701772.918102007.29307
           X            1.00000   0.00006  -0.00000
           Y           -0.00006   1.00000  -0.00119
           Z            0.00000   0.00119   1.00000
 This molecule is an asymmetric top.
 Rotational symmetry number  1.
 Warning -- assumption of classical behavior for rotation
           may cause significant error
 Rotational temperatures (Kelvin)      0.10064     0.04885     0.04315
 Rotational constants (GHZ):           2.09691     1.01795     0.89909
 Zero-point vibrational energy      96642.2 (Joules/Mol)
                                   23.09805 (Kcal/Mol)
 Warning -- explicit consideration of  13 degrees of freedom as
           vibrations may cause significant error
 Vibrational temperatures:     38.67    55.80   182.45   233.78   373.41
          (Kelvin)            425.25   463.50   502.65   657.73   703.98
                              779.18   791.76   886.52   930.17  1019.28
                             1124.32  1438.47  1638.71  1671.14  1719.65
                             1758.94  1801.13  1975.33  2074.97
 
 Zero-point correction=                           0.036809 (Hartree/Particle)
 Thermal correction to Energy=                    0.045839
 Thermal correction to Enthalpy=                  0.046783
 Thermal correction to Gibbs Free Energy=        -0.000184
 Sum of electronic and zero-point Energies=           -813.159697
 Sum of electronic and thermal Energies=              -813.150668
 Sum of electronic and thermal Enthalpies=            -813.149724
 Sum of electronic and thermal Free Energies=         -813.196690
 
                     E (Thermal)             CV                S
                      KCal/Mol        Cal/Mol-Kelvin    Cal/Mol-Kelvin
 Total                   28.764             30.359             98.850
 Electronic               0.000              0.000              1.377
 Translational            0.889              2.981             41.282
 Rotational               0.889              2.981             29.506
 Vibrational             26.987             24.397             26.685
 Vibration     1          0.593              1.984              6.047
 Vibration     2          0.594              1.981              5.320
 Vibration     3          0.611              1.926              2.994
 Vibration     4          0.623              1.888              2.521
 Vibration     5          0.668              1.747              1.665
 Vibration     6          0.690              1.682              1.442
 Vibration     7          0.707              1.631              1.299
 Vibration     8          0.727              1.577              1.169
 Vibration     9          0.815              1.345              0.774
 Vibration    10          0.845              1.274              0.685
 Vibration    11          0.897              1.158              0.562
 Vibration    12          0.906              1.139              0.544
 Vibration    13          0.976              0.998              0.423
                       Q            Log10(Q)             Ln(Q)
 Total Bot       0.121492D+01          0.084549          0.194682
 Total V=0       0.103643D+18         17.015539         39.179727
 Vib (Bot)       0.112296D-13        -13.949634        -32.120220
 Vib (Bot)    1  0.770458D+01          0.886749          2.041815
 Vib (Bot)    2  0.533529D+01          0.727158          1.674343
 Vib (Bot)    3  0.160895D+01          0.206542          0.475580
 Vib (Bot)    4  0.124325D+01          0.094558          0.217727
 Vib (Bot)    5  0.748570D+00         -0.125767         -0.289590
 Vib (Bot)    6  0.645042D+00         -0.190412         -0.438441
 Vib (Bot)    7  0.582768D+00         -0.234504         -0.539966
 Vib (Bot)    8  0.528328D+00         -0.277096         -0.638038
 Vib (Bot)    9  0.372940D+00         -0.428361         -0.986337
 Vib (Bot)   10  0.339078D+00         -0.469700         -1.081525
 Vib (Bot)   11  0.292123D+00         -0.534435         -1.230581
 Vib (Bot)   12  0.285092D+00         -0.545015         -1.254942
 Vib (Bot)   13  0.238304D+00         -0.622869         -1.434210
 Vib (V=0)       0.957978D+03          2.981356          6.864825
 Vib (V=0)    1  0.822078D+01          0.914913          2.106666
 Vib (V=0)    2  0.585867D+01          0.767799          1.767922
 Vib (V=0)    3  0.218485D+01          0.339421          0.781546
 Vib (V=0)    4  0.184002D+01          0.264824          0.609779
 Vib (V=0)    5  0.140020D+01          0.146190          0.336614
 Vib (V=0)    6  0.131614D+01          0.119301          0.274700
 Vib (V=0)    7  0.126787D+01          0.103073          0.237335
 Vib (V=0)    8  0.122741D+01          0.088991          0.204909
 Vib (V=0)    9  0.112377D+01          0.050676          0.116686
 Vib (V=0)   10  0.110413D+01          0.043021          0.099058
 Vib (V=0)   11  0.107908D+01          0.033054          0.076110
 Vib (V=0)   12  0.107557D+01          0.031638          0.072848
 Vib (V=0)   13  0.105389D+01          0.022793          0.052483
 Electronic      0.200000D+01          0.301030          0.693147
 Translational   0.863457D+08          7.936241         18.273870
 Rotational      0.626488D+06          5.796913         13.347885
 ***** Axes restored to original set *****
 -------------------------------------------------------------------
 Center     Atomic                   Forces (Hartrees/Bohr)
 Number     Number              X              Y              Z
 -------------------------------------------------------------------
      1        6           0.000001989   -0.000003167    0.000003784
      2        9          -0.000000329   -0.000005915    0.000001331
      3        9          -0.000001334    0.000001650   -0.000003876
      4        9           0.000003872    0.000001012   -0.000004116
      5        9           0.000001978    0.000005542   -0.000000409
      6        9          -0.000002917    0.000003782   -0.000003827
      7        9          -0.000001176    0.000004766    0.000002036
      8        6          -0.000011308   -0.000001372   -0.000001597
      9        6           0.000010436   -0.000007022    0.000003245
     10        9          -0.000001211    0.000000726    0.000003427
 -------------------------------------------------------------------
 Cartesian Forces:  Max     0.000011308 RMS     0.000004215
 FormGI is forming the generalized inverse of G from B-inverse, IUseBI=4.

 GradGradGradGradGradGradGradGradGradGradGradGradGradGradGradGradGradGrad
 Berny optimization.
 Internal  Forces:  Max     0.000010445 RMS     0.000003631
 Search for a local minimum.
 Step number   1 out of a maximum of    2
 All quantities printed in internal units (Hartrees-Bohrs-Radians)
 Second derivative matrix not updated -- analytic derivatives used.
 ITU=  0
     Eigenvalues ---    0.00125   0.00135   0.00790   0.11490   0.11677
     Eigenvalues ---    0.12337   0.13683   0.17190   0.17859   0.21559
     Eigenvalues ---    0.22101   0.23744   0.24870   0.25360   0.27159
     Eigenvalues ---    0.36483   0.36907   0.38420   0.39172   0.39739
     Eigenvalues ---    0.42196   0.49609   0.54221   0.55078
 Angle between quadratic step and forces=  67.49 degrees.
 Linear search not attempted -- first point.
 Iteration  1 RMS(Cart)=  0.00009117 RMS(Int)=  0.00000000
 Iteration  2 RMS(Cart)=  0.00000001 RMS(Int)=  0.00000000
 Variable       Old X    -DE/DX   Delta X   Delta X   Delta X     New X
                                 (Linear)    (Quad)   (Total)
    R1        2.53037  -0.00000   0.00000  -0.00001  -0.00001   2.53036
    R2        2.51113  -0.00000   0.00000  -0.00000  -0.00000   2.51113
    R3        2.51944  -0.00001   0.00000  -0.00001  -0.00001   2.51943
    R4        2.83452   0.00000   0.00000   0.00001   0.00001   2.83452
    R5        2.48249   0.00000   0.00000  -0.00000  -0.00000   2.48249
    R6        2.51556  -0.00001   0.00000  -0.00002  -0.00002   2.51554
    R7        2.53443   0.00000   0.00000   0.00001   0.00001   2.53444
    R8        2.84245   0.00000   0.00000   0.00003   0.00003   2.84248
    R9        2.50973  -0.00000   0.00000  -0.00001  -0.00001   2.50972
    A1        1.88960  -0.00000   0.00000  -0.00000  -0.00000   1.88959
    A2        1.87361  -0.00000   0.00000  -0.00001  -0.00001   1.87360
    A3        1.94262   0.00000   0.00000   0.00002   0.00002   1.94264
    A4        1.90106   0.00000   0.00000   0.00001   0.00001   1.90107
    A5        1.92895  -0.00000   0.00000  -0.00004  -0.00004   1.92892
    A6        1.92647   0.00000   0.00000   0.00003   0.00003   1.92650
    A7        1.99853   0.00001   0.00000   0.00006   0.00006   1.99859
    A8        2.16662  -0.00001   0.00000  -0.00008  -0.00008   2.16654
    A9        2.02443  -0.00000   0.00000  -0.00002  -0.00002   2.02441
   A10        1.87650   0.00000   0.00000   0.00001   0.00001   1.87651
   A11        1.93539   0.00000   0.00000   0.00003   0.00003   1.93542
   A12        1.89964  -0.00000   0.00000  -0.00000  -0.00000   1.89964
   A13        1.95007  -0.00000   0.00000  -0.00003  -0.00003   1.95005
   A14        1.88538   0.00000   0.00000   0.00000   0.00000   1.88539
   A15        1.91530  -0.00000   0.00000  -0.00001  -0.00001   1.91528
    D1       -1.05794   0.00000   0.00000   0.00003   0.00003  -1.05791
    D2        1.61240  -0.00000   0.00000  -0.00007  -0.00007   1.61232
    D3        3.12487   0.00000   0.00000   0.00005   0.00005   3.12492
    D4       -0.48798   0.00000   0.00000  -0.00006  -0.00006  -0.48804
    D5        1.02072   0.00000   0.00000   0.00004   0.00004   1.02076
    D6       -2.59213  -0.00000   0.00000  -0.00006  -0.00006  -2.59219
    D7        1.08436   0.00000   0.00000   0.00015   0.00015   1.08451
    D8       -1.00877  -0.00000   0.00000   0.00014   0.00014  -1.00863
    D9       -3.09959   0.00000   0.00000   0.00016   0.00016  -3.09943
   D10       -2.53476   0.00000   0.00000   0.00006   0.00006  -2.53470
   D11        1.65530  -0.00000   0.00000   0.00005   0.00005   1.65535
   D12       -0.43552   0.00000   0.00000   0.00007   0.00007  -0.43545
         Item               Value     Threshold  Converged?
 Maximum Force            0.000010     0.000450     YES
 RMS     Force            0.000004     0.000300     YES
 Maximum Displacement     0.000275     0.001800     YES
 RMS     Displacement     0.000091     0.001200     YES
 Predicted change in Energy=-1.408833D-09
 Optimization completed.
    -- Stationary point found.
                           ----------------------------
                           !   Optimized Parameters   !
                           ! (Angstroms and Degrees)  !
 --------------------------                            --------------------------
 ! Name  Definition              Value          Derivative Info.                !
 --------------------------------------------------------------------------------
 ! R1    R(1,2)                  1.339          -DE/DX =    0.0                 !
 ! R2    R(1,3)                  1.3288         -DE/DX =    0.0                 !
 ! R3    R(1,5)                  1.3332         -DE/DX =    0.0                 !
 ! R4    R(1,8)                  1.5            -DE/DX =    0.0                 !
 ! R5    R(4,8)                  1.3137         -DE/DX =    0.0                 !
 ! R6    R(6,9)                  1.3312         -DE/DX =    0.0                 !
 ! R7    R(7,9)                  1.3412         -DE/DX =    0.0                 !
 ! R8    R(8,9)                  1.5042         -DE/DX =    0.0                 !
 ! R9    R(9,10)                 1.3281         -DE/DX =    0.0                 !
 ! A1    A(2,1,3)              108.2659         -DE/DX =    0.0                 !
 ! A2    A(2,1,5)              107.3499         -DE/DX =    0.0                 !
 ! A3    A(2,1,8)              111.3039         -DE/DX =    0.0                 !
 ! A4    A(3,1,5)              108.9224         -DE/DX =    0.0                 !
 ! A5    A(3,1,8)              110.5208         -DE/DX =    0.0                 !
 ! A6    A(5,1,8)              110.3788         -DE/DX =    0.0                 !
 ! A7    A(1,8,4)              114.5075         -DE/DX =    0.0                 !
 ! A8    A(1,8,9)              124.1384         -DE/DX =    0.0                 !
 ! A9    A(4,8,9)              115.9914         -DE/DX =    0.0                 !
 ! A10   A(6,9,7)              107.5153         -DE/DX =    0.0                 !
 ! A11   A(6,9,8)              110.8896         -DE/DX =    0.0                 !
 ! A12   A(6,9,10)             108.8416         -DE/DX =    0.0                 !
 ! A13   A(7,9,8)              111.7309         -DE/DX =    0.0                 !
 ! A14   A(7,9,10)             108.0246         -DE/DX =    0.0                 !
 ! A15   A(8,9,10)             109.7383         -DE/DX =    0.0                 !
 ! D1    D(2,1,8,4)            -60.6156         -DE/DX =    0.0                 !
 ! D2    D(2,1,8,9)             92.3836         -DE/DX =    0.0                 !
 ! D3    D(3,1,8,4)            179.0417         -DE/DX =    0.0                 !
 ! D4    D(3,1,8,9)            -27.9592         -DE/DX =    0.0                 !
 ! D5    D(5,1,8,4)             58.4829         -DE/DX =    0.0                 !
 ! D6    D(5,1,8,9)           -148.518          -DE/DX =    0.0                 !
 ! D7    D(1,8,9,6)             62.129          -DE/DX =    0.0                 !
 ! D8    D(1,8,9,7)            -57.7981         -DE/DX =    0.0                 !
 ! D9    D(1,8,9,10)          -177.5932         -DE/DX =    0.0                 !
 ! D10   D(4,8,9,6)           -145.2313         -DE/DX =    0.0                 !
 ! D11   D(4,8,9,7)             94.8417         -DE/DX =    0.0                 !
 ! D12   D(4,8,9,10)           -24.9535         -DE/DX =    0.0                 !
 --------------------------------------------------------------------------------
 GradGradGradGradGradGradGradGradGradGradGradGradGradGradGradGradGradGrad


 ----------------------------------------------------------------------

 Electric dipole moment (input orientation):
 (Debye = 10**-18 statcoulomb cm , SI units = C m)
                  (au)            (Debye)         (10**-30 SI)
   Tot        0.191947D+00      0.487881D+00      0.162740D+01
   x         -0.838062D-01     -0.213014D+00     -0.710538D+00
   y         -0.112882D+00     -0.286916D+00     -0.957050D+00
   z         -0.130683D+00     -0.332163D+00     -0.110797D+01

 Dipole polarizability, Alpha (input orientation).
 (esu units = cm**3 , SI units = C**2 m**2 J**-1)
 Alpha(0;0):
               (au)            (10**-24 esu)      (10**-40 SI)
   iso        0.408288D+02      0.605020D+01      0.673175D+01
   aniso      0.575180D+01      0.852328D+00      0.948343D+00
   xx         0.429061D+02      0.635803D+01      0.707426D+01
   yx         0.180588D+00      0.267605D-01      0.297750D-01
   yy         0.372857D+02      0.552517D+01      0.614758D+01
   zx        -0.113694D+01     -0.168477D+00     -0.187455D+00
   zy        -0.440234D+00     -0.652359D-01     -0.725848D-01
   zz         0.422945D+02      0.626741D+01      0.697343D+01

 ----------------------------------------------------------------------

 Dipole orientation:
     6         -1.56193671          0.70522741         -0.93613439
     9         -2.94760670         -0.97236432         -2.22778855
     9         -0.56073576          2.32544073         -2.57267751
     9         -0.35816990         -2.18905521          2.25903652
     9         -3.12678147          1.95227648          0.59478376
     9          4.27473953          1.16338883         -0.85851588
     9          3.13022091         -2.37120004         -2.52754464
     6          0.47283265         -0.57705453          0.56384667
     6          3.11585375         -1.01840821         -0.38440143
     9          4.43504892         -2.27920311          1.33863231

 Electric dipole moment (dipole orientation):
 (Debye = 10**-18 statcoulomb cm , SI units = C m)
                  (au)            (Debye)         (10**-30 SI)
   Tot        0.191947D+00      0.487881D+00      0.162740D+01
   x          0.000000D+00      0.000000D+00      0.000000D+00
   y          0.000000D+00      0.000000D+00      0.000000D+00
   z          0.191947D+00      0.487881D+00      0.162740D+01

 Dipole polarizability, Alpha (dipole orientation).
 (esu units = cm**3 , SI units = C**2 m**2 J**-1)
 Alpha(0;0):
               (au)            (10**-24 esu)      (10**-40 SI)
   iso        0.408288D+02      0.605020D+01      0.673175D+01
   aniso      0.575180D+01      0.852328D+00      0.948343D+00
   xx         0.434309D+02      0.643580D+01      0.716079D+01
   yx        -0.128635D+01     -0.190617D+00     -0.212090D+00
   yy         0.393123D+02      0.582548D+01      0.648172D+01
   zx        -0.458103D+00     -0.678839D-01     -0.755310D-01
   zy        -0.200958D+01     -0.297789D+00     -0.331335D+00
   zz         0.397431D+02      0.588932D+01      0.655275D+01

 ----------------------------------------------------------------------
 1\1\GINC-CCLEARCO\Freq\UwB97XD\6-311+G(2d)\C3F7(2)\RAPPE\12-Aug-2023\0
 \\#N Geom=AllCheck Guess=TCheck SCRF=Check GenChk UwB97XD/6-311+G(2d) 
 Freq\\Title Card Required\\0,2\C,-0.459502587,0.1211872531,0.917613679
 8\F,-0.9467883095,1.3402487886,1.1810498939\F,0.5193105122,-0.13141813
 05,1.7801160327\F,-0.866935334,0.2459839714,-1.4123665642\F,-1.4465686
 808,-0.752866474,1.1156901692\F,2.2979430162,-0.5673535399,-0.31630138
 55\F,1.8608711741,1.5301385345,-0.550523218\C,0.0449133782,0.028839731
 8,-0.4919674777\C,1.4683258702,0.2957791263,-0.8983398824\F,1.58722405
 06,0.1828316387,-2.2162657977\\Version=EM64M-G16RevA.03\State=2-A\HF=-
 813.1965065\S2=0.753916\S2-1=0.\S2A=0.750011\RMSD=3.080e-09\RMSF=4.215
 e-06\ZeroPoint=0.0368091\Thermal=0.0458386\Dipole=-0.0838062,-0.112881
 5,-0.1306828\DipoleDeriv=1.6918724,0.0120803,-0.0272741,0.0132687,1.71
 25188,-0.0080074,-0.126874,-0.0108666,1.561883,-0.4146045,0.2324246,0.
 1278633,0.2469639,-0.7966007,-0.1523091,0.1427407,-0.1688237,-0.428764
 2,-0.6119038,0.0806983,-0.2220471,0.0864356,-0.2871265,0.0639513,-0.31
 91621,0.0964913,-0.6118632,-0.5816025,0.0438094,-0.3241942,0.1062561,-
 0.0598425,0.1353932,-0.3142425,0.0601785,-0.587452,-0.6959695,-0.33377
 23,0.1398885,-0.3241086,-0.5523109,0.0571313,0.1843959,0.107845,-0.378
 0607,-0.6308334,0.2854727,-0.1649833,0.2137112,-0.5306737,0.1785492,-0
 .1332903,0.161377,-0.3778022,-0.4844263,-0.2495123,0.0025327,-0.225042
 2,-0.8232633,-0.1192825,-0.0162721,-0.1250671,-0.3193123,0.467306,-0.0
 686001,0.4082106,-0.0938046,-0.0875819,-0.1283213,0.4498333,-0.0800961
 ,0.4620526,1.6097913,-0.0057118,-0.1131692,-0.005208,1.6993321,0.00856
 92,0.0360885,0.020518,1.6406303,-0.3496297,0.0031111,0.1731728,-0.0184
 721,-0.2744515,-0.035674,0.0967827,-0.0615562,-0.9613112\Polar=42.9060
 872,0.1805885,37.2856651,-1.136936,-0.4402339,42.29455\Quadrupole=-0.5
 610191,0.7511065,-0.1900874,-0.0385167,0.4978011,0.1305577\PG=C01 [X(C
 3F7)]\NImag=0\\0.54248607,0.00327333,0.46720935,-0.01163729,-0.0083060
 7,0.60758192,-0.09968208,0.06631712,0.02428554,0.11920584,0.06039202,-
 0.20959053,-0.04937425,-0.10286783,0.33793149,0.02484548,-0.05524145,-
 0.09850931,-0.02031614,0.05556532,0.08087230,-0.16417516,0.02436762,-0
 .10075150,-0.03097187,0.04178935,-0.02129998,0.26293207,0.02380936,-0.
 07708840,0.02851124,0.04896736,-0.02902577,0.02922418,-0.04873288,0.09
 133955,-0.09478231,0.02707172,-0.20245543,-0.01215636,0.01677146,0.013
 27612,0.16425251,-0.04220473,0.22132852,-0.01091660,0.00074907,0.00421
 063,0.00547072,-0.00505085,-0.00304330,0.00230723,-0.00043232,0.000849
 67,0.26604966,0.00483439,-0.00146304,-0.00750131,-0.00290510,0.0036119
 5,0.00328059,0.00026682,0.00223341,0.00109380,-0.04583938,0.01695738,-
 0.04783712,0.01068718,-0.01725544,0.00490270,-0.00333863,-0.00017104,-
 0.00046585,0.00038691,-0.01452295,0.20208622,-0.05214175,0.27290448,-0
 .18217476,-0.09514782,0.04034668,0.01468209,-0.01630635,-0.00386752,-0
 .06520650,-0.02782078,-0.02095318,0.00684233,-0.00100712,0.00494511,0.
 25746598,-0.08908108,-0.14582345,0.03282269,-0.03246745,-0.08193035,0.
 00163509,-0.02038585,0.00869527,-0.01060858,0.00207176,0.00000254,0.00
 040028,0.15848330,0.22079089,0.04036844,0.03492294,-0.09599329,-0.0060
 6562,-0.00547758,0.01701354,-0.03345100,-0.01741418,0.01157360,-0.0011
 9532,-0.00010349,0.00063748,-0.03588953,-0.03170387,0.07853916,-0.0011
 6005,0.00083509,-0.00821550,-0.00069285,0.00112303,0.00217721,0.000687
 90,-0.00012321,0.00532637,-0.01317549,0.00347054,-0.00084715,-0.000955
 28,-0.00056199,0.00183151,0.20291656,0.00221957,-0.00347579,0.00300402
 ,-0.00026550,0.00103548,-0.00049762,-0.00134253,0.00131059,-0.00171479
 ,0.00216074,0.00016837,-0.00153868,0.00028048,0.00067031,-0.00071051,-
 0.13500606,0.21926831,-0.00549407,0.00187632,-0.00582957,0.00021933,-0
 .00021582,0.00126427,0.00596044,-0.00152809,-0.00080431,0.00090130,0.0
 0032097,0.00111996,0.00030047,-0.00003526,0.00105943,0.09305420,-0.093
 54690,0.14288007,0.00172381,0.00046572,-0.01092011,-0.00212912,0.00216
 671,0.00317281,0.00159243,-0.00037480,0.00275168,-0.00570466,0.0022921
 2,-0.00440878,-0.00167169,-0.00041275,0.00210493,0.01785477,0.03003559
 ,0.00050307,0.09603880,0.00178493,-0.00513747,-0.00905779,-0.00184110,
 0.00434972,0.00282772,0.00044827,0.00074733,0.00208899,-0.00786093,0.0
 0018525,-0.00403533,-0.00133108,0.00036484,0.00189392,0.01433299,-0.08
 106036,0.00692419,0.08165771,0.33952278,-0.00281406,-0.00278992,-0.002
 73620,0.00034640,0.00090858,0.00033937,0.00142863,0.00073293,0.0003371
 7,0.00234566,0.00120706,0.00127753,-0.00002032,0.00028049,0.00083886,0
 .00037069,0.01543562,0.01368827,0.02631780,0.07399888,0.09730417,-0.08
 247819,0.00509271,0.03432993,-0.01036363,0.02458840,0.02688299,-0.0015
 5967,0.00330030,-0.03889320,-0.23707615,0.04824969,-0.16590066,-0.0333
 0613,-0.01961968,0.03801894,-0.02906780,0.00877150,-0.00756895,-0.0140
 2378,-0.01665095,-0.00119356,0.61000532,-0.00862403,-0.03831104,0.0109
 6019,0.02399931,-0.01955780,-0.03473685,0.00158802,0.00498333,0.007305
 37,0.04005438,-0.02375215,0.04718445,-0.01628892,-0.00107462,0.0183478
 5,0.02052377,0.00088915,0.00151240,-0.04018276,-0.02265541,-0.00046597
 ,-0.01673185,0.13315169,0.06481137,-0.01670591,-0.19764519,0.01002184,
 -0.01228072,-0.01140291,-0.00988531,0.00230980,-0.02717778,-0.16619856
 ,0.05674731,-0.24166265,0.01197663,0.00497064,-0.00660269,-0.01930578,
 0.00682498,0.00844787,0.00236480,0.00145491,0.01014923,0.04465983,-0.0
 5787962,0.59643538,0.00034898,-0.00475012,0.03682320,0.00513940,-0.007
 76086,-0.01064569,-0.00689190,0.00155409,-0.00759352,-0.01419920,-0.00
 942720,0.00441673,0.00636810,0.00331447,-0.00864934,-0.18525624,0.0855
 2674,-0.04954844,-0.10834958,-0.06439675,-0.01023577,-0.19616387,-0.00
 478966,0.01939909,0.59175231,0.00198393,0.01414819,-0.00016492,0.00148
 957,-0.00799282,-0.00289561,0.00203650,-0.00349306,0.00013660,0.014909
 60,0.00256916,0.00314839,-0.00099871,-0.00189076,0.00026654,0.08966323
 ,-0.14256298,0.04843264,-0.07380634,-0.21537646,-0.03116126,-0.0356419
 0,-0.04072876,0.00905242,-0.00102789,0.46744777,0.03287097,0.00797755,
 0.00597861,-0.00265282,-0.00049654,-0.00085605,-0.00668558,0.00010626,
 -0.00158199,-0.04104647,-0.00101956,-0.01075913,0.00006822,0.00031922,
 -0.00449687,-0.04902317,0.04487617,-0.10334802,-0.01342045,-0.03242299
 ,-0.07988762,0.06182912,0.00652970,-0.08082001,-0.02293119,-0.01444776
 ,0.55089532,-0.00397200,-0.00120272,-0.00847159,-0.00065849,0.00192638
 ,0.00209415,0.00128547,-0.00014713,0.00119833,0.00040215,0.00006525,0.
 00310880,-0.00204415,-0.00134073,0.00292698,0.00884848,0.00761945,-0.0
 3832735,0.01466902,-0.00614309,-0.01654546,-0.00596611,0.00045175,0.04
 215609,-0.09274801,0.00139199,0.04099138,0.08018364,-0.00059241,-0.000
 46780,-0.00089380,-0.00042638,0.00116864,0.00083865,-0.00003532,0.0002
 9775,0.00006017,-0.00076207,-0.00051286,-0.00075282,0.00013699,0.00019
 533,-0.00002160,0.00574260,0.00375692,0.03625954,-0.00184120,-0.020940
 22,-0.05814640,-0.00135822,0.00705563,0.00550619,0.00175717,-0.0721202
 9,-0.01142206,-0.00262117,0.08156688,-0.00033141,0.00050764,0.00686390
 ,0.00141512,-0.00206183,-0.00182628,0.00089765,-0.00012431,0.00002704,
 0.00109017,-0.00188362,0.00843174,0.00309344,0.00191931,-0.00256922,-0
 .02536839,0.02786772,-0.05847797,-0.00846575,-0.04367251,-0.04131078,0
 .00783555,0.00124248,-0.04972126,0.04896494,-0.01236703,-0.27512424,-0
 .02913133,0.02857214,0.41370707\\-0.00000199,0.00000317,-0.00000378,0.
 00000033,0.00000592,-0.00000133,0.00000133,-0.00000165,0.00000388,-0.0
 0000387,-0.00000101,0.00000412,-0.00000198,-0.00000554,0.00000041,0.00
 000292,-0.00000378,0.00000383,0.00000118,-0.00000477,-0.00000204,0.000
 01131,0.00000137,0.00000160,-0.00001044,0.00000702,-0.00000325,0.00000
 121,-0.00000073,-0.00000343\\\@


 ... IT IS NO ONE DREAME THAT
     CAN PLEASE THESE ALL ...

                -- BEN JONSON
 Job cpu time:       0 days  2 hours 25 minutes 48.8 seconds.
 Elapsed time:       0 days  0 hours  6 minutes 12.2 seconds.
 File lengths (MBytes):  RWF=    158 Int=      0 D2E=      0 Chk=      9 Scr=      1
 Normal termination of Gaussian 16 at Sat Aug 12 08:58:55 2023.
