 Entering Gaussian System, Link 0=/applications/g16/g16/g16
 Initial command:
 /applications/g16/g16/l1.exe "/scratch/g98/Gau-30781.inp" -scrdir="/scratch/g98/"
 Entering Link 1 = /applications/g16/g16/l1.exe PID=     30782.
  
 Copyright (c) 1988,1990,1992,1993,1995,1998,2003,2009,2016,
            Gaussian, Inc.  All Rights Reserved.
  
 This is part of the Gaussian(R) 16 program.  It is based on
 the Gaussian(R) 09 system (copyright 2009, Gaussian, Inc.),
 the Gaussian(R) 03 system (copyright 2003, Gaussian, Inc.),
 the Gaussian(R) 98 system (copyright 1998, Gaussian, Inc.),
 the Gaussian(R) 94 system (copyright 1995, Gaussian, Inc.),
 the Gaussian 92(TM) system (copyright 1992, Gaussian, Inc.),
 the Gaussian 90(TM) system (copyright 1990, Gaussian, Inc.),
 the Gaussian 88(TM) system (copyright 1988, Gaussian, Inc.),
 the Gaussian 86(TM) system (copyright 1986, Carnegie Mellon
 University), and the Gaussian 82(TM) system (copyright 1983,
 Carnegie Mellon University). Gaussian is a federally registered
 trademark of Gaussian, Inc.
  
 This software contains proprietary and confidential information,
 including trade secrets, belonging to Gaussian, Inc.
  
 This software is provided under written license and may be
 used, copied, transmitted, or stored only in accord with that
 written license.
  
 The following legend is applicable only to US Government
 contracts under FAR:
  
                    RESTRICTED RIGHTS LEGEND
  
 Use, reproduction and disclosure by the US Government is
 subject to restrictions as set forth in subparagraphs (a)
 and (c) of the Commercial Computer Software - Restricted
 Rights clause in FAR 52.227-19.
  
 Gaussian, Inc.
 340 Quinnipiac St., Bldg. 40, Wallingford CT 06492
  
  
 ---------------------------------------------------------------
 Warning -- This program may not be used in any manner that
 competes with the business of Gaussian, Inc. or will provide
 assistance to any competitor of Gaussian, Inc.  The licensee
 of this program is prohibited from giving any competitor of
 Gaussian, Inc. access to this program.  By using this program,
 the user acknowledges that Gaussian, Inc. is engaged in the
 business of creating and licensing software in the field of
 computational chemistry and represents and warrants to the
 licensee that it is not a competitor of Gaussian, Inc. and that
 it will not use this program in any manner prohibited above.
 ---------------------------------------------------------------
  

 Cite this work as:
 Gaussian 16, Revision A.03,
 M. J. Frisch, G. W. Trucks, H. B. Schlegel, G. E. Scuseria, 
 M. A. Robb, J. R. Cheeseman, G. Scalmani, V. Barone, 
 G. A. Petersson, H. Nakatsuji, X. Li, M. Caricato, A. V. Marenich, 
 J. Bloino, B. G. Janesko, R. Gomperts, B. Mennucci, H. P. Hratchian, 
 J. V. Ortiz, A. F. Izmaylov, J. L. Sonnenberg, D. Williams-Young, 
 F. Ding, F. Lipparini, F. Egidi, J. Goings, B. Peng, A. Petrone, 
 T. Henderson, D. Ranasinghe, V. G. Zakrzewski, J. Gao, N. Rega, 
 G. Zheng, W. Liang, M. Hada, M. Ehara, K. Toyota, R. Fukuda, 
 J. Hasegawa, M. Ishida, T. Nakajima, Y. Honda, O. Kitao, H. Nakai, 
 T. Vreven, K. Throssell, J. A. Montgomery, Jr., J. E. Peralta, 
 F. Ogliaro, M. J. Bearpark, J. J. Heyd, E. N. Brothers, K. N. Kudin, 
 V. N. Staroverov, T. A. Keith, R. Kobayashi, J. Normand, 
 K. Raghavachari, A. P. Rendell, J. C. Burant, S. S. Iyengar, 
 J. Tomasi, M. Cossi, J. M. Millam, M. Klene, C. Adamo, R. Cammi, 
 J. W. Ochterski, R. L. Martin, K. Morokuma, O. Farkas, 
 J. B. Foresman, and D. J. Fox, Gaussian, Inc., Wallingford CT, 2016.
 
 ******************************************
 Gaussian 16:  EM64M-G16RevA.03 25-Dec-2016
                12-Feb-2023 
 ******************************************
 %mem=48GB
 %nprocshared=24
 Will use up to   24 processors via shared memory.
 %chk=c3f7.chk
 -----------------------------------------------------------
 # opt uwb97xd/6-311+g(2d,2p) freq geom=connectivity scf=xqc
 -----------------------------------------------------------
 1/18=20,19=15,26=3,38=1,57=2/1,3;
 2/9=110,12=2,17=6,18=5,40=1/2;
 3/5=4,6=6,7=212,11=2,25=1,30=1,71=1,74=-58,116=2/1,2,3;
 4//1;
 5/5=2,8=3,13=1,38=5/2,8;
 6/7=2,8=2,9=2,10=2,28=1/1;
 7//1,2,3,16;
 1/18=20,19=15,26=3/3(2);
 2/9=110/2;
 99//99;
 2/9=110/2;
 3/5=4,6=6,7=212,11=2,25=1,30=1,71=1,74=-58,116=2/1,2,3;
 4/5=5,16=3,69=1/1;
 5/5=2,8=3,13=1,38=5/2,8;
 7//1,2,3,16;
 1/18=20,19=15,26=3/3(-5);
 2/9=110/2;
 6/7=2,8=2,9=2,10=2,19=2,28=1/1;
 99/9=1/99;
 -------------------
 Title Card Required
 -------------------
 Symbolic Z-matrix:
 Charge =  0 Multiplicity = 2
 C                    -1.10274   0.59049  -0.02115 
 F                    -1.03398   1.27753   1.11736 
 C                    -0.00243  -0.484    -0.09588 
 F                     1.72265   0.9309   -0.87734 
 F                    -0.23478  -1.36832   0.89235 
 F                     1.64538   0.55768   1.24946 
 F                     2.29149  -1.       -0.09594 
 C                     1.45738   0.0211    0.0515 
 F                    -1.04715   1.42168  -1.05618 
 F                    -0.11017  -1.10961  -1.27349 
 

 GradGradGradGradGradGradGradGradGradGradGradGradGradGradGradGradGradGrad
 Berny optimization.
 Initialization pass.
                           ----------------------------
                           !    Initial Parameters    !
                           ! (Angstroms and Degrees)  !
 --------------------------                            --------------------------
 ! Name  Definition              Value          Derivative Info.                !
 --------------------------------------------------------------------------------
 ! R1    R(1,2)                  1.3315         estimate D2E/DX2                !
 ! R2    R(1,3)                  1.5397         estimate D2E/DX2                !
 ! R3    R(1,9)                  1.3286         estimate D2E/DX2                !
 ! R4    R(3,5)                  1.3463         estimate D2E/DX2                !
 ! R5    R(3,8)                  1.5517         estimate D2E/DX2                !
 ! R6    R(3,10)                 1.3378         estimate D2E/DX2                !
 ! R7    R(4,8)                  1.327          estimate D2E/DX2                !
 ! R8    R(6,8)                  1.326          estimate D2E/DX2                !
 ! R9    R(7,8)                  1.3267         estimate D2E/DX2                !
 ! A1    A(2,1,3)              111.3873         estimate D2E/DX2                !
 ! A2    A(2,1,9)              109.9461         estimate D2E/DX2                !
 ! A3    A(3,1,9)              111.6457         estimate D2E/DX2                !
 ! A4    A(1,3,5)              107.4224         estimate D2E/DX2                !
 ! A5    A(1,3,8)              116.1364         estimate D2E/DX2                !
 ! A6    A(1,3,10)             108.1503         estimate D2E/DX2                !
 ! A7    A(5,3,8)              107.8451         estimate D2E/DX2                !
 ! A8    A(5,3,10)             108.9694         estimate D2E/DX2                !
 ! A9    A(8,3,10)             108.1544         estimate D2E/DX2                !
 ! A10   A(3,8,4)              110.1671         estimate D2E/DX2                !
 ! A11   A(3,8,6)              110.5421         estimate D2E/DX2                !
 ! A12   A(3,8,7)              109.2926         estimate D2E/DX2                !
 ! A13   A(4,8,6)              109.0611         estimate D2E/DX2                !
 ! A14   A(4,8,7)              108.9185         estimate D2E/DX2                !
 ! A15   A(6,8,7)              108.8262         estimate D2E/DX2                !
 ! D1    D(2,1,3,5)             64.034          estimate D2E/DX2                !
 ! D2    D(2,1,3,8)            -56.7459         estimate D2E/DX2                !
 ! D3    D(2,1,3,10)          -178.488          estimate D2E/DX2                !
 ! D4    D(9,1,3,5)           -172.6275         estimate D2E/DX2                !
 ! D5    D(9,1,3,8)             66.5925         estimate D2E/DX2                !
 ! D6    D(9,1,3,10)           -55.1496         estimate D2E/DX2                !
 ! D7    D(1,3,8,4)            -57.4425         estimate D2E/DX2                !
 ! D8    D(1,3,8,6)             63.1653         estimate D2E/DX2                !
 ! D9    D(1,3,8,7)           -177.0801         estimate D2E/DX2                !
 ! D10   D(5,3,8,4)           -177.9958         estimate D2E/DX2                !
 ! D11   D(5,3,8,6)            -57.3881         estimate D2E/DX2                !
 ! D12   D(5,3,8,7)             62.3665         estimate D2E/DX2                !
 ! D13   D(10,3,8,4)            64.2975         estimate D2E/DX2                !
 ! D14   D(10,3,8,6)          -175.0947         estimate D2E/DX2                !
 ! D15   D(10,3,8,7)           -55.3402         estimate D2E/DX2                !
 --------------------------------------------------------------------------------
 Trust Radius=3.00D-01 FncErr=1.00D-07 GrdErr=1.00D-06 EigMax=2.50D+02 EigMin=1.00D-04
 Number of steps in this run=     49 maximum allowed number of steps=    100.
 GradGradGradGradGradGradGradGradGradGradGradGradGradGradGradGradGradGrad

                          Input orientation:                          
 ---------------------------------------------------------------------
 Center     Atomic      Atomic             Coordinates (Angstroms)
 Number     Number       Type             X           Y           Z
 ---------------------------------------------------------------------
      1          6           0       -1.102738    0.590489   -0.021152
      2          9           0       -1.033981    1.277527    1.117361
      3          6           0       -0.002433   -0.484004   -0.095883
      4          9           0        1.722648    0.930904   -0.877343
      5          9           0       -0.234782   -1.368318    0.892348
      6          9           0        1.645375    0.557682    1.249461
      7          9           0        2.291491   -0.999995   -0.095935
      8          6           0        1.457375    0.021095    0.051496
      9          9           0       -1.047152    1.421684   -1.056178
     10          9           0       -0.110165   -1.109611   -1.273491
 ---------------------------------------------------------------------
                    Distance matrix (angstroms):
                    1          2          3          4          5
     1  C    0.000000
     2  F    1.331526   0.000000
     3  C    1.539737   2.374667   0.000000
     4  F    2.971826   3.420233   2.364011   0.000000
     5  F    2.329110   2.773057   1.346328   3.499966   0.000000
     6  F    3.027814   2.777513   2.368614   2.160685   2.715142
     7  F    3.749136   4.209270   2.351241   2.159294   2.737594
     8  C    2.623674   2.986895   1.551736   1.326976   2.345399
     9  F    1.328629   2.178354   2.375974   2.818624   3.498687
    10  F    2.333215   3.502576   1.337816   2.771252   2.184792
                    6          7          8          9         10
     6  F    0.000000
     7  F    2.157293   0.000000
     8  C    1.326043   1.326691   0.000000
     9  F    3.648585   4.234753   3.075914   0.000000
    10  F    3.496723   2.677052   2.343346   2.707882   0.000000
 Stoichiometry    C3F7(2)
 Framework group  C1[X(C3F7)]
 Deg. of freedom    24
 Full point group                 C1      NOp   1
 Largest Abelian subgroup         C1      NOp   1
 Largest concise Abelian subgroup C1      NOp   1
                         Standard orientation:                         
 ---------------------------------------------------------------------
 Center     Atomic      Atomic             Coordinates (Angstroms)
 Number     Number       Type             X           Y           Z
 ---------------------------------------------------------------------
      1          6           0        1.560816    0.157430    0.076180
      2          9           0        1.757162   -0.778614    1.002587
      3          6           0        0.112605    0.679652    0.103735
      4          9           0       -0.833432   -1.038983   -1.215301
      5          9           0       -0.076369    1.281375    1.293196
      6          9           0       -0.978465   -1.253613    0.929801
      7          9           0       -2.184145    0.215546   -0.090897
      8          6           0       -1.001697   -0.385777   -0.072552
      9          9           0        1.888892   -0.314537   -1.121679
     10          9           0       -0.021458    1.587956   -0.869282
 ---------------------------------------------------------------------
 Rotational constants (GHZ):           1.7707667           1.1918208           1.1450015
 Standard basis: 6-311+G(2d,2p) (5D, 7F)
 There are   290 symmetry adapted cartesian basis functions of A   symmetry.
 There are   270 symmetry adapted basis functions of A   symmetry.
   270 basis functions,   420 primitive gaussians,   290 cartesian basis functions
    41 alpha electrons       40 beta electrons
       nuclear repulsion energy       654.1590227349 Hartrees.
 NAtoms=   10 NActive=   10 NUniq=   10 SFac= 1.00D+00 NAtFMM=   60 NAOKFM=F Big=F
 Integral buffers will be    131072 words long.
 Raffenetti 2 integral format.
 Two-electron integral symmetry is turned on.
 Nuclear repulsion after empirical dispersion term =      654.1547540325 Hartrees.
 One-electron integrals computed using PRISM.
 NBasis=   270 RedAO= T EigKep=  7.20D-05  NBF=   270
 NBsUse=   270 1.00D-06 EigRej= -1.00D+00 NBFU=   270
 ExpMin= 4.38D-02 ExpMax= 1.14D+04 ExpMxC= 1.72D+03 IAcc=3 IRadAn=         5 AccDes= 0.00D+00
 Harris functional with IExCor= 4639 and IRadAn=       5 diagonalized for initial guess.
 HarFok:  IExCor= 4639 AccDes= 0.00D+00 IRadAn=         5 IDoV= 1 UseB2=F ITyADJ=14
 ICtDFT=  3500011 ScaDFX=  1.000000  1.000000  1.000000  1.000000
 FoFCou: FMM=F IPFlag=           0 FMFlag=      100000 FMFlg1=           0
         NFxFlg=           0 DoJE=T BraDBF=F KetDBF=T FulRan=T
         wScrn=  0.000000 ICntrl=       500 IOpCl=  0 I1Cent=   200000004 NGrid=           0
         NMat0=    1 NMatS0=      1 NMatT0=    0 NMatD0=    1 NMtDS0=    0 NMtDT0=    0
 Petite list used in FoFCou.
 Initial guess <Sx>= 0.0000 <Sy>= 0.0000 <Sz>= 0.5000 <S**2>= 0.7500 S= 0.5000
 Keep R1 and R2 ints in memory in canonical form, NReq=2703878162.
 Requested convergence on RMS density matrix=1.00D-08 within  32 cycles.
 Requested convergence on MAX density matrix=1.00D-06.
 Requested convergence on             energy=1.00D-06.
 No special actions if energy rises.
 SCF Done:  E(UwB97XD) =  -813.182870199     A.U. after   15 cycles
            NFock= 15  Conv=0.52D-08     -V/T= 2.0026
 <Sx>= 0.0000 <Sy>= 0.0000 <Sz>= 0.5000 <S**2>= 0.7526 S= 0.5013
 <L.S>= 0.000000000000E+00
 Annihilation of the first spin contaminant:
 S**2 before annihilation     0.7526,   after     0.7500
 QCSCF skips out because SCF is already converged.

 **********************************************************************

            Population analysis using the SCF density.

 **********************************************************************

 Orbital symmetries:
 Alpha Orbitals:
       Occupied  (A) (A) (A) (A) (A) (A) (A) (A) (A) (A) (A) (A)
                 (A) (A) (A) (A) (A) (A) (A) (A) (A) (A) (A) (A)
                 (A) (A) (A) (A) (A) (A) (A) (A) (A) (A) (A) (A)
                 (A) (A) (A) (A) (A)
       Virtual   (A) (A) (A) (A) (A) (A) (A) (A) (A) (A) (A) (A)
                 (A) (A) (A) (A) (A) (A) (A) (A) (A) (A) (A) (A)
                 (A) (A) (A) (A) (A) (A) (A) (A) (A) (A) (A) (A)
                 (A) (A) (A) (A) (A) (A) (A) (A) (A) (A) (A) (A)
                 (A) (A) (A) (A) (A) (A) (A) (A) (A) (A) (A) (A)
                 (A) (A) (A) (A) (A) (A) (A) (A) (A) (A) (A) (A)
                 (A) (A) (A) (A) (A) (A) (A) (A) (A) (A) (A) (A)
                 (A) (A) (A) (A) (A) (A) (A) (A) (A) (A) (A) (A)
                 (A) (A) (A) (A) (A) (A) (A) (A) (A) (A) (A) (A)
                 (A) (A) (A) (A) (A) (A) (A) (A) (A) (A) (A) (A)
                 (A) (A) (A) (A) (A) (A) (A) (A) (A) (A) (A) (A)
                 (A) (A) (A) (A) (A) (A) (A) (A) (A) (A) (A) (A)
                 (A) (A) (A) (A) (A) (A) (A) (A) (A) (A) (A) (A)
                 (A) (A) (A) (A) (A) (A) (A) (A) (A) (A) (A) (A)
                 (A) (A) (A) (A) (A) (A) (A) (A) (A) (A) (A) (A)
                 (A) (A) (A) (A) (A) (A) (A) (A) (A) (A) (A) (A)
                 (A) (A) (A) (A) (A) (A) (A) (A) (A) (A) (A) (A)
                 (A) (A) (A) (A) (A) (A) (A) (A) (A) (A) (A) (A)
                 (A) (A) (A) (A) (A) (A) (A) (A) (A) (A) (A) (A)
                 (A)
 Beta  Orbitals:
       Occupied  (A) (A) (A) (A) (A) (A) (A) (A) (A) (A) (A) (A)
                 (A) (A) (A) (A) (A) (A) (A) (A) (A) (A) (A) (A)
                 (A) (A) (A) (A) (A) (A) (A) (A) (A) (A) (A) (A)
                 (A) (A) (A) (A)
       Virtual   (A) (A) (A) (A) (A) (A) (A) (A) (A) (A) (A) (A)
                 (A) (A) (A) (A) (A) (A) (A) (A) (A) (A) (A) (A)
                 (A) (A) (A) (A) (A) (A) (A) (A) (A) (A) (A) (A)
                 (A) (A) (A) (A) (A) (A) (A) (A) (A) (A) (A) (A)
                 (A) (A) (A) (A) (A) (A) (A) (A) (A) (A) (A) (A)
                 (A) (A) (A) (A) (A) (A) (A) (A) (A) (A) (A) (A)
                 (A) (A) (A) (A) (A) (A) (A) (A) (A) (A) (A) (A)
                 (A) (A) (A) (A) (A) (A) (A) (A) (A) (A) (A) (A)
                 (A) (A) (A) (A) (A) (A) (A) (A) (A) (A) (A) (A)
                 (A) (A) (A) (A) (A) (A) (A) (A) (A) (A) (A) (A)
                 (A) (A) (A) (A) (A) (A) (A) (A) (A) (A) (A) (A)
                 (A) (A) (A) (A) (A) (A) (A) (A) (A) (A) (A) (A)
                 (A) (A) (A) (A) (A) (A) (A) (A) (A) (A) (A) (A)
                 (A) (A) (A) (A) (A) (A) (A) (A) (A) (A) (A) (A)
                 (A) (A) (A) (A) (A) (A) (A) (A) (A) (A) (A) (A)
                 (A) (A) (A) (A) (A) (A) (A) (A) (A) (A) (A) (A)
                 (A) (A) (A) (A) (A) (A) (A) (A) (A) (A) (A) (A)
                 (A) (A) (A) (A) (A) (A) (A) (A) (A) (A) (A) (A)
                 (A) (A) (A) (A) (A) (A) (A) (A) (A) (A) (A) (A)
                 (A) (A)
 The electronic state is 2-A.
 Alpha  occ. eigenvalues --  -24.88743 -24.88704 -24.88138 -24.88070 -24.87951
 Alpha  occ. eigenvalues --  -24.87580 -24.87257 -10.58438 -10.52725 -10.51203
 Alpha  occ. eigenvalues --   -1.47442  -1.44096  -1.42304  -1.38302  -1.37743
 Alpha  occ. eigenvalues --   -1.37580  -1.36300  -0.94137  -0.86041  -0.79991
 Alpha  occ. eigenvalues --   -0.75159  -0.74383  -0.74161  -0.71708  -0.71407
 Alpha  occ. eigenvalues --   -0.68707  -0.66377  -0.61044  -0.60762  -0.60521
 Alpha  occ. eigenvalues --   -0.59614  -0.58846  -0.57836  -0.56769  -0.56120
 Alpha  occ. eigenvalues --   -0.55135  -0.54392  -0.53845  -0.53654  -0.48961
 Alpha  occ. eigenvalues --   -0.37657
 Alpha virt. eigenvalues --    0.07524   0.08245   0.08385   0.09166   0.12297
 Alpha virt. eigenvalues --    0.12531   0.12544   0.13522   0.14504   0.14890
 Alpha virt. eigenvalues --    0.15319   0.17326   0.18510   0.19285   0.21617
 Alpha virt. eigenvalues --    0.23840   0.26832   0.28086   0.28508   0.29760
 Alpha virt. eigenvalues --    0.30492   0.30919   0.31210   0.32500   0.33516
 Alpha virt. eigenvalues --    0.33771   0.35690   0.36245   0.37555   0.38489
 Alpha virt. eigenvalues --    0.39016   0.40801   0.41189   0.41319   0.41652
 Alpha virt. eigenvalues --    0.42183   0.43241   0.43948   0.44262   0.44663
 Alpha virt. eigenvalues --    0.44878   0.45608   0.46483   0.51183   0.51298
 Alpha virt. eigenvalues --    0.52648   0.53608   0.53885   0.59414   0.60950
 Alpha virt. eigenvalues --    0.64109   0.68917   0.69404   0.70269   0.74355
 Alpha virt. eigenvalues --    0.75029   0.78398   0.78574   0.85639   0.87220
 Alpha virt. eigenvalues --    0.91295   0.98350   1.02529   1.04281   1.07162
 Alpha virt. eigenvalues --    1.10490   1.11737   1.18237   1.22586   1.23846
 Alpha virt. eigenvalues --    1.27107   1.30781   1.32395   1.34883   1.35779
 Alpha virt. eigenvalues --    1.37086   1.40168   1.40922   1.41944   1.42668
 Alpha virt. eigenvalues --    1.43167   1.45122   1.45931   1.46341   1.47127
 Alpha virt. eigenvalues --    1.48381   1.49304   1.50348   1.51148   1.51781
 Alpha virt. eigenvalues --    1.52684   1.54785   1.56287   1.57035   1.62354
 Alpha virt. eigenvalues --    1.64991   1.67857   1.87862   1.91549   1.96058
 Alpha virt. eigenvalues --    1.97568   2.01573   2.02383   2.03339   2.06175
 Alpha virt. eigenvalues --    2.08484   2.10276   2.10367   2.11960   2.12792
 Alpha virt. eigenvalues --    2.14100   2.15419   2.15650   2.20983   2.21155
 Alpha virt. eigenvalues --    2.22127   2.26506   2.28140   2.33964   2.36149
 Alpha virt. eigenvalues --    2.39166   2.42309   2.49719   2.51604   2.54722
 Alpha virt. eigenvalues --    2.55298   2.66134   2.67009   2.68785   2.72928
 Alpha virt. eigenvalues --    2.75207   2.75626   2.76928   2.78913   2.82674
 Alpha virt. eigenvalues --    2.87859   2.93987   3.06956   3.15329   3.23856
 Alpha virt. eigenvalues --    3.27668   3.40487   3.43316   3.45284   3.46784
 Alpha virt. eigenvalues --    3.48367   3.51987   3.54767   3.55885   3.56458
 Alpha virt. eigenvalues --    3.61318   3.65002   3.68012   3.68855   3.75495
 Alpha virt. eigenvalues --    3.76810   3.86735   4.25522   4.30374   4.31122
 Alpha virt. eigenvalues --    4.35884   4.37311   4.48305   6.36996   6.38886
 Alpha virt. eigenvalues --    6.40486   6.41098   6.42680   6.43729   6.45678
 Alpha virt. eigenvalues --    6.46033   6.46980   6.48322   6.49462   6.50296
 Alpha virt. eigenvalues --    6.53212   6.54035   6.55629   6.58921   6.66227
 Alpha virt. eigenvalues --    6.83127   6.86797   6.89753   6.95153   9.07861
 Alpha virt. eigenvalues --    9.08182   9.09849   9.10277   9.10833   9.11582
 Alpha virt. eigenvalues --    9.13553   9.16042   9.16302   9.18591   9.21180
 Alpha virt. eigenvalues --    9.21507   9.23116   9.23695   9.24043   9.26409
 Alpha virt. eigenvalues --    9.26861   9.33227   9.34784   9.36456   9.37303
 Alpha virt. eigenvalues --    9.40642   9.50089   9.53541   9.60694   9.65111
 Alpha virt. eigenvalues --    9.68144   9.72734   9.74892   9.75699   9.76456
 Alpha virt. eigenvalues --    9.78847   9.84206   9.89254   9.91108  23.90202
 Alpha virt. eigenvalues --   23.97172  24.03455  66.89191  66.91851  66.94481
 Alpha virt. eigenvalues --   66.95068  66.97092  66.99059  67.02372
  Beta  occ. eigenvalues --  -24.88413 -24.88381 -24.88139 -24.88070 -24.87918
  Beta  occ. eigenvalues --  -24.87585 -24.87260 -10.58383 -10.52650 -10.49884
  Beta  occ. eigenvalues --   -1.47389  -1.43399  -1.42016  -1.38173  -1.37678
  Beta  occ. eigenvalues --   -1.37017  -1.36154  -0.93345  -0.84787  -0.79320
  Beta  occ. eigenvalues --   -0.74859  -0.74082  -0.73966  -0.71178  -0.70966
  Beta  occ. eigenvalues --   -0.68310  -0.63008  -0.60899  -0.60628  -0.60352
  Beta  occ. eigenvalues --   -0.59490  -0.58158  -0.57346  -0.56027  -0.55906
  Beta  occ. eigenvalues --   -0.54995  -0.54279  -0.53799  -0.53194  -0.47909
  Beta virt. eigenvalues --   -0.06205   0.08009   0.08549   0.08633   0.09824
  Beta virt. eigenvalues --    0.12527   0.12724   0.13037   0.13715   0.15070
  Beta virt. eigenvalues --    0.15171   0.15991   0.17627   0.19115   0.19719
  Beta virt. eigenvalues --    0.22784   0.24719   0.27026   0.28668   0.28991
  Beta virt. eigenvalues --    0.30122   0.30722   0.31373   0.31928   0.32630
  Beta virt. eigenvalues --    0.33842   0.34588   0.35804   0.36529   0.37782
  Beta virt. eigenvalues --    0.38569   0.39221   0.40821   0.41320   0.41462
  Beta virt. eigenvalues --    0.41648   0.42264   0.43457   0.43921   0.44407
  Beta virt. eigenvalues --    0.44686   0.44906   0.45675   0.46565   0.51236
  Beta virt. eigenvalues --    0.51455   0.52768   0.53730   0.53942   0.59748
  Beta virt. eigenvalues --    0.62527   0.64443   0.69310   0.69599   0.70808
  Beta virt. eigenvalues --    0.74872   0.75571   0.78555   0.78740   0.86282
  Beta virt. eigenvalues --    0.87839   0.91931   0.98961   1.02852   1.04863
  Beta virt. eigenvalues --    1.08278   1.10835   1.12344   1.18810   1.22977
  Beta virt. eigenvalues --    1.24695   1.27475   1.31419   1.32558   1.35045
  Beta virt. eigenvalues --    1.35952   1.37365   1.40365   1.41070   1.41995
  Beta virt. eigenvalues --    1.42926   1.43480   1.45284   1.46052   1.46444
  Beta virt. eigenvalues --    1.47288   1.48567   1.49416   1.50432   1.51184
  Beta virt. eigenvalues --    1.51905   1.52773   1.54871   1.56467   1.57246
  Beta virt. eigenvalues --    1.62420   1.65213   1.68089   1.87991   1.91607
  Beta virt. eigenvalues --    1.96125   1.97731   2.01649   2.02680   2.03584
  Beta virt. eigenvalues --    2.06278   2.08824   2.10418   2.10590   2.12068
  Beta virt. eigenvalues --    2.12874   2.14306   2.15602   2.15923   2.21084
  Beta virt. eigenvalues --    2.21409   2.22689   2.26792   2.28554   2.34227
  Beta virt. eigenvalues --    2.36473   2.39388   2.42936   2.50511   2.51752
  Beta virt. eigenvalues --    2.55084   2.55593   2.66358   2.67188   2.69887
  Beta virt. eigenvalues --    2.73048   2.75733   2.76674   2.78122   2.79463
  Beta virt. eigenvalues --    2.83152   2.88988   2.94591   3.08403   3.16746
  Beta virt. eigenvalues --    3.23980   3.29536   3.43407   3.44748   3.46951
  Beta virt. eigenvalues --    3.48261   3.49457   3.53720   3.55267   3.57686
  Beta virt. eigenvalues --    3.58464   3.62289   3.65691   3.68719   3.69419
  Beta virt. eigenvalues --    3.76027   3.77371   3.89532   4.27043   4.30508
  Beta virt. eigenvalues --    4.31293   4.36081   4.37842   4.49284   6.37675
  Beta virt. eigenvalues --    6.39833   6.40529   6.41177   6.42912   6.43919
  Beta virt. eigenvalues --    6.45897   6.46107   6.47231   6.48385   6.49696
  Beta virt. eigenvalues --    6.50397   6.53248   6.54102   6.55639   6.59165
  Beta virt. eigenvalues --    6.66392   6.83565   6.86826   6.89818   6.95336
  Beta virt. eigenvalues --    9.08138   9.08599   9.10040   9.10376   9.11159
  Beta virt. eigenvalues --    9.12452   9.14323   9.16605   9.16660   9.18972
  Beta virt. eigenvalues --    9.21205   9.22070   9.23276   9.23795   9.24212
  Beta virt. eigenvalues --    9.26477   9.26949   9.33405   9.34875   9.37258
  Beta virt. eigenvalues --    9.37922   9.40682   9.50155   9.53764   9.61057
  Beta virt. eigenvalues --    9.65186   9.68218   9.73162   9.74971   9.75743
  Beta virt. eigenvalues --    9.76466   9.79249   9.84374   9.89297   9.91118
  Beta virt. eigenvalues --   23.91261  23.98579  24.03579  66.89402  66.91962
  Beta virt. eigenvalues --   66.94508  66.95084  66.97112  66.99167  67.02389
          Condensed to atoms (all electrons):
               1          2          3          4          5          6
     1  C    5.464214   0.143456  -0.106609   0.010300  -0.112635  -0.004203
     2  F    0.143456   9.076312  -0.038549  -0.002571   0.015595   0.005713
     3  C   -0.106609  -0.038549   5.445099  -0.062287   0.316579  -0.040626
     4  F    0.010300  -0.002571  -0.062287   9.078006  -0.000257   0.017534
     5  F   -0.112635   0.015595   0.316579  -0.000257   9.121664   0.017378
     6  F   -0.004203   0.005713  -0.040626   0.017534   0.017378   9.065104
     7  F    0.025593  -0.000005  -0.120224  -0.000941   0.019433  -0.004770
     8  C   -0.042837   0.000714   0.023501   0.224324  -0.114300   0.232259
     9  F    0.134126   0.026848  -0.012457   0.006601  -0.000150  -0.004099
    10  F   -0.106971   0.000360   0.313667   0.016040   0.004317  -0.001052
               7          8          9         10
     1  C    0.025593  -0.042837   0.134126  -0.106971
     2  F   -0.000005   0.000714   0.026848   0.000360
     3  C   -0.120224   0.023501  -0.012457   0.313667
     4  F   -0.000941   0.224324   0.006601   0.016040
     5  F    0.019433  -0.114300  -0.000150   0.004317
     6  F   -0.004770   0.232259  -0.004099  -0.001052
     7  F    9.113590   0.236160  -0.000425   0.020324
     8  C    0.236160   4.590461  -0.010948  -0.112246
     9  F   -0.000425  -0.010948   9.069001   0.017074
    10  F    0.020324  -0.112246   0.017074   9.119086
          Atomic-Atomic Spin Densities.
               1          2          3          4          5          6
     1  C    1.223260  -0.113919  -0.175077  -0.000404  -0.003480  -0.001112
     2  F   -0.113919   0.146961   0.005899   0.000123  -0.000539  -0.000630
     3  C   -0.175077   0.005899   0.229542   0.001656   0.007908   0.004194
     4  F   -0.000404   0.000123   0.001656  -0.001067  -0.000097  -0.000121
     5  F   -0.003480  -0.000539   0.007908  -0.000097  -0.000111   0.000157
     6  F   -0.001112  -0.000630   0.004194  -0.000121   0.000157  -0.000129
     7  F   -0.001915  -0.000139   0.002583   0.000211   0.001180   0.000371
     8  C    0.050361   0.003307  -0.092107  -0.000226  -0.006895  -0.002627
     9  F   -0.116062   0.010113   0.005792  -0.000521  -0.000017   0.000013
    10  F    0.001464  -0.000158   0.004563   0.000020   0.001307  -0.000041
               7          8          9         10
     1  C   -0.001915   0.050361  -0.116062   0.001464
     2  F   -0.000139   0.003307   0.010113  -0.000158
     3  C    0.002583  -0.092107   0.005792   0.004563
     4  F    0.000211  -0.000226  -0.000521   0.000020
     5  F    0.001180  -0.006895  -0.000017   0.001307
     6  F    0.000371  -0.002627   0.000013  -0.000041
     7  F    0.014420  -0.011900  -0.000124   0.001026
     8  C   -0.011900   0.095346   0.003157  -0.004891
     9  F   -0.000124   0.003157   0.150308  -0.000852
    10  F    0.001026  -0.004891  -0.000852  -0.001638
 Mulliken charges and spin densities:
               1          2
     1  C    0.595568   0.863117
     2  F   -0.227872   0.051018
     3  C    0.281907  -0.005046
     4  F   -0.286749  -0.000425
     5  F   -0.267625  -0.000586
     6  F   -0.283239   0.000074
     7  F   -0.288733   0.005714
     8  C    0.972913   0.033525
     9  F   -0.225571   0.051807
    10  F   -0.270600   0.000801
 Sum of Mulliken charges =  -0.00000   1.00000
 Mulliken charges and spin densities with hydrogens summed into heavy atoms:
               1          2
     1  C    0.595568   0.863117
     2  F   -0.227872   0.051018
     3  C    0.281907  -0.005046
     4  F   -0.286749  -0.000425
     5  F   -0.267625  -0.000586
     6  F   -0.283239   0.000074
     7  F   -0.288733   0.005714
     8  C    0.972913   0.033525
     9  F   -0.225571   0.051807
    10  F   -0.270600   0.000801
 Electronic spatial extent (au):  <R**2>=           1095.6625
 Charge=             -0.0000 electrons
 Dipole moment (field-independent basis, Debye):
    X=              0.4996    Y=              0.0641    Z=              0.0016  Tot=              0.5037
 Quadrupole moment (field-independent basis, Debye-Ang):
   XX=            -51.6668   YY=            -52.9730   ZZ=            -53.5526
   XY=              1.0290   XZ=              0.2855   YZ=              0.1127
 Traceless Quadrupole moment (field-independent basis, Debye-Ang):
   XX=              1.0640   YY=             -0.2422   ZZ=             -0.8218
   XY=              1.0290   XZ=              0.2855   YZ=              0.1127
 Octapole moment (field-independent basis, Debye-Ang**2):
  XXX=             -1.7159  YYY=             -5.0309  ZZZ=             -1.1514  XYY=             -1.2693
  XXY=              0.2590  XXZ=              0.3340  XZZ=             -2.5068  YZZ=             -1.3381
  YYZ=             -0.6108  XYZ=              0.2695
 Hexadecapole moment (field-independent basis, Debye-Ang**3):
 XXXX=           -535.6729 YYYY=           -282.4826 ZZZZ=           -242.1142 XXXY=             -1.0903
 XXXZ=             -0.2838 YYYX=             -5.8920 YYYZ=             -0.8642 ZZZX=             -1.7638
 ZZZY=             -1.9873 XXYY=           -135.4119 XXZZ=           -132.7089 YYZZ=            -89.0311
 XXYZ=              0.5491 YYXZ=             -0.6545 ZZXY=             -2.1625
 N-N= 6.541547540325D+02 E-N=-3.241008614410D+03  KE= 8.110945518672D+02
                          Isotropic Fermi Contact Couplings
        Atom                 a.u.       MegaHertz       Gauss      10(-4) cm-1
     1  C(13)              0.43366     487.51177     173.95632     162.61642
     2  F(19)              0.05038     211.96210      75.63335      70.70295
     3  C(13)              0.01420      15.96092       5.69525       5.32399
     4  F(19)              0.00001       0.02244       0.00801       0.00748
     5  F(19)              0.00357      15.01410       5.35741       5.00817
     6  F(19)              0.00088       3.69370       1.31801       1.23209
     7  F(19)              0.00832      34.98655      12.48407      11.67026
     8  C(13)              0.02856      32.11231      11.45847      10.71151
     9  F(19)              0.05110     215.00596      76.71947      71.71827
    10  F(19)              0.00131       5.49087       1.95928       1.83156
 --------------------------------------------------------
       Center         ----  Spin Dipole Couplings  ----
                      3XX-RR        3YY-RR        3ZZ-RR
 --------------------------------------------------------
     1   Atom        0.182210      0.265659     -0.447869
     2   Atom        0.165332      0.244253     -0.409585
     3   Atom        0.083899     -0.030110     -0.053789
     4   Atom        0.001242      0.003328     -0.004571
     5   Atom       -0.007879     -0.008114      0.015993
     6   Atom        0.000968      0.004249     -0.005218
     7   Atom        0.065112     -0.029049     -0.036063
     8   Atom        0.007421      0.013564     -0.020985
     9   Atom        0.138676      0.199621     -0.338297
    10   Atom       -0.008201     -0.007021      0.015222
 --------------------------------------------------------
                        XY            XZ            YZ
 --------------------------------------------------------
     1   Atom        0.724740      0.201125      0.213545
     2   Atom        0.615438      0.067081      0.117986
     3   Atom       -0.069574     -0.008937      0.002973
     4   Atom        0.004804      0.000759     -0.002521
     5   Atom        0.002083     -0.000690     -0.005042
     6   Atom        0.007576      0.001267      0.003967
     7   Atom        0.032503      0.011659      0.003563
     8   Atom        0.029561      0.004877      0.005859
     9   Atom        0.574320      0.260371      0.235146
    10   Atom        0.000032     -0.007511      0.003020
 --------------------------------------------------------


 ---------------------------------------------------------------------------------
              Anisotropic Spin Dipole Couplings in Principal Axis System
 ---------------------------------------------------------------------------------

       Atom             a.u.   MegaHertz   Gauss  10(-4) cm-1        Axes

              Baa    -0.5070   -68.029   -24.275   -22.692 -0.0851 -0.1905  0.9780
     1 C(13)  Bbb    -0.5020   -67.361   -24.036   -22.469  0.7348 -0.6749 -0.0675
              Bcc     1.0089   135.391    48.311    45.161  0.6729  0.7129  0.1974
 
              Baa    -0.4499  -225.944   -80.623   -75.367  0.4124 -0.4956  0.7644
     2 F(19)  Bbb    -0.3856  -193.658   -69.102   -64.597 -0.6081  0.4750  0.6361
              Bcc     0.8355   419.603   149.725   139.964  0.6783  0.7271  0.1055
 
              Baa    -0.0632    -8.480    -3.026    -2.829  0.4304  0.8937  0.1265
     3 C(13)  Bbb    -0.0542    -7.267    -2.593    -2.424 -0.0053 -0.1376  0.9905
              Bcc     0.1174    15.747     5.619     5.253  0.9026 -0.4270 -0.0545
 
              Baa    -0.0061    -3.063    -1.093    -1.022 -0.3524  0.4052  0.8436
     4 F(19)  Bbb    -0.0013    -0.650    -0.232    -0.217  0.7177 -0.4615  0.5215
              Bcc     0.0074     3.713     1.325     1.239  0.6006  0.7892 -0.1282
 
              Baa    -0.0105    -5.285    -1.886    -1.763 -0.5909  0.7952  0.1358
     5 F(19)  Bbb    -0.0065    -3.279    -1.170    -1.094  0.8055  0.5725  0.1528
              Bcc     0.0171     8.564     3.056     2.857 -0.0438 -0.1997  0.9789
 
              Baa    -0.0072    -3.608    -1.288    -1.204  0.3442 -0.5031  0.7927
     6 F(19)  Bbb    -0.0041    -2.058    -0.734    -0.686  0.7269 -0.3916 -0.5642
              Bcc     0.0113     5.666     2.022     1.890  0.5943  0.7704  0.2309
 
              Baa    -0.0392   -19.678    -7.022    -6.564 -0.3011  0.9529  0.0369
     7 F(19)  Bbb    -0.0374   -18.773    -6.699    -6.262 -0.0916 -0.0674  0.9935
              Bcc     0.0766    38.451    13.720    12.826  0.9492  0.2958  0.1076
 
              Baa    -0.0220    -2.946    -1.051    -0.983 -0.0000 -0.1627  0.9867
     8 C(13)  Bbb    -0.0192    -2.576    -0.919    -0.859  0.7476 -0.6553 -0.1081
              Bcc     0.0411     5.522     1.970     1.842  0.6641  0.7376  0.1217
 
              Baa    -0.4552  -228.627   -81.580   -76.262 -0.5094  0.1420  0.8487
     9 F(19)  Bbb    -0.3923  -197.013   -70.299   -65.716 -0.5469  0.7081 -0.4467
              Bcc     0.8475   425.640   151.879   141.978  0.6644  0.6917  0.2831
 
              Baa    -0.0106    -5.342    -1.906    -1.782  0.9198 -0.2563  0.2971
    10 F(19)  Bbb    -0.0071    -3.578    -1.277    -1.194  0.2790  0.9596 -0.0359
              Bcc     0.0178     8.920     3.183     2.975 -0.2759  0.1159  0.9542
 

 ---------------------------------------------------------------------------------

 Calling FoFJK, ICntrl=      2127 FMM=F ISym2X=0 I1Cent= 0 IOpClX= 1 NMat=1 NMatS=1 NMatT=0.
 ***** Axes restored to original set *****
 -------------------------------------------------------------------
 Center     Atomic                   Forces (Hartrees/Bohr)
 Number     Number              X              Y              Z
 -------------------------------------------------------------------
      1        6           0.026522561    0.018552713    0.001516935
      2        9          -0.008529448   -0.007182807   -0.007983645
      3        6          -0.015545204   -0.005840310    0.003301087
      4        9           0.000353047    0.000462043   -0.000360084
      5        9           0.002863598    0.001095672   -0.000827348
      6        9           0.000004637    0.000144020   -0.000135768
      7        9           0.000028875    0.000147097   -0.000054416
      8        6           0.000630128   -0.000010783    0.000311101
      9        9          -0.007887171   -0.007304364    0.006121943
     10        9           0.001558978   -0.000063281   -0.001889806
 -------------------------------------------------------------------
 Cartesian Forces:  Max     0.026522561 RMS     0.007516315

 GradGradGradGradGradGradGradGradGradGradGradGradGradGradGradGradGradGrad
 Berny optimization.
 FormGI is forming the generalized inverse of G from B-inverse, IUseBI=4.
 Internal  Forces:  Max     0.010971942 RMS     0.004245746
 Search for a local minimum.
 Step number   1 out of a maximum of   49
 All quantities printed in internal units (Hartrees-Bohrs-Radians)
 Mixed Optimization -- RFO/linear search
 Second derivative matrix not updated -- first step.
 ITU=  0
     Eigenvalues ---    0.00230   0.00240   0.05058   0.05631   0.07746
     Eigenvalues ---    0.08585   0.08795   0.15078   0.20426   0.25000
     Eigenvalues ---    0.25000   0.25000   0.25000   0.25000   0.25000
     Eigenvalues ---    0.27504   0.28542   0.55810   0.57697   0.59147
     Eigenvalues ---    0.59831   0.60226   0.60294   0.60450
 RFO step:  Lambda=-5.70920413D-03 EMin= 2.30000000D-03
 Linear search not attempted -- first point.
 Iteration  1 RMS(Cart)=  0.04910871 RMS(Int)=  0.00481122
 Iteration  2 RMS(Cart)=  0.00382659 RMS(Int)=  0.00309077
 Iteration  3 RMS(Cart)=  0.00002024 RMS(Int)=  0.00309074
 Iteration  4 RMS(Cart)=  0.00000023 RMS(Int)=  0.00309074
 Variable       Old X    -DE/DX   Delta X   Delta X   Delta X     New X
                                 (Linear)    (Quad)   (Total)
    R1        2.51622  -0.01097   0.00000  -0.01837  -0.01837   2.49785
    R2        2.90968  -0.00440   0.00000  -0.01512  -0.01512   2.89456
    R3        2.51074  -0.00967   0.00000  -0.01601  -0.01601   2.49473
    R4        2.54419  -0.00182   0.00000  -0.00323  -0.00323   2.54096
    R5        2.93236   0.00118   0.00000   0.00419   0.00419   2.93654
    R6        2.52811   0.00157   0.00000   0.00269   0.00269   2.53079
    R7        2.50762   0.00064   0.00000   0.00105   0.00105   2.50867
    R8        2.50586  -0.00006   0.00000  -0.00011  -0.00011   2.50575
    R9        2.50708  -0.00009   0.00000  -0.00015  -0.00015   2.50694
    A1        1.94407   0.01094   0.00000   0.08475   0.07553   2.01960
    A2        1.91892  -0.00310   0.00000   0.06232   0.04962   1.96855
    A3        1.94858   0.01016   0.00000   0.08150   0.07229   2.02087
    A4        1.87487   0.00300   0.00000   0.01833   0.01825   1.89312
    A5        2.02696  -0.00270   0.00000  -0.01366  -0.01368   2.01328
    A6        1.88758   0.00166   0.00000   0.00642   0.00624   1.89381
    A7        1.88225  -0.00151   0.00000  -0.00853  -0.00846   1.87379
    A8        1.90188   0.00061   0.00000   0.00946   0.00930   1.91118
    A9        1.88765  -0.00090   0.00000  -0.01048  -0.01050   1.87715
   A10        1.92278   0.00035   0.00000   0.00119   0.00119   1.92396
   A11        1.92932   0.00003   0.00000   0.00011   0.00011   1.92944
   A12        1.90752   0.00013   0.00000   0.00069   0.00069   1.90820
   A13        1.90348  -0.00025   0.00000  -0.00132  -0.00132   1.90216
   A14        1.90099  -0.00024   0.00000  -0.00097  -0.00097   1.90001
   A15        1.89938  -0.00002   0.00000   0.00028   0.00028   1.89966
    D1        1.11760  -0.00742   0.00000  -0.13205  -0.13479   0.98282
    D2       -0.99040  -0.00597   0.00000  -0.12593  -0.12853  -1.11893
    D3       -3.11520  -0.00423   0.00000  -0.10780  -0.11033   3.05765
    D4       -3.01292   0.00399   0.00000   0.07055   0.07306  -2.93986
    D5        1.16226   0.00544   0.00000   0.07667   0.07932   1.24157
    D6       -0.96254   0.00718   0.00000   0.09480   0.09751  -0.86503
    D7       -1.00256   0.00045   0.00000   0.00297   0.00295  -0.99961
    D8        1.10244   0.00037   0.00000   0.00216   0.00214   1.10459
    D9       -3.09063   0.00045   0.00000   0.00301   0.00299  -3.08764
   D10       -3.10661  -0.00051   0.00000  -0.00525  -0.00526  -3.11188
   D11       -1.00161  -0.00059   0.00000  -0.00605  -0.00607  -1.00768
   D12        1.08850  -0.00051   0.00000  -0.00520  -0.00522   1.08328
   D13        1.12220   0.00006   0.00000  -0.00621  -0.00617   1.11603
   D14       -3.05598  -0.00001   0.00000  -0.00701  -0.00697  -3.06295
   D15       -0.96587   0.00007   0.00000  -0.00616  -0.00612  -0.97199
         Item               Value     Threshold  Converged?
 Maximum Force            0.010972     0.000450     NO 
 RMS     Force            0.004246     0.000300     NO 
 Maximum Displacement     0.197325     0.001800     NO 
 RMS     Displacement     0.047322     0.001200     NO 
 Predicted change in Energy=-3.566793D-03
 GradGradGradGradGradGradGradGradGradGradGradGradGradGradGradGradGradGrad

                          Input orientation:                          
 ---------------------------------------------------------------------
 Center     Atomic      Atomic             Coordinates (Angstroms)
 Number     Number       Type             X           Y           Z
 ---------------------------------------------------------------------
      1          6           0       -1.054233    0.625661   -0.021419
      2          9           0       -1.138401    1.268280    1.130588
      3          6           0        0.007742   -0.475910   -0.091905
      4          9           0        1.756447    0.908317   -0.885676
      5          9           0       -0.222640   -1.353766    0.900210
      6          9           0        1.678077    0.547971    1.242690
      7          9           0        2.295894   -1.027171   -0.095821
      8          6           0        1.477971    0.007259    0.048609
      9          9           0       -1.113173    1.434101   -1.063419
     10          9           0       -0.102046   -1.097289   -1.273173
 ---------------------------------------------------------------------
                    Distance matrix (angstroms):
                    1          2          3          4          5
     1  C    0.000000
     2  F    1.321803   0.000000
     3  C    1.531737   2.418746   0.000000
     4  F    2.954108   3.546130   2.367304   0.000000
     5  F    2.336467   2.786902   1.344619   3.496170   0.000000
     6  F    3.011565   2.909289   2.370547   2.160077   2.710466
     7  F    3.736407   4.309009   2.353623   2.158933   2.727958
     8  C    2.607562   3.099396   1.553952   1.327533   2.338738
     9  F    1.320156   2.200409   2.418353   2.922800   3.524357
    10  F    2.332832   3.528175   1.339239   2.761631   2.191785
                    6          7          8          9         10
     6  F    0.000000
     7  F    2.157402   0.000000
     8  C    1.325987   1.326614   0.000000
     9  F    3.727524   4.314608   3.160144   0.000000
    10  F    3.493607   2.672301   2.337432   2.733918   0.000000
 Stoichiometry    C3F7(2)
 Framework group  C1[X(C3F7)]
 Deg. of freedom    24
 Full point group                 C1      NOp   1
 Largest Abelian subgroup         C1      NOp   1
 Largest concise Abelian subgroup C1      NOp   1
                         Standard orientation:                         
 ---------------------------------------------------------------------
 Center     Atomic      Atomic             Coordinates (Angstroms)
 Number     Number       Type             X           Y           Z
 ---------------------------------------------------------------------
      1          6           0        1.529821    0.105819    0.049685
      2          9           0        1.854132   -0.746540    1.006487
      3          6           0        0.104734    0.663932    0.111775
      4          9           0       -0.884393   -1.016857   -1.230128
      5          9           0       -0.074422    1.241882    1.312557
      6          9           0       -1.005779   -1.271739    0.911421
      7          9           0       -2.202610    0.234446   -0.064993
      8          6           0       -1.028561   -0.383177   -0.072540
      9          9           0        1.943213   -0.282197   -1.142524
     10          9           0       -0.034137    1.583290   -0.852100
 ---------------------------------------------------------------------
 Rotational constants (GHZ):           1.7854746           1.1492079           1.1181770
 Standard basis: 6-311+G(2d,2p) (5D, 7F)
 There are   290 symmetry adapted cartesian basis functions of A   symmetry.
 There are   270 symmetry adapted basis functions of A   symmetry.
   270 basis functions,   420 primitive gaussians,   290 cartesian basis functions
    41 alpha electrons       40 beta electrons
       nuclear repulsion energy       650.8177774990 Hartrees.
 NAtoms=   10 NActive=   10 NUniq=   10 SFac= 1.00D+00 NAtFMM=   60 NAOKFM=F Big=F
 Integral buffers will be    131072 words long.
 Raffenetti 2 integral format.
 Two-electron integral symmetry is turned on.
 Nuclear repulsion after empirical dispersion term =      650.8135042166 Hartrees.
 One-electron integrals computed using PRISM.
 NBasis=   270 RedAO= T EigKep=  7.48D-05  NBF=   270
 NBsUse=   270 1.00D-06 EigRej= -1.00D+00 NBFU=   270
 Initial guess from the checkpoint file:  "c3f7.chk"
 B after Tr=     0.000000   -0.000000    0.000000
         Rot=    0.999970   -0.006706   -0.003825   -0.001034 Ang=  -0.89 deg.
 Initial guess <Sx>= 0.0000 <Sy>= 0.0000 <Sz>= 0.5000 <S**2>= 0.7525 S= 0.5013
 ExpMin= 4.38D-02 ExpMax= 1.14D+04 ExpMxC= 1.72D+03 IAcc=2 IRadAn=         4 AccDes= 0.00D+00
 Harris functional with IExCor= 4639 and IRadAn=       4 diagonalized for initial guess.
 HarFok:  IExCor= 4639 AccDes= 0.00D+00 IRadAn=         4 IDoV= 1 UseB2=F ITyADJ=14
 ICtDFT=  3500011 ScaDFX=  1.000000  1.000000  1.000000  1.000000
 FoFCou: FMM=F IPFlag=           0 FMFlag=      100000 FMFlg1=           0
         NFxFlg=           0 DoJE=T BraDBF=F KetDBF=T FulRan=T
         wScrn=  0.000000 ICntrl=       500 IOpCl=  0 I1Cent=   200000004 NGrid=           0
         NMat0=    1 NMatS0=      1 NMatT0=    0 NMatD0=    1 NMtDS0=    0 NMtDT0=    0
 Petite list used in FoFCou.
 Keep R1 and R2 ints in memory in canonical form, NReq=2703878162.
 Requested convergence on RMS density matrix=1.00D-08 within  32 cycles.
 Requested convergence on MAX density matrix=1.00D-06.
 Requested convergence on             energy=1.00D-06.
 No special actions if energy rises.
 SCF Done:  E(UwB97XD) =  -813.185062815     A.U. after   12 cycles
            NFock= 12  Conv=0.77D-08     -V/T= 2.0026
 <Sx>= 0.0000 <Sy>= 0.0000 <Sz>= 0.5000 <S**2>= 0.7529 S= 0.5014
 <L.S>= 0.000000000000E+00
 Annihilation of the first spin contaminant:
 S**2 before annihilation     0.7529,   after     0.7500
 QCSCF skips out because SCF is already converged.
 Calling FoFJK, ICntrl=      2127 FMM=F ISym2X=0 I1Cent= 0 IOpClX= 1 NMat=1 NMatS=1 NMatT=0.
 ***** Axes restored to original set *****
 -------------------------------------------------------------------
 Center     Atomic                   Forces (Hartrees/Bohr)
 Number     Number              X              Y              Z
 -------------------------------------------------------------------
      1        6           0.000565868   -0.001516657    0.000304025
      2        9           0.001893703   -0.002848503   -0.008373138
      3        6          -0.003557702    0.006144053    0.002806632
      4        9          -0.000403053    0.000943575   -0.000497555
      5        9          -0.000412772    0.002269570   -0.001785056
      6        9          -0.000699617    0.000954914    0.000624168
      7        9           0.001280058    0.000070735    0.000095400
      8        6           0.000580872   -0.003288084   -0.000551408
      9        9           0.001818222   -0.003500178    0.007458268
     10        9          -0.001065579    0.000770574   -0.000081336
 -------------------------------------------------------------------
 Cartesian Forces:  Max     0.008373138 RMS     0.002830958

 GradGradGradGradGradGradGradGradGradGradGradGradGradGradGradGradGradGrad
 Berny optimization.
 Using GEDIIS/GDIIS optimizer.
 FormGI is forming the generalized inverse of G from B-inverse, IUseBI=4.
 Internal  Forces:  Max     0.008801436 RMS     0.002586725
 Search for a local minimum.
 Step number   2 out of a maximum of   49
 All quantities printed in internal units (Hartrees-Bohrs-Radians)
 Mixed Optimization -- RFO/linear search
 Update second derivatives using D2CorX and points    1    2
 DE= -2.19D-03 DEPred=-3.57D-03 R= 6.15D-01
 TightC=F SS=  1.41D+00  RLast= 2.89D-01 DXNew= 5.0454D-01 8.6595D-01
 Trust test= 6.15D-01 RLast= 2.89D-01 DXMaxT set to 5.05D-01
 ITU=  1  0
 Use linear search instead of GDIIS.
     Eigenvalues ---    0.00230   0.00240   0.05779   0.06142   0.07794
     Eigenvalues ---    0.08710   0.08787   0.15061   0.20254   0.23946
     Eigenvalues ---    0.25000   0.25000   0.25000   0.25000   0.25304
     Eigenvalues ---    0.27486   0.29840   0.54672   0.56053   0.57768
     Eigenvalues ---    0.59559   0.60227   0.60306   0.60468
 RFO step:  Lambda=-6.76909946D-04 EMin= 2.29834598D-03
 Quartic linear search produced a step of -0.13585.
 Iteration  1 RMS(Cart)=  0.02163147 RMS(Int)=  0.00044346
 Iteration  2 RMS(Cart)=  0.00022411 RMS(Int)=  0.00036675
 Iteration  3 RMS(Cart)=  0.00000004 RMS(Int)=  0.00036675
 Variable       Old X    -DE/DX   Delta X   Delta X   Delta X     New X
                                 (Linear)    (Quad)   (Total)
    R1        2.49785  -0.00880   0.00250  -0.01788  -0.01538   2.48247
    R2        2.89456  -0.00865   0.00205  -0.02998  -0.02792   2.86664
    R3        2.49473  -0.00811   0.00217  -0.01608  -0.01390   2.48083
    R4        2.54096  -0.00273   0.00044  -0.00507  -0.00463   2.53633
    R5        2.93654   0.00027  -0.00057   0.00202   0.00146   2.93800
    R6        2.53079  -0.00020  -0.00037   0.00047   0.00011   2.53090
    R7        2.50867   0.00091  -0.00014   0.00158   0.00143   2.51011
    R8        2.50575   0.00084   0.00001   0.00116   0.00117   2.50692
    R9        2.50694   0.00073   0.00002   0.00098   0.00100   2.50794
    A1        2.01960  -0.00055  -0.01026   0.00604  -0.00314   2.01646
    A2        1.96855  -0.00103  -0.00674  -0.01040  -0.01562   1.95292
    A3        2.02087  -0.00049  -0.00982   0.00537  -0.00338   2.01749
    A4        1.89312  -0.00113  -0.00248  -0.00110  -0.00357   1.88956
    A5        2.01328   0.00088   0.00186  -0.00135   0.00052   2.01380
    A6        1.89381  -0.00124  -0.00085  -0.00482  -0.00564   1.88818
    A7        1.87379   0.00056   0.00115   0.00155   0.00269   1.87648
    A8        1.91118   0.00030  -0.00126   0.00485   0.00359   1.91477
    A9        1.87715   0.00065   0.00143   0.00136   0.00279   1.87994
   A10        1.92396  -0.00113  -0.00016  -0.00491  -0.00510   1.91887
   A11        1.92944  -0.00146  -0.00002  -0.00623  -0.00627   1.92316
   A12        1.90820   0.00253  -0.00009   0.01145   0.01136   1.91956
   A13        1.90216   0.00033   0.00018  -0.00437  -0.00425   1.89790
   A14        1.90001  -0.00022   0.00013   0.00154   0.00167   1.90168
   A15        1.89966  -0.00003  -0.00004   0.00268   0.00265   1.90230
    D1        0.98282   0.00183   0.01831  -0.01714   0.00151   0.98433
    D2       -1.11893   0.00136   0.01746  -0.01743   0.00035  -1.11858
    D3        3.05765   0.00086   0.01499  -0.01467   0.00063   3.05828
    D4       -2.93986  -0.00104  -0.00992  -0.02056  -0.03079  -2.97065
    D5        1.24157  -0.00152  -0.01078  -0.02084  -0.03194   1.20963
    D6       -0.86503  -0.00202  -0.01325  -0.01809  -0.03167  -0.89670
    D7       -0.99961   0.00056  -0.00040  -0.01649  -0.01691  -1.01652
    D8        1.10459  -0.00071  -0.00029  -0.02921  -0.02948   1.07511
    D9       -3.08764  -0.00005  -0.00041  -0.02252  -0.02292  -3.11056
   D10       -3.11188   0.00102   0.00071  -0.01536  -0.01466  -3.12653
   D11       -1.00768  -0.00025   0.00082  -0.02808  -0.02723  -1.03491
   D12        1.08328   0.00041   0.00071  -0.02138  -0.02067   1.06261
   D13        1.11603   0.00003   0.00084  -0.02256  -0.02175   1.09428
   D14       -3.06295  -0.00124   0.00095  -0.03528  -0.03432  -3.09728
   D15       -0.97199  -0.00058   0.00083  -0.02858  -0.02776  -0.99975
         Item               Value     Threshold  Converged?
 Maximum Force            0.008801     0.000450     NO 
 RMS     Force            0.002587     0.000300     NO 
 Maximum Displacement     0.058442     0.001800     NO 
 RMS     Displacement     0.021667     0.001200     NO 
 Predicted change in Energy=-3.897295D-04
 GradGradGradGradGradGradGradGradGradGradGradGradGradGradGradGradGradGrad

                          Input orientation:                          
 ---------------------------------------------------------------------
 Center     Atomic      Atomic             Coordinates (Angstroms)
 Number     Number       Type             X           Y           Z
 ---------------------------------------------------------------------
      1          6           0       -1.049517    0.613689   -0.019515
      2          9           0       -1.128365    1.246956    1.128731
      3          6           0        0.002866   -0.476304   -0.094205
      4          9           0        1.750809    0.895281   -0.902746
      5          9           0       -0.229462   -1.353749    0.894494
      6          9           0        1.658747    0.575747    1.229395
      7          9           0        2.302811   -1.022699   -0.073444
      8          6           0        1.473971    0.006986    0.045227
      9          9           0       -1.082247    1.441155   -1.038176
     10          9           0       -0.113974   -1.089608   -1.279076
 ---------------------------------------------------------------------
                    Distance matrix (angstroms):
                    1          2          3          4          5
     1  C    0.000000
     2  F    1.313665   0.000000
     3  C    1.516962   2.396849   0.000000
     4  F    2.949782   3.541217   2.364380   0.000000
     5  F    2.319206   2.761623   1.342167   3.494236   0.000000
     6  F    2.982601   2.868562   2.366574   2.157917   2.720377
     7  F    3.730788   4.285969   2.364049   2.161272   2.731100
     8  C    2.596203   3.079556   1.554723   1.328292   2.339774
     9  F    1.312799   2.176081   2.396915   2.888343   3.503419
    10  F    2.315805   3.505147   1.339295   2.749332   2.192604
                    6          7          8          9         10
     6  F    0.000000
     7  F    2.160379   0.000000
     8  C    1.326607   1.327143   0.000000
     9  F    3.661128   4.296499   3.124877   0.000000
    10  F    3.494048   2.701643   2.340484   2.720358   0.000000
 Stoichiometry    C3F7(2)
 Framework group  C1[X(C3F7)]
 Deg. of freedom    24
 Full point group                 C1      NOp   1
 Largest Abelian subgroup         C1      NOp   1
 Largest concise Abelian subgroup C1      NOp   1
                         Standard orientation:                         
 ---------------------------------------------------------------------
 Center     Atomic      Atomic             Coordinates (Angstroms)
 Number     Number       Type             X           Y           Z
 ---------------------------------------------------------------------
      1          6           0        1.521085    0.112053    0.037402
      2          9           0        1.841325   -0.687404    1.029385
      3          6           0        0.111642    0.671558    0.077385
      4          9           0       -0.896313   -1.053598   -1.186797
      5          9           0       -0.055142    1.308235    1.247102
      6          9           0       -0.973374   -1.236563    0.961967
      7          9           0       -2.207138    0.226448   -0.040360
      8          6           0       -1.026612   -0.379840   -0.049505
      9          9           0        1.908456   -0.366876   -1.121914
     10          9           0       -0.021891    1.540578   -0.932904
 ---------------------------------------------------------------------
 Rotational constants (GHZ):           1.7910977           1.1626838           1.1290923
 Standard basis: 6-311+G(2d,2p) (5D, 7F)
 There are   290 symmetry adapted cartesian basis functions of A   symmetry.
 There are   270 symmetry adapted basis functions of A   symmetry.
   270 basis functions,   420 primitive gaussians,   290 cartesian basis functions
    41 alpha electrons       40 beta electrons
       nuclear repulsion energy       652.9437254509 Hartrees.
 NAtoms=   10 NActive=   10 NUniq=   10 SFac= 1.00D+00 NAtFMM=   60 NAOKFM=F Big=F
 Integral buffers will be    131072 words long.
 Raffenetti 2 integral format.
 Two-electron integral symmetry is turned on.
 Nuclear repulsion after empirical dispersion term =      652.9394611915 Hartrees.
 One-electron integrals computed using PRISM.
 NBasis=   270 RedAO= T EigKep=  7.27D-05  NBF=   270
 NBsUse=   270 1.00D-06 EigRej= -1.00D+00 NBFU=   270
 Initial guess from the checkpoint file:  "c3f7.chk"
 B after Tr=     0.000000    0.000000    0.000000
         Rot=    0.999704    0.024002   -0.003683    0.001545 Ang=   2.79 deg.
 Initial guess <Sx>= 0.0000 <Sy>= 0.0000 <Sz>= 0.5000 <S**2>= 0.7528 S= 0.5014
 ExpMin= 4.38D-02 ExpMax= 1.14D+04 ExpMxC= 1.72D+03 IAcc=2 IRadAn=         4 AccDes= 0.00D+00
 Harris functional with IExCor= 4639 and IRadAn=       4 diagonalized for initial guess.
 HarFok:  IExCor= 4639 AccDes= 0.00D+00 IRadAn=         4 IDoV= 1 UseB2=F ITyADJ=14
 ICtDFT=  3500011 ScaDFX=  1.000000  1.000000  1.000000  1.000000
 FoFCou: FMM=F IPFlag=           0 FMFlag=      100000 FMFlg1=           0
         NFxFlg=           0 DoJE=T BraDBF=F KetDBF=T FulRan=T
         wScrn=  0.000000 ICntrl=       500 IOpCl=  0 I1Cent=   200000004 NGrid=           0
         NMat0=    1 NMatS0=      1 NMatT0=    0 NMatD0=    1 NMtDS0=    0 NMtDT0=    0
 Petite list used in FoFCou.
 Keep R1 and R2 ints in memory in canonical form, NReq=2703878162.
 Requested convergence on RMS density matrix=1.00D-08 within  32 cycles.
 Requested convergence on MAX density matrix=1.00D-06.
 Requested convergence on             energy=1.00D-06.
 No special actions if energy rises.
 SCF Done:  E(UwB97XD) =  -813.185452018     A.U. after   11 cycles
            NFock= 11  Conv=0.51D-08     -V/T= 2.0025
 <Sx>= 0.0000 <Sy>= 0.0000 <Sz>= 0.5000 <S**2>= 0.7528 S= 0.5014
 <L.S>= 0.000000000000E+00
 Annihilation of the first spin contaminant:
 S**2 before annihilation     0.7528,   after     0.7500
 QCSCF skips out because SCF is already converged.
 Calling FoFJK, ICntrl=      2127 FMM=F ISym2X=0 I1Cent= 0 IOpClX= 1 NMat=1 NMatS=1 NMatT=0.
 ***** Axes restored to original set *****
 -------------------------------------------------------------------
 Center     Atomic                   Forces (Hartrees/Bohr)
 Number     Number              X              Y              Z
 -------------------------------------------------------------------
      1        6          -0.000588557    0.000748855    0.000307377
      2        9           0.000013972   -0.000611347    0.000305057
      3        6          -0.000041621    0.001654659    0.001339996
      4        9           0.000225675    0.000085808   -0.000663346
      5        9           0.000108210   -0.000195497   -0.000185401
      6        9           0.000097092    0.000039185    0.000951810
      7        9          -0.000303360    0.000878496    0.000183708
      8        6           0.000201920   -0.001480146   -0.000783988
      9        9           0.000218423   -0.000253411   -0.000526904
     10        9           0.000068246   -0.000866603   -0.000928310
 -------------------------------------------------------------------
 Cartesian Forces:  Max     0.001654659 RMS     0.000664684

 GradGradGradGradGradGradGradGradGradGradGradGradGradGradGradGradGradGrad
 Berny optimization.
 Using GEDIIS/GDIIS optimizer.
 FormGI is forming the generalized inverse of G from B-inverse, IUseBI=4.
 Internal  Forces:  Max     0.001211720 RMS     0.000413612
 Search for a local minimum.
 Step number   3 out of a maximum of   49
 All quantities printed in internal units (Hartrees-Bohrs-Radians)
 Mixed Optimization -- En-DIIS/RFO-DIIS
 Update second derivatives using D2CorX and points    1    2    3
 DE= -3.89D-04 DEPred=-3.90D-04 R= 9.99D-01
 TightC=F SS=  1.41D+00  RLast= 1.01D-01 DXNew= 8.4853D-01 3.0384D-01
 Trust test= 9.99D-01 RLast= 1.01D-01 DXMaxT set to 5.05D-01
 ITU=  1  1  0
 Use linear search instead of GDIIS.
     Eigenvalues ---    0.00229   0.00239   0.05786   0.06026   0.07900
     Eigenvalues ---    0.08680   0.08976   0.15043   0.20285   0.24281
     Eigenvalues ---    0.24980   0.25000   0.25000   0.25023   0.26275
     Eigenvalues ---    0.27465   0.29153   0.53113   0.56001   0.58668
     Eigenvalues ---    0.59586   0.60235   0.60396   0.62227
 RFO step:  Lambda=-4.68704201D-05 EMin= 2.28501022D-03
 Quartic linear search produced a step of -0.01984.
 Iteration  1 RMS(Cart)=  0.02087531 RMS(Int)=  0.00029480
 Iteration  2 RMS(Cart)=  0.00030342 RMS(Int)=  0.00000147
 Iteration  3 RMS(Cart)=  0.00000006 RMS(Int)=  0.00000147
 Variable       Old X    -DE/DX   Delta X   Delta X   Delta X     New X
                                 (Linear)    (Quad)   (Total)
    R1        2.48247  -0.00003   0.00031  -0.00103  -0.00072   2.48174
    R2        2.86664   0.00017   0.00055  -0.00124  -0.00068   2.86596
    R3        2.48083   0.00025   0.00028  -0.00048  -0.00021   2.48062
    R4        2.53633  -0.00003   0.00009  -0.00035  -0.00026   2.53607
    R5        2.93800   0.00003  -0.00003   0.00020   0.00017   2.93817
    R6        2.53090   0.00121  -0.00000   0.00206   0.00206   2.53296
    R7        2.51011   0.00058  -0.00003   0.00103   0.00100   2.51111
    R8        2.50692   0.00088  -0.00002   0.00151   0.00148   2.50841
    R9        2.50794  -0.00089  -0.00002  -0.00138  -0.00140   2.50654
    A1        2.01646  -0.00051   0.00006  -0.00142  -0.00136   2.01510
    A2        1.95292   0.00092   0.00031   0.00381   0.00412   1.95705
    A3        2.01749  -0.00064   0.00007  -0.00195  -0.00188   2.01562
    A4        1.88956  -0.00010   0.00007   0.00007   0.00014   1.88970
    A5        2.01380   0.00062  -0.00001   0.00354   0.00352   2.01733
    A6        1.88818   0.00012   0.00011   0.00092   0.00103   1.88920
    A7        1.87648  -0.00014  -0.00005  -0.00045  -0.00051   1.87597
    A8        1.91477  -0.00011  -0.00007  -0.00261  -0.00268   1.91209
    A9        1.87994  -0.00040  -0.00006  -0.00177  -0.00183   1.87810
   A10        1.91887  -0.00002   0.00010   0.00002   0.00012   1.91899
   A11        1.92316  -0.00027   0.00012  -0.00127  -0.00115   1.92202
   A12        1.91956   0.00051  -0.00023   0.00213   0.00191   1.92147
   A13        1.89790   0.00035   0.00008   0.00231   0.00239   1.90029
   A14        1.90168  -0.00031  -0.00003  -0.00148  -0.00151   1.90017
   A15        1.90230  -0.00027  -0.00005  -0.00173  -0.00178   1.90053
    D1        0.98433  -0.00008  -0.00003  -0.03754  -0.03757   0.94676
    D2       -1.11858  -0.00023  -0.00001  -0.03935  -0.03936  -1.15793
    D3        3.05828  -0.00021  -0.00001  -0.04009  -0.04011   3.01817
    D4       -2.97065   0.00008   0.00061  -0.03530  -0.03469  -3.00534
    D5        1.20963  -0.00006   0.00063  -0.03711  -0.03648   1.17315
    D6       -0.89670  -0.00004   0.00063  -0.03786  -0.03723  -0.93393
    D7       -1.01652  -0.00017   0.00034  -0.01608  -0.01575  -1.03227
    D8        1.07511   0.00008   0.00058  -0.01402  -0.01343   1.06167
    D9       -3.11056  -0.00009   0.00045  -0.01561  -0.01515  -3.12571
   D10       -3.12653  -0.00034   0.00029  -0.01815  -0.01785   3.13880
   D11       -1.03491  -0.00008   0.00054  -0.01608  -0.01554  -1.05045
   D12        1.06261  -0.00026   0.00041  -0.01767  -0.01726   1.04535
   D13        1.09428   0.00008   0.00043  -0.01390  -0.01347   1.08081
   D14       -3.09728   0.00034   0.00068  -0.01184  -0.01116  -3.10843
   D15       -0.99975   0.00016   0.00055  -0.01343  -0.01288  -1.01263
         Item               Value     Threshold  Converged?
 Maximum Force            0.001212     0.000450     NO 
 RMS     Force            0.000414     0.000300     NO 
 Maximum Displacement     0.057115     0.001800     NO 
 RMS     Displacement     0.020883     0.001200     NO 
 Predicted change in Energy=-2.346973D-05
 GradGradGradGradGradGradGradGradGradGradGradGradGradGradGradGradGradGrad

                          Input orientation:                          
 ---------------------------------------------------------------------
 Center     Atomic      Atomic             Coordinates (Angstroms)
 Number     Number       Type             X           Y           Z
 ---------------------------------------------------------------------
      1          6           0       -1.051089    0.614910   -0.021368
      2          9           0       -1.158589    1.219063    1.139731
      3          6           0        0.002596   -0.473402   -0.094856
      4          9           0        1.757325    0.878172   -0.923868
      5          9           0       -0.227448   -1.349348    0.895521
      6          9           0        1.658343    0.594227    1.215940
      7          9           0        2.302291   -1.024649   -0.059227
      8          6           0        1.475059    0.007485    0.039459
      9          9           0       -1.057421    1.463533   -1.022843
     10          9           0       -0.115428   -1.092538   -1.277806
 ---------------------------------------------------------------------
                    Distance matrix (angstroms):
                    1          2          3          4          5
     1  C    0.000000
     2  F    1.313281   0.000000
     3  C    1.516600   2.395202   0.000000
     4  F    2.961588   3.588482   2.364971   0.000000
     5  F    2.318918   2.742881   1.342031   3.494474   0.000000
     6  F    2.978654   2.886405   2.366329   2.160833   2.726969
     7  F    3.732927   4.295280   2.365109   2.159936   2.723335
     8  C    2.598864   3.100746   1.554812   1.328823   2.339310
     9  F    1.312689   2.178698   2.395102   2.876672   3.504465
    10  F    2.317214   3.503737   1.340385   2.741565   2.191312
                    6          7          8          9         10
     6  F    0.000000
     7  F    2.159046   0.000000
     8  C    1.327391   1.326405   0.000000
     9  F    3.625357   4.290369   3.108379   0.000000
    10  F    3.494311   2.708303   2.339848   2.736030   0.000000
 Stoichiometry    C3F7(2)
 Framework group  C1[X(C3F7)]
 Deg. of freedom    24
 Full point group                 C1      NOp   1
 Largest Abelian subgroup         C1      NOp   1
 Largest concise Abelian subgroup C1      NOp   1
                         Standard orientation:                         
 ---------------------------------------------------------------------
 Center     Atomic      Atomic             Coordinates (Angstroms)
 Number     Number       Type             X           Y           Z
 ---------------------------------------------------------------------
      1          6           0        1.523449    0.113229    0.005922
      2          9           0        1.869979   -0.554142    1.082602
      3          6           0        0.114036    0.673228    0.011520
      4          9           0       -0.923560   -1.143399   -1.091361
      5          9           0       -0.039925    1.414177    1.119824
      6          9           0       -0.953201   -1.154817    1.069239
      7          9           0       -2.207749    0.223742   -0.020331
      8          6           0       -1.027773   -0.381929   -0.007353
      9          9           0        1.881325   -0.504776   -1.095507
     10          9           0       -0.033343    1.449530   -1.071193
 ---------------------------------------------------------------------
 Rotational constants (GHZ):           1.7914575           1.1603789           1.1292546
 Standard basis: 6-311+G(2d,2p) (5D, 7F)
 There are   290 symmetry adapted cartesian basis functions of A   symmetry.
 There are   270 symmetry adapted basis functions of A   symmetry.
   270 basis functions,   420 primitive gaussians,   290 cartesian basis functions
    41 alpha electrons       40 beta electrons
       nuclear repulsion energy       652.8159942673 Hartrees.
 NAtoms=   10 NActive=   10 NUniq=   10 SFac= 1.00D+00 NAtFMM=   60 NAOKFM=F Big=F
 Integral buffers will be    131072 words long.
 Raffenetti 2 integral format.
 Two-electron integral symmetry is turned on.
 Nuclear repulsion after empirical dispersion term =      652.8117305396 Hartrees.
 One-electron integrals computed using PRISM.
 NBasis=   270 RedAO= T EigKep=  7.27D-05  NBF=   270
 NBsUse=   270 1.00D-06 EigRej= -1.00D+00 NBFU=   270
 Initial guess from the checkpoint file:  "c3f7.chk"
 B after Tr=    -0.000000   -0.000000    0.000000
         Rot=    0.998883    0.046840   -0.006154    0.000205 Ang=   5.42 deg.
 Initial guess <Sx>= 0.0000 <Sy>= 0.0000 <Sz>= 0.5000 <S**2>= 0.7528 S= 0.5014
 ExpMin= 4.38D-02 ExpMax= 1.14D+04 ExpMxC= 1.72D+03 IAcc=2 IRadAn=         4 AccDes= 0.00D+00
 Harris functional with IExCor= 4639 and IRadAn=       4 diagonalized for initial guess.
 HarFok:  IExCor= 4639 AccDes= 0.00D+00 IRadAn=         4 IDoV= 1 UseB2=F ITyADJ=14
 ICtDFT=  3500011 ScaDFX=  1.000000  1.000000  1.000000  1.000000
 FoFCou: FMM=F IPFlag=           0 FMFlag=      100000 FMFlg1=           0
         NFxFlg=           0 DoJE=T BraDBF=F KetDBF=T FulRan=T
         wScrn=  0.000000 ICntrl=       500 IOpCl=  0 I1Cent=   200000004 NGrid=           0
         NMat0=    1 NMatS0=      1 NMatT0=    0 NMatD0=    1 NMtDS0=    0 NMtDT0=    0
 Petite list used in FoFCou.
 Keep R1 and R2 ints in memory in canonical form, NReq=2703878162.
 Requested convergence on RMS density matrix=1.00D-08 within  32 cycles.
 Requested convergence on MAX density matrix=1.00D-06.
 Requested convergence on             energy=1.00D-06.
 No special actions if energy rises.
 SCF Done:  E(UwB97XD) =  -813.185476323     A.U. after   10 cycles
            NFock= 10  Conv=0.87D-08     -V/T= 2.0025
 <Sx>= 0.0000 <Sy>= 0.0000 <Sz>= 0.5000 <S**2>= 0.7528 S= 0.5014
 <L.S>= 0.000000000000E+00
 Annihilation of the first spin contaminant:
 S**2 before annihilation     0.7528,   after     0.7500
 QCSCF skips out because SCF is already converged.
 Calling FoFJK, ICntrl=      2127 FMM=F ISym2X=0 I1Cent= 0 IOpClX= 1 NMat=1 NMatS=1 NMatT=0.
 ***** Axes restored to original set *****
 -------------------------------------------------------------------
 Center     Atomic                   Forces (Hartrees/Bohr)
 Number     Number              X              Y              Z
 -------------------------------------------------------------------
      1        6          -0.000164037   -0.000075159    0.000331294
      2        9           0.000006466   -0.000008453    0.000025546
      3        6           0.000184229    0.000311059    0.000917237
      4        9           0.000049941    0.000064623    0.000109973
      5        9          -0.000023312    0.000016334    0.000031156
      6        9          -0.000094787    0.000370386    0.000384393
      7        9          -0.000304765    0.000299147    0.000056256
      8        6           0.000294180   -0.000845163   -0.000797810
      9        9          -0.000017411    0.000182746   -0.000255665
     10        9           0.000069495   -0.000315520   -0.000802379
 -------------------------------------------------------------------
 Cartesian Forces:  Max     0.000917237 RMS     0.000360542

 GradGradGradGradGradGradGradGradGradGradGradGradGradGradGradGradGradGrad
 Berny optimization.
 Using GEDIIS/GDIIS optimizer.
 FormGI is forming the generalized inverse of G from B-inverse, IUseBI=4.
 Internal  Forces:  Max     0.000847973 RMS     0.000201396
 Search for a local minimum.
 Step number   4 out of a maximum of   49
 All quantities printed in internal units (Hartrees-Bohrs-Radians)
 Mixed Optimization -- En-DIIS/RFO-DIIS
 Swapping is turned off.
 Update second derivatives using D2CorX and points    1    2    3    4
 DE= -2.43D-05 DEPred=-2.35D-05 R= 1.04D+00
 TightC=F SS=  1.41D+00  RLast= 1.03D-01 DXNew= 8.4853D-01 3.0814D-01
 Trust test= 1.04D+00 RLast= 1.03D-01 DXMaxT set to 5.05D-01
 ITU=  1  1  1  0
     Eigenvalues ---    0.00166   0.00292   0.05747   0.06003   0.07912
     Eigenvalues ---    0.08652   0.09560   0.14995   0.20058   0.23752
     Eigenvalues ---    0.24860   0.25000   0.25019   0.25048   0.26811
     Eigenvalues ---    0.27753   0.29552   0.50600   0.55966   0.58879
     Eigenvalues ---    0.59737   0.60103   0.60536   0.60866
 En-DIIS/RFO-DIIS/Sim-DIIS IScMMF=       -3 using points:     4    3
 RFO step:  Lambda=-1.06304687D-05.
 DidBck=F Rises=F RFO-DIIS coefs:    1.35841   -0.35841
 Iteration  1 RMS(Cart)=  0.01220381 RMS(Int)=  0.00008175
 Iteration  2 RMS(Cart)=  0.00008531 RMS(Int)=  0.00000065
 Iteration  3 RMS(Cart)=  0.00000000 RMS(Int)=  0.00000065
 Variable       Old X    -DE/DX   Delta X   Delta X   Delta X     New X
                                 (Linear)    (Quad)   (Total)
    R1        2.48174   0.00002  -0.00026  -0.00016  -0.00042   2.48132
    R2        2.86596   0.00020  -0.00024   0.00037   0.00012   2.86608
    R3        2.48062   0.00032  -0.00007   0.00036   0.00028   2.48090
    R4        2.53607   0.00002  -0.00009  -0.00002  -0.00011   2.53596
    R5        2.93817  -0.00011   0.00006  -0.00045  -0.00039   2.93778
    R6        2.53296   0.00085   0.00074   0.00138   0.00212   2.53508
    R7        2.51111  -0.00003   0.00036  -0.00017   0.00019   2.51130
    R8        2.50841   0.00049   0.00053   0.00073   0.00126   2.50967
    R9        2.50654  -0.00043  -0.00050  -0.00058  -0.00108   2.50546
    A1        2.01510  -0.00003  -0.00049   0.00022  -0.00026   2.01484
    A2        1.95705   0.00003   0.00148  -0.00054   0.00094   1.95798
    A3        2.01562   0.00001  -0.00067   0.00045  -0.00022   2.01539
    A4        1.88970  -0.00011   0.00005  -0.00055  -0.00049   1.88921
    A5        2.01733   0.00014   0.00126   0.00000   0.00126   2.01859
    A6        1.88920   0.00008   0.00037   0.00028   0.00065   1.88985
    A7        1.87597   0.00002  -0.00018   0.00020   0.00001   1.87598
    A8        1.91209   0.00008  -0.00096   0.00108   0.00012   1.91221
    A9        1.87810  -0.00021  -0.00066  -0.00093  -0.00158   1.87652
   A10        1.91899   0.00020   0.00004   0.00074   0.00078   1.91977
   A11        1.92202  -0.00025  -0.00041  -0.00143  -0.00184   1.92018
   A12        1.92147  -0.00004   0.00068   0.00014   0.00082   1.92230
   A13        1.90029  -0.00008   0.00086  -0.00154  -0.00068   1.89961
   A14        1.90017   0.00001  -0.00054   0.00094   0.00040   1.90057
   A15        1.90053   0.00017  -0.00064   0.00116   0.00053   1.90105
    D1        0.94676  -0.00001  -0.01346   0.00814  -0.00533   0.94143
    D2       -1.15793  -0.00005  -0.01411   0.00829  -0.00582  -1.16375
    D3        3.01817   0.00006  -0.01437   0.00928  -0.00510   3.01308
    D4       -3.00534  -0.00000  -0.01243   0.00803  -0.00440  -3.00974
    D5        1.17315  -0.00003  -0.01308   0.00819  -0.00489   1.16826
    D6       -0.93393   0.00008  -0.01334   0.00917  -0.00417  -0.93810
    D7       -1.03227   0.00002  -0.00564  -0.01343  -0.01907  -1.05134
    D8        1.06167  -0.00011  -0.00481  -0.01577  -0.02058   1.04109
    D9       -3.12571  -0.00009  -0.00543  -0.01514  -0.02057   3.13690
   D10        3.13880   0.00006  -0.00640  -0.01287  -0.01927   3.11953
   D11       -1.05045  -0.00007  -0.00557  -0.01521  -0.02078  -1.07123
   D12        1.04535  -0.00006  -0.00619  -0.01459  -0.02078   1.02458
   D13        1.08081   0.00007  -0.00483  -0.01376  -0.01859   1.06222
   D14       -3.10843  -0.00007  -0.00400  -0.01610  -0.02010  -3.12853
   D15       -1.01263  -0.00005  -0.00462  -0.01548  -0.02009  -1.03273
         Item               Value     Threshold  Converged?
 Maximum Force            0.000848     0.000450     NO 
 RMS     Force            0.000201     0.000300     YES
 Maximum Displacement     0.033805     0.001800     NO 
 RMS     Displacement     0.012204     0.001200     NO 
 Predicted change in Energy=-5.335453D-06
 GradGradGradGradGradGradGradGradGradGradGradGradGradGradGradGradGradGrad

                          Input orientation:                          
 ---------------------------------------------------------------------
 Center     Atomic      Atomic             Coordinates (Angstroms)
 Number     Number       Type             X           Y           Z
 ---------------------------------------------------------------------
      1          6           0       -1.051568    0.614891   -0.018039
      2          9           0       -1.162531    1.209253    1.147526
      3          6           0        0.002817   -0.472437   -0.097192
      4          9           0        1.765138    0.863722   -0.936579
      5          9           0       -0.226359   -1.352506    0.889645
      6          9           0        1.652048    0.611209    1.206563
      7          9           0        2.301279   -1.027329   -0.041338
      8          6           0        1.475534    0.006988    0.037162
      9          9           0       -1.055708    1.470930   -1.013390
     10          9           0       -0.115012   -1.087268   -1.283674
 ---------------------------------------------------------------------
                    Distance matrix (angstroms):
                    1          2          3          4          5
     1  C    0.000000
     2  F    1.313057   0.000000
     3  C    1.516666   2.394878   0.000000
     4  F    2.973124   3.610282   2.365517   0.000000
     5  F    2.318515   2.739622   1.341973   3.494685   0.000000
     6  F    2.968031   2.878020   2.365170   2.160928   2.735878
     7  F    3.733499   4.291116   2.365154   2.159856   2.713195
     8  C    2.599777   3.104471   1.554605   1.328922   2.339102
     9  F    1.312837   2.179322   2.395113   2.886481   3.504447
    10  F    2.318688   3.504573   1.341506   2.731630   2.192274
                    6          7          8          9         10
     6  F    0.000000
     7  F    2.159529   0.000000
     8  C    1.328059   1.325831   0.000000
     9  F    3.605448   4.295991   3.107083   0.000000
    10  F    3.494081   2.717619   2.339196   2.739039   0.000000
 Stoichiometry    C3F7(2)
 Framework group  C1[X(C3F7)]
 Deg. of freedom    24
 Full point group                 C1      NOp   1
 Largest Abelian subgroup         C1      NOp   1
 Largest concise Abelian subgroup C1      NOp   1
                         Standard orientation:                         
 ---------------------------------------------------------------------
 Center     Atomic      Atomic             Coordinates (Angstroms)
 Number     Number       Type             X           Y           Z
 ---------------------------------------------------------------------
      1          6           0        1.523884    0.113177    0.001256
      2          9           0        1.874530   -0.534982    1.088021
      3          6           0        0.114184    0.672658    0.002560
      4          9           0       -0.941496   -1.141540   -1.088264
      5          9           0       -0.037334    1.427188    1.101931
      6          9           0       -0.935447   -1.156910    1.072601
      7          9           0       -2.207974    0.223745    0.005816
      8          6           0       -1.028389   -0.381527   -0.001588
      9          9           0        1.877911   -0.522910   -1.091264
     10          9           0       -0.036643    1.435869   -1.090326
 ---------------------------------------------------------------------
 Rotational constants (GHZ):           1.7915481           1.1598305           1.1291569
 Standard basis: 6-311+G(2d,2p) (5D, 7F)
 There are   290 symmetry adapted cartesian basis functions of A   symmetry.
 There are   270 symmetry adapted basis functions of A   symmetry.
   270 basis functions,   420 primitive gaussians,   290 cartesian basis functions
    41 alpha electrons       40 beta electrons
       nuclear repulsion energy       652.7599331803 Hartrees.
 NAtoms=   10 NActive=   10 NUniq=   10 SFac= 1.00D+00 NAtFMM=   60 NAOKFM=F Big=F
 Integral buffers will be    131072 words long.
 Raffenetti 2 integral format.
 Two-electron integral symmetry is turned on.
 Nuclear repulsion after empirical dispersion term =      652.7556696231 Hartrees.
 One-electron integrals computed using PRISM.
 NBasis=   270 RedAO= T EigKep=  7.27D-05  NBF=   270
 NBsUse=   270 1.00D-06 EigRej= -1.00D+00 NBFU=   270
 Initial guess from the checkpoint file:  "c3f7.chk"
 B after Tr=     0.000000    0.000000   -0.000000
         Rot=    0.999988    0.004410   -0.002329   -0.000069 Ang=   0.57 deg.
 Initial guess <Sx>= 0.0000 <Sy>= 0.0000 <Sz>= 0.5000 <S**2>= 0.7528 S= 0.5014
 ExpMin= 4.38D-02 ExpMax= 1.14D+04 ExpMxC= 1.72D+03 IAcc=2 IRadAn=         4 AccDes= 0.00D+00
 Harris functional with IExCor= 4639 and IRadAn=       4 diagonalized for initial guess.
 HarFok:  IExCor= 4639 AccDes= 0.00D+00 IRadAn=         4 IDoV= 1 UseB2=F ITyADJ=14
 ICtDFT=  3500011 ScaDFX=  1.000000  1.000000  1.000000  1.000000
 FoFCou: FMM=F IPFlag=           0 FMFlag=      100000 FMFlg1=           0
         NFxFlg=           0 DoJE=T BraDBF=F KetDBF=T FulRan=T
         wScrn=  0.000000 ICntrl=       500 IOpCl=  0 I1Cent=   200000004 NGrid=           0
         NMat0=    1 NMatS0=      1 NMatT0=    0 NMatD0=    1 NMtDS0=    0 NMtDT0=    0
 Petite list used in FoFCou.
 Keep R1 and R2 ints in memory in canonical form, NReq=2703878162.
 Requested convergence on RMS density matrix=1.00D-08 within  32 cycles.
 Requested convergence on MAX density matrix=1.00D-06.
 Requested convergence on             energy=1.00D-06.
 No special actions if energy rises.
 SCF Done:  E(UwB97XD) =  -813.185480407     A.U. after   10 cycles
            NFock= 10  Conv=0.29D-08     -V/T= 2.0025
 <Sx>= 0.0000 <Sy>= 0.0000 <Sz>= 0.5000 <S**2>= 0.7528 S= 0.5014
 <L.S>= 0.000000000000E+00
 Annihilation of the first spin contaminant:
 S**2 before annihilation     0.7528,   after     0.7500
 QCSCF skips out because SCF is already converged.
 Calling FoFJK, ICntrl=      2127 FMM=F ISym2X=0 I1Cent= 0 IOpClX= 1 NMat=1 NMatS=1 NMatT=0.
 ***** Axes restored to original set *****
 -------------------------------------------------------------------
 Center     Atomic                   Forces (Hartrees/Bohr)
 Number     Number              X              Y              Z
 -------------------------------------------------------------------
      1        6           0.000007076   -0.000280789    0.000085932
      2        9          -0.000054984    0.000117414   -0.000003930
      3        6           0.000216279   -0.000155698    0.000178751
      4        9          -0.000069939   -0.000094302    0.000226320
      5        9          -0.000034590    0.000071853   -0.000030443
      6        9           0.000088124    0.000156889    0.000235955
      7        9          -0.000171611    0.000140222    0.000008862
      8        6           0.000074391   -0.000110618   -0.000474925
      9        9           0.000008745    0.000209398   -0.000093606
     10        9          -0.000063492   -0.000054369   -0.000132914
 -------------------------------------------------------------------
 Cartesian Forces:  Max     0.000474925 RMS     0.000156660

 GradGradGradGradGradGradGradGradGradGradGradGradGradGradGradGradGradGrad
 Berny optimization.
 Using GEDIIS/GDIIS optimizer.
 FormGI is forming the generalized inverse of G from B-inverse, IUseBI=4.
 Internal  Forces:  Max     0.000289724 RMS     0.000097860
 Search for a local minimum.
 Step number   5 out of a maximum of   49
 All quantities printed in internal units (Hartrees-Bohrs-Radians)
 Mixed Optimization -- En-DIIS/RFO-DIIS
 Swapping is turned off.
 Update second derivatives using D2CorX and points    1    2    3    4    5
 DE= -4.08D-06 DEPred=-5.34D-06 R= 7.65D-01
 TightC=F SS=  1.41D+00  RLast= 6.14D-02 DXNew= 8.4853D-01 1.8412D-01
 Trust test= 7.65D-01 RLast= 6.14D-02 DXMaxT set to 5.05D-01
 ITU=  1  1  1  1  0
     Eigenvalues ---    0.00165   0.00347   0.05737   0.06062   0.07935
     Eigenvalues ---    0.08628   0.09566   0.15348   0.19975   0.23845
     Eigenvalues ---    0.24776   0.25006   0.25008   0.25569   0.27167
     Eigenvalues ---    0.28309   0.29293   0.46959   0.56018   0.57280
     Eigenvalues ---    0.59402   0.59759   0.60403   0.61484
 En-DIIS/RFO-DIIS/Sim-DIIS IScMMF=       -3 using points:     5    4    3
 RFO step:  Lambda=-1.88096210D-06.
 DidBck=T Rises=F RFO-DIIS coefs:    0.71674    0.42232   -0.13907
 Iteration  1 RMS(Cart)=  0.00239243 RMS(Int)=  0.00000282
 Iteration  2 RMS(Cart)=  0.00000331 RMS(Int)=  0.00000027
 Iteration  3 RMS(Cart)=  0.00000000 RMS(Int)=  0.00000027
 Variable       Old X    -DE/DX   Delta X   Delta X   Delta X     New X
                                 (Linear)    (Quad)   (Total)
    R1        2.48132   0.00006   0.00002   0.00009   0.00011   2.48143
    R2        2.86608   0.00006  -0.00013   0.00039   0.00026   2.86635
    R3        2.48090   0.00021  -0.00011   0.00043   0.00032   2.48122
    R4        2.53596  -0.00006  -0.00000  -0.00006  -0.00007   2.53589
    R5        2.93778  -0.00005   0.00013  -0.00030  -0.00017   2.93761
    R6        2.53508   0.00015  -0.00031   0.00061   0.00030   2.53538
    R7        2.51130  -0.00024   0.00009  -0.00037  -0.00029   2.51101
    R8        2.50967   0.00029  -0.00015   0.00055   0.00040   2.51006
    R9        2.50546  -0.00022   0.00011  -0.00042  -0.00031   2.50515
    A1        2.01484   0.00016  -0.00011   0.00041   0.00030   2.01514
    A2        1.95798  -0.00015   0.00031  -0.00088  -0.00057   1.95741
    A3        2.01539   0.00003  -0.00020   0.00014  -0.00006   2.01534
    A4        1.88921  -0.00002   0.00016  -0.00025  -0.00009   1.88912
    A5        2.01859  -0.00005   0.00013  -0.00028  -0.00015   2.01844
    A6        1.88985  -0.00004  -0.00004  -0.00025  -0.00029   1.88956
    A7        1.87598   0.00006  -0.00007   0.00043   0.00035   1.87634
    A8        1.91221  -0.00000  -0.00041   0.00056   0.00015   1.91236
    A9        1.87652   0.00005   0.00019  -0.00015   0.00004   1.87656
   A10        1.91977   0.00001  -0.00021   0.00030   0.00009   1.91986
   A11        1.92018   0.00011   0.00036  -0.00019   0.00017   1.92035
   A12        1.92230  -0.00010   0.00003  -0.00028  -0.00025   1.92205
   A13        1.89961  -0.00007   0.00053  -0.00087  -0.00035   1.89926
   A14        1.90057   0.00005  -0.00032   0.00057   0.00025   1.90081
   A15        1.90105   0.00000  -0.00040   0.00048   0.00008   1.90113
    D1        0.94143   0.00003  -0.00372   0.00024  -0.00347   0.93796
    D2       -1.16375  -0.00001  -0.00383   0.00006  -0.00376  -1.16751
    D3        3.01308  -0.00001  -0.00413   0.00063  -0.00350   3.00957
    D4       -3.00974  -0.00001  -0.00358  -0.00053  -0.00410  -3.01385
    D5        1.16826  -0.00004  -0.00369  -0.00071  -0.00439   1.16387
    D6       -0.93810  -0.00004  -0.00400  -0.00014  -0.00413  -0.94223
    D7       -1.05134   0.00004   0.00321   0.00076   0.00397  -1.04737
    D8        1.04109   0.00002   0.00396  -0.00026   0.00370   1.04480
    D9        3.13690   0.00003   0.00372   0.00004   0.00376   3.14066
   D10        3.11953   0.00005   0.00298   0.00094   0.00392   3.12344
   D11       -1.07123   0.00003   0.00373  -0.00007   0.00365  -1.06758
   D12        1.02458   0.00004   0.00348   0.00022   0.00371   1.02828
   D13        1.06222  -0.00001   0.00339   0.00014   0.00353   1.06575
   D14       -3.12853  -0.00003   0.00414  -0.00087   0.00327  -3.12527
   D15       -1.03273  -0.00002   0.00390  -0.00058   0.00332  -1.02941
         Item               Value     Threshold  Converged?
 Maximum Force            0.000290     0.000450     YES
 RMS     Force            0.000098     0.000300     YES
 Maximum Displacement     0.006321     0.001800     NO 
 RMS     Displacement     0.002392     0.001200     NO 
 Predicted change in Energy=-9.180130D-07
 GradGradGradGradGradGradGradGradGradGradGradGradGradGradGradGradGradGrad

                          Input orientation:                          
 ---------------------------------------------------------------------
 Center     Atomic      Atomic             Coordinates (Angstroms)
 Number     Number       Type             X           Y           Z
 ---------------------------------------------------------------------
      1          6           0       -1.051497    0.614831   -0.019128
      2          9           0       -1.165578    1.208515    1.146546
      3          6           0        0.002923   -0.472785   -0.096494
      4          9           0        1.763510    0.865684   -0.935507
      5          9           0       -0.226452   -1.351179    0.891741
      6          9           0        1.653521    0.609436    1.207131
      7          9           0        2.301254   -1.026893   -0.044617
      8          6           0        1.475526    0.007006    0.036793
      9          9           0       -1.052363    1.472199   -1.013566
     10          9           0       -0.115206   -1.089362   -1.282216
 ---------------------------------------------------------------------
                    Distance matrix (angstroms):
                    1          2          3          4          5
     1  C    0.000000
     2  F    1.313114   0.000000
     3  C    1.516805   2.395269   0.000000
     4  F    2.971018   3.609991   2.365399   0.000000
     5  F    2.318529   2.738415   1.341937   3.494749   0.000000
     6  F    2.969994   2.882687   2.365400   2.160708   2.734553
     7  F    3.733209   4.293581   2.364752   2.159792   2.715000
     8  C    2.599697   3.106542   1.554518   1.328770   2.339302
     9  F    1.313007   2.179089   2.395331   2.881509   3.504823
    10  F    2.318687   3.504626   1.341663   2.733494   2.192490
                    6          7          8          9         10
     6  F    0.000000
     7  F    2.159630   0.000000
     8  C    1.328268   1.325670   0.000000
     9  F    3.605227   4.293142   3.104878   0.000000
    10  F    3.494447   2.715664   2.339281   2.740809   0.000000
 Stoichiometry    C3F7(2)
 Framework group  C1[X(C3F7)]
 Deg. of freedom    24
 Full point group                 C1      NOp   1
 Largest Abelian subgroup         C1      NOp   1
 Largest concise Abelian subgroup C1      NOp   1
                         Standard orientation:                         
 ---------------------------------------------------------------------
 Center     Atomic      Atomic             Coordinates (Angstroms)
 Number     Number       Type             X           Y           Z
 ---------------------------------------------------------------------
      1          6           0        1.523767    0.113510   -0.001952
      2          9           0        1.877622   -0.520326    1.092265
      3          6           0        0.113864    0.672854   -0.004456
      4          9           0       -0.939671   -1.155168   -1.073807
      5          9           0       -0.036267    1.438226    1.087543
      6          9           0       -0.936833   -1.143781    1.086869
      7          9           0       -2.207816    0.223611    0.001123
      8          6           0       -1.028348   -0.381576    0.002911
      9          9           0        1.874849   -0.537591   -1.086754
     10          9           0       -0.038073    1.425170   -1.104907
 ---------------------------------------------------------------------
 Rotational constants (GHZ):           1.7913233           1.1599442           1.1291247
 Standard basis: 6-311+G(2d,2p) (5D, 7F)
 There are   290 symmetry adapted cartesian basis functions of A   symmetry.
 There are   270 symmetry adapted basis functions of A   symmetry.
   270 basis functions,   420 primitive gaussians,   290 cartesian basis functions
    41 alpha electrons       40 beta electrons
       nuclear repulsion energy       652.7515030233 Hartrees.
 NAtoms=   10 NActive=   10 NUniq=   10 SFac= 1.00D+00 NAtFMM=   60 NAOKFM=F Big=F
 Integral buffers will be    131072 words long.
 Raffenetti 2 integral format.
 Two-electron integral symmetry is turned on.
 Nuclear repulsion after empirical dispersion term =      652.7472392542 Hartrees.
 One-electron integrals computed using PRISM.
 NBasis=   270 RedAO= T EigKep=  7.27D-05  NBF=   270
 NBsUse=   270 1.00D-06 EigRej= -1.00D+00 NBFU=   270
 Initial guess from the checkpoint file:  "c3f7.chk"
 B after Tr=    -0.000000   -0.000000   -0.000000
         Rot=    0.999984    0.005696   -0.000259   -0.000049 Ang=   0.65 deg.
 Initial guess <Sx>= 0.0000 <Sy>= 0.0000 <Sz>= 0.5000 <S**2>= 0.7528 S= 0.5014
 Keep R1 and R2 ints in memory in canonical form, NReq=2703878162.
 Requested convergence on RMS density matrix=1.00D-08 within  32 cycles.
 Requested convergence on MAX density matrix=1.00D-06.
 Requested convergence on             energy=1.00D-06.
 No special actions if energy rises.
 SCF Done:  E(UwB97XD) =  -813.185481301     A.U. after    9 cycles
            NFock=  9  Conv=0.36D-08     -V/T= 2.0025
 <Sx>= 0.0000 <Sy>= 0.0000 <Sz>= 0.5000 <S**2>= 0.7528 S= 0.5014
 <L.S>= 0.000000000000E+00
 Annihilation of the first spin contaminant:
 S**2 before annihilation     0.7528,   after     0.7500
 QCSCF skips out because SCF is already converged.
 Calling FoFJK, ICntrl=      2127 FMM=F ISym2X=0 I1Cent= 0 IOpClX= 1 NMat=1 NMatS=1 NMatT=0.
 ***** Axes restored to original set *****
 -------------------------------------------------------------------
 Center     Atomic                   Forces (Hartrees/Bohr)
 Number     Number              X              Y              Z
 -------------------------------------------------------------------
      1        6           0.000016795   -0.000103376    0.000054320
      2        9          -0.000006339    0.000033642   -0.000010877
      3        6           0.000055661   -0.000074085    0.000156108
      4        9          -0.000019916   -0.000072617    0.000106216
      5        9          -0.000001723    0.000052944   -0.000088624
      6        9           0.000016046    0.000063778    0.000140120
      7        9          -0.000065768    0.000068438    0.000021162
      8        6           0.000040505   -0.000028355   -0.000288723
      9        9          -0.000016990    0.000068664   -0.000054068
     10        9          -0.000018271   -0.000009033   -0.000035633
 -------------------------------------------------------------------
 Cartesian Forces:  Max     0.000288723 RMS     0.000082586

 GradGradGradGradGradGradGradGradGradGradGradGradGradGradGradGradGradGrad
 Berny optimization.
 Using GEDIIS/GDIIS optimizer.
 FormGI is forming the generalized inverse of G from B-inverse, IUseBI=4.
 Internal  Forces:  Max     0.000153165 RMS     0.000044791
 Search for a local minimum.
 Step number   6 out of a maximum of   49
 All quantities printed in internal units (Hartrees-Bohrs-Radians)
 Mixed Optimization -- En-DIIS/RFO-DIIS
 Swapping is turned off.
 Update second derivatives using D2CorX and points    1    2    3    4    5
                                                      6
 DE= -8.94D-07 DEPred=-9.18D-07 R= 9.74D-01
 Trust test= 9.74D-01 RLast= 1.46D-02 DXMaxT set to 5.05D-01
 ITU=  0  1  1  1  1  0
     Eigenvalues ---    0.00189   0.00484   0.05620   0.06057   0.07936
     Eigenvalues ---    0.08552   0.09644   0.14915   0.19974   0.23771
     Eigenvalues ---    0.24781   0.24960   0.25010   0.25895   0.27020
     Eigenvalues ---    0.27307   0.29314   0.40948   0.53882   0.56692
     Eigenvalues ---    0.59041   0.59736   0.60333   0.60828
 En-DIIS/RFO-DIIS/Sim-DIIS IScMMF=       -3 using points:     6    5    4    3
 RFO step:  Lambda=-3.10199253D-07.
 DidBck=F Rises=F RFO-DIIS coefs:    0.97496    0.01761   -0.04545    0.05287
 Iteration  1 RMS(Cart)=  0.00121851 RMS(Int)=  0.00000102
 Iteration  2 RMS(Cart)=  0.00000104 RMS(Int)=  0.00000010
 Iteration  3 RMS(Cart)=  0.00000000 RMS(Int)=  0.00000010
 Variable       Old X    -DE/DX   Delta X   Delta X   Delta X     New X
                                 (Linear)    (Quad)   (Total)
    R1        2.48143   0.00001   0.00004  -0.00001   0.00003   2.48145
    R2        2.86635   0.00001   0.00003   0.00002   0.00005   2.86640
    R3        2.48122   0.00009   0.00000   0.00021   0.00021   2.48144
    R4        2.53589  -0.00010   0.00002  -0.00023  -0.00022   2.53568
    R5        2.93761  -0.00002  -0.00000  -0.00011  -0.00011   2.93750
    R6        2.53538   0.00004  -0.00013   0.00026   0.00013   2.53550
    R7        2.51101  -0.00013  -0.00005  -0.00023  -0.00028   2.51074
    R8        2.51006   0.00015  -0.00010   0.00046   0.00036   2.51043
    R9        2.50515  -0.00009   0.00009  -0.00033  -0.00024   2.50491
    A1        2.01514   0.00004   0.00007   0.00011   0.00017   2.01531
    A2        1.95741  -0.00005  -0.00021  -0.00005  -0.00026   1.95715
    A3        2.01534   0.00003   0.00010  -0.00005   0.00006   2.01539
    A4        1.88912  -0.00000  -0.00000   0.00002   0.00002   1.88914
    A5        2.01844  -0.00001  -0.00019   0.00018  -0.00001   2.01843
    A6        1.88956  -0.00002  -0.00005  -0.00020  -0.00025   1.88931
    A7        1.87634   0.00002   0.00002   0.00025   0.00027   1.87661
    A8        1.91236  -0.00001   0.00014  -0.00024  -0.00010   1.91226
    A9        1.87656   0.00002   0.00011  -0.00004   0.00007   1.87663
   A10        1.91986   0.00003  -0.00001   0.00023   0.00021   1.92008
   A11        1.92035  -0.00001   0.00007  -0.00015  -0.00008   1.92027
   A12        1.92205  -0.00002  -0.00010  -0.00003  -0.00013   1.92192
   A13        1.89926  -0.00001  -0.00011   0.00011  -0.00000   1.89926
   A14        1.90081   0.00001   0.00007   0.00005   0.00012   1.90094
   A15        1.90113   0.00000   0.00009  -0.00022  -0.00013   1.90101
    D1        0.93796   0.00002   0.00211   0.00032   0.00243   0.94039
    D2       -1.16751   0.00000   0.00222  -0.00014   0.00207  -1.16544
    D3        3.00957  -0.00000   0.00225  -0.00007   0.00218   3.01175
    D4       -3.01385   0.00002   0.00197   0.00032   0.00229  -3.01156
    D5        1.16387   0.00000   0.00208  -0.00014   0.00193   1.16580
    D6       -0.94223  -0.00000   0.00210  -0.00007   0.00204  -0.94020
    D7       -1.04737   0.00001   0.00087   0.00017   0.00105  -1.04632
    D8        1.04480   0.00002   0.00077   0.00036   0.00113   1.04593
    D9        3.14066  -0.00000   0.00086  -0.00002   0.00084   3.14150
   D10        3.12344   0.00001   0.00099  -0.00016   0.00083   3.12427
   D11       -1.06758   0.00001   0.00088   0.00002   0.00091  -1.06667
   D12        1.02828  -0.00001   0.00097  -0.00035   0.00062   1.02890
   D13        1.06575  -0.00001   0.00076   0.00000   0.00077   1.06652
   D14       -3.12527  -0.00000   0.00066   0.00019   0.00085  -3.12442
   D15       -1.02941  -0.00002   0.00075  -0.00019   0.00056  -1.02884
         Item               Value     Threshold  Converged?
 Maximum Force            0.000153     0.000450     YES
 RMS     Force            0.000045     0.000300     YES
 Maximum Displacement     0.003183     0.001800     NO 
 RMS     Displacement     0.001219     0.001200     NO 
 Predicted change in Energy=-1.537716D-07
 GradGradGradGradGradGradGradGradGradGradGradGradGradGradGradGradGradGrad

                          Input orientation:                          
 ---------------------------------------------------------------------
 Center     Atomic      Atomic             Coordinates (Angstroms)
 Number     Number       Type             X           Y           Z
 ---------------------------------------------------------------------
      1          6           0       -1.051466    0.614716   -0.018959
      2          9           0       -1.164090    1.210200    1.145954
      3          6           0        0.003030   -0.472865   -0.096315
      4          9           0        1.763326    0.866622   -0.934340
      5          9           0       -0.226538   -1.351453    0.891546
      6          9           0        1.653761    0.608279    1.208104
      7          9           0        2.301182   -1.026723   -0.045461
      8          6           0        1.475544    0.007002    0.036988
      9          9           0       -1.053883    1.470860   -1.014597
     10          9           0       -0.115229   -1.089185   -1.282236
 ---------------------------------------------------------------------
                    Distance matrix (angstroms):
                    1          2          3          4          5
     1  C    0.000000
     2  F    1.313129   0.000000
     3  C    1.516832   2.395435   0.000000
     4  F    2.970595   3.607691   2.365408   0.000000
     5  F    2.318479   2.739670   1.341823   3.494750   0.000000
     6  F    2.970517   2.882092   2.365437   2.160743   2.734279
     7  F    3.732998   4.293181   2.364498   2.159664   2.715291
     8  C    2.599658   3.105665   1.554458   1.328624   2.339392
     9  F    1.313119   2.179007   2.395490   2.882397   3.504758
    10  F    2.318553   3.504766   1.341731   2.734078   2.192374
                    6          7          8          9         10
     6  F    0.000000
     7  F    2.159586   0.000000
     8  C    1.328460   1.325543   0.000000
     9  F    3.607738   4.293437   3.105915   0.000000
    10  F    3.494639   2.715246   2.339346   2.739804   0.000000
 Stoichiometry    C3F7(2)
 Framework group  C1[X(C3F7)]
 Deg. of freedom    24
 Full point group                 C1      NOp   1
 Largest Abelian subgroup         C1      NOp   1
 Largest concise Abelian subgroup C1      NOp   1
                         Standard orientation:                         
 ---------------------------------------------------------------------
 Center     Atomic      Atomic             Coordinates (Angstroms)
 Number     Number       Type             X           Y           Z
 ---------------------------------------------------------------------
      1          6           0        1.523686    0.113560    0.000034
      2          9           0        1.876169   -0.529181    1.089505
      3          6           0        0.113740    0.672872    0.000001
      4          9           0       -0.938376   -1.149387   -1.080545
      5          9           0       -0.037060    1.431762    1.096283
      6          9           0       -0.938324   -1.149661    1.080198
      7          9           0       -2.207689    0.223632    0.000110
      8          6           0       -1.028381   -0.381594    0.000027
      9          9           0        1.876431   -0.528908   -1.089502
     10          9           0       -0.037180    1.431851   -1.096091
 ---------------------------------------------------------------------
 Rotational constants (GHZ):           1.7912688           1.1599535           1.1290810
 Standard basis: 6-311+G(2d,2p) (5D, 7F)
 There are   290 symmetry adapted cartesian basis functions of A   symmetry.
 There are   270 symmetry adapted basis functions of A   symmetry.
   270 basis functions,   420 primitive gaussians,   290 cartesian basis functions
    41 alpha electrons       40 beta electrons
       nuclear repulsion energy       652.7486958685 Hartrees.
 NAtoms=   10 NActive=   10 NUniq=   10 SFac= 1.00D+00 NAtFMM=   60 NAOKFM=F Big=F
 Integral buffers will be    131072 words long.
 Raffenetti 2 integral format.
 Two-electron integral symmetry is turned on.
 Nuclear repulsion after empirical dispersion term =      652.7444320482 Hartrees.
 One-electron integrals computed using PRISM.
 NBasis=   270 RedAO= T EigKep=  7.27D-05  NBF=   270
 NBsUse=   270 1.00D-06 EigRej= -1.00D+00 NBFU=   270
 Initial guess from the checkpoint file:  "c3f7.chk"
 B after Tr=    -0.000000    0.000000    0.000000
         Rot=    0.999995   -0.003101    0.000354    0.000011 Ang=  -0.36 deg.
 Initial guess <Sx>= 0.0000 <Sy>= 0.0000 <Sz>= 0.5000 <S**2>= 0.7528 S= 0.5014
 Keep R1 and R2 ints in memory in canonical form, NReq=2703878162.
 Requested convergence on RMS density matrix=1.00D-08 within  32 cycles.
 Requested convergence on MAX density matrix=1.00D-06.
 Requested convergence on             energy=1.00D-06.
 No special actions if energy rises.
 SCF Done:  E(UwB97XD) =  -813.185481443     A.U. after    8 cycles
            NFock=  8  Conv=0.59D-08     -V/T= 2.0025
 <Sx>= 0.0000 <Sy>= 0.0000 <Sz>= 0.5000 <S**2>= 0.7528 S= 0.5014
 <L.S>= 0.000000000000E+00
 Annihilation of the first spin contaminant:
 S**2 before annihilation     0.7528,   after     0.7500
 QCSCF skips out because SCF is already converged.
 Calling FoFJK, ICntrl=      2127 FMM=F ISym2X=0 I1Cent= 0 IOpClX= 1 NMat=1 NMatS=1 NMatT=0.
 ***** Axes restored to original set *****
 -------------------------------------------------------------------
 Center     Atomic                   Forces (Hartrees/Bohr)
 Number     Number              X              Y              Z
 -------------------------------------------------------------------
      1        6           0.000000681    0.000010743    0.000000546
      2        9          -0.000003136   -0.000007966   -0.000002354
      3        6          -0.000034445   -0.000014388    0.000042701
      4        9          -0.000020738   -0.000019763    0.000041384
      5        9           0.000023789    0.000022386   -0.000019151
      6        9          -0.000008306    0.000027729    0.000035755
      7        9           0.000012096   -0.000007188    0.000001548
      8        6           0.000020501   -0.000008225   -0.000084396
      9        9           0.000000675   -0.000007109   -0.000004699
     10        9           0.000008882    0.000003781   -0.000011332
 -------------------------------------------------------------------
 Cartesian Forces:  Max     0.000084396 RMS     0.000024222

 GradGradGradGradGradGradGradGradGradGradGradGradGradGradGradGradGradGrad
 Berny optimization.
 Using GEDIIS/GDIIS optimizer.
 FormGI is forming the generalized inverse of G from B-inverse, IUseBI=4.
 Internal  Forces:  Max     0.000048688 RMS     0.000014054
 Search for a local minimum.
 Step number   7 out of a maximum of   49
 All quantities printed in internal units (Hartrees-Bohrs-Radians)
 Mixed Optimization -- En-DIIS/RFO-DIIS
 Swapping is turned off.
 Update second derivatives using D2CorX and points    1    2    3    4    5
                                                      6    7
 DE= -1.42D-07 DEPred=-1.54D-07 R= 9.26D-01
 Trust test= 9.26D-01 RLast= 5.95D-03 DXMaxT set to 5.05D-01
 ITU=  0  0  1  1  1  1  0
     Eigenvalues ---    0.00185   0.00475   0.05349   0.06085   0.07891
     Eigenvalues ---    0.08268   0.09936   0.15942   0.20110   0.22565
     Eigenvalues ---    0.24824   0.24877   0.25115   0.25786   0.27134
     Eigenvalues ---    0.28614   0.29485   0.36180   0.52686   0.57048
     Eigenvalues ---    0.58988   0.59779   0.60253   0.61908
 En-DIIS/RFO-DIIS/Sim-DIIS IScMMF=       -3 using points:     7    6    5    4    3
 RFO step:  Lambda=-2.48365399D-08.
 DidBck=F Rises=F RFO-DIIS coefs:    1.07777    0.03531   -0.09049   -0.03212    0.00952
 Iteration  1 RMS(Cart)=  0.00013156 RMS(Int)=  0.00000002
 Iteration  2 RMS(Cart)=  0.00000001 RMS(Int)=  0.00000002
 Variable       Old X    -DE/DX   Delta X   Delta X   Delta X     New X
                                 (Linear)    (Quad)   (Total)
    R1        2.48145  -0.00000   0.00001  -0.00003  -0.00001   2.48144
    R2        2.86640  -0.00000   0.00004  -0.00004  -0.00000   2.86639
    R3        2.48144   0.00000   0.00006  -0.00003   0.00003   2.48146
    R4        2.53568  -0.00003  -0.00002  -0.00007  -0.00009   2.53559
    R5        2.93750  -0.00000  -0.00004   0.00001  -0.00003   2.93747
    R6        2.53550   0.00001   0.00007  -0.00001   0.00006   2.53556
    R7        2.51074  -0.00005  -0.00006  -0.00005  -0.00011   2.51062
    R8        2.51043   0.00004   0.00009   0.00005   0.00014   2.51056
    R9        2.50491   0.00001  -0.00006   0.00004  -0.00003   2.50489
    A1        2.01531   0.00000   0.00005  -0.00002   0.00003   2.01535
    A2        1.95715   0.00001  -0.00010   0.00012   0.00001   1.95716
    A3        2.01539  -0.00001   0.00001  -0.00004  -0.00003   2.01536
    A4        1.88914   0.00001  -0.00002   0.00012   0.00009   1.88923
    A5        2.01843   0.00000  -0.00002   0.00002   0.00000   2.01843
    A6        1.88931  -0.00000  -0.00005   0.00000  -0.00004   1.88927
    A7        1.87661  -0.00002   0.00007  -0.00010  -0.00003   1.87657
    A8        1.91226   0.00001   0.00004   0.00002   0.00006   1.91232
    A9        1.87663  -0.00001  -0.00001  -0.00007  -0.00007   1.87656
   A10        1.92008  -0.00001   0.00004  -0.00005  -0.00001   1.92007
   A11        1.92027  -0.00002  -0.00002  -0.00012  -0.00014   1.92013
   A12        1.92192   0.00001  -0.00004   0.00011   0.00008   1.92200
   A13        1.89926   0.00000  -0.00008   0.00001  -0.00006   1.89920
   A14        1.90094   0.00001   0.00006   0.00004   0.00010   1.90103
   A15        1.90101   0.00001   0.00003   0.00001   0.00004   1.90104
    D1        0.94039  -0.00001   0.00003  -0.00009  -0.00006   0.94033
    D2       -1.16544  -0.00000  -0.00002  -0.00007  -0.00009  -1.16553
    D3        3.01175   0.00001   0.00004  -0.00000   0.00004   3.01179
    D4       -3.01156  -0.00001  -0.00006   0.00002  -0.00004  -3.01160
    D5        1.16580   0.00000  -0.00011   0.00004  -0.00007   1.16573
    D6       -0.94020   0.00001  -0.00005   0.00011   0.00006  -0.94013
    D7       -1.04632   0.00001   0.00025   0.00010   0.00035  -1.04597
    D8        1.04593  -0.00000   0.00017   0.00001   0.00018   1.04611
    D9        3.14150   0.00000   0.00017   0.00002   0.00019  -3.14150
   D10        3.12427   0.00001   0.00024   0.00001   0.00025   3.12452
   D11       -1.06667  -0.00001   0.00016  -0.00008   0.00008  -1.06659
   D12        1.02890  -0.00000   0.00016  -0.00007   0.00009   1.02899
   D13        1.06652   0.00001   0.00017   0.00007   0.00024   1.06676
   D14       -3.12442  -0.00001   0.00009  -0.00002   0.00007  -3.12435
   D15       -1.02884  -0.00000   0.00009  -0.00001   0.00008  -1.02877
         Item               Value     Threshold  Converged?
 Maximum Force            0.000049     0.000450     YES
 RMS     Force            0.000014     0.000300     YES
 Maximum Displacement     0.000345     0.001800     YES
 RMS     Displacement     0.000132     0.001200     YES
 Predicted change in Energy=-1.679049D-08
 Optimization completed.
    -- Stationary point found.
                           ----------------------------
                           !   Optimized Parameters   !
                           ! (Angstroms and Degrees)  !
 --------------------------                            --------------------------
 ! Name  Definition              Value          Derivative Info.                !
 --------------------------------------------------------------------------------
 ! R1    R(1,2)                  1.3131         -DE/DX =    0.0                 !
 ! R2    R(1,3)                  1.5168         -DE/DX =    0.0                 !
 ! R3    R(1,9)                  1.3131         -DE/DX =    0.0                 !
 ! R4    R(3,5)                  1.3418         -DE/DX =    0.0                 !
 ! R5    R(3,8)                  1.5545         -DE/DX =    0.0                 !
 ! R6    R(3,10)                 1.3417         -DE/DX =    0.0                 !
 ! R7    R(4,8)                  1.3286         -DE/DX =    0.0                 !
 ! R8    R(6,8)                  1.3285         -DE/DX =    0.0                 !
 ! R9    R(7,8)                  1.3255         -DE/DX =    0.0                 !
 ! A1    A(2,1,3)              115.4688         -DE/DX =    0.0                 !
 ! A2    A(2,1,9)              112.1365         -DE/DX =    0.0                 !
 ! A3    A(3,1,9)              115.4736         -DE/DX =    0.0                 !
 ! A4    A(1,3,5)              108.2397         -DE/DX =    0.0                 !
 ! A5    A(1,3,8)              115.6474         -DE/DX =    0.0                 !
 ! A6    A(1,3,10)             108.2496         -DE/DX =    0.0                 !
 ! A7    A(5,3,8)              107.5216         -DE/DX =    0.0                 !
 ! A8    A(5,3,10)             109.5646         -DE/DX =    0.0                 !
 ! A9    A(8,3,10)             107.5232         -DE/DX =    0.0                 !
 ! A10   A(3,8,4)              110.0123         -DE/DX =    0.0                 !
 ! A11   A(3,8,6)              110.0233         -DE/DX =    0.0                 !
 ! A12   A(3,8,7)              110.1181         -DE/DX =    0.0                 !
 ! A13   A(4,8,6)              108.8197         -DE/DX =    0.0                 !
 ! A14   A(4,8,7)              108.9156         -DE/DX =    0.0                 !
 ! A15   A(6,8,7)              108.9197         -DE/DX =    0.0                 !
 ! D1    D(2,1,3,5)             53.8803         -DE/DX =    0.0                 !
 ! D2    D(2,1,3,8)            -66.7746         -DE/DX =    0.0                 !
 ! D3    D(2,1,3,10)           172.5608         -DE/DX =    0.0                 !
 ! D4    D(9,1,3,5)           -172.5498         -DE/DX =    0.0                 !
 ! D5    D(9,1,3,8)             66.7953         -DE/DX =    0.0                 !
 ! D6    D(9,1,3,10)           -53.8693         -DE/DX =    0.0                 !
 ! D7    D(1,3,8,4)            -59.9498         -DE/DX =    0.0                 !
 ! D8    D(1,3,8,6)             59.9271         -DE/DX =    0.0                 !
 ! D9    D(1,3,8,7)           -180.0053         -DE/DX =    0.0                 !
 ! D10   D(5,3,8,4)            179.0074         -DE/DX =    0.0                 !
 ! D11   D(5,3,8,6)            -61.1157         -DE/DX =    0.0                 !
 ! D12   D(5,3,8,7)             58.9519         -DE/DX =    0.0                 !
 ! D13   D(10,3,8,4)            61.1071         -DE/DX =    0.0                 !
 ! D14   D(10,3,8,6)          -179.016          -DE/DX =    0.0                 !
 ! D15   D(10,3,8,7)           -58.9484         -DE/DX =    0.0                 !
 --------------------------------------------------------------------------------
 GradGradGradGradGradGradGradGradGradGradGradGradGradGradGradGradGradGrad

                          Input orientation:                          
 ---------------------------------------------------------------------
 Center     Atomic      Atomic             Coordinates (Angstroms)
 Number     Number       Type             X           Y           Z
 ---------------------------------------------------------------------
      1          6           0       -1.051466    0.614716   -0.018959
      2          9           0       -1.164090    1.210200    1.145954
      3          6           0        0.003030   -0.472865   -0.096315
      4          9           0        1.763326    0.866622   -0.934340
      5          9           0       -0.226538   -1.351453    0.891546
      6          9           0        1.653761    0.608279    1.208104
      7          9           0        2.301182   -1.026723   -0.045461
      8          6           0        1.475544    0.007002    0.036988
      9          9           0       -1.053883    1.470860   -1.014597
     10          9           0       -0.115229   -1.089185   -1.282236
 ---------------------------------------------------------------------
                    Distance matrix (angstroms):
                    1          2          3          4          5
     1  C    0.000000
     2  F    1.313129   0.000000
     3  C    1.516832   2.395435   0.000000
     4  F    2.970595   3.607691   2.365408   0.000000
     5  F    2.318479   2.739670   1.341823   3.494750   0.000000
     6  F    2.970517   2.882092   2.365437   2.160743   2.734279
     7  F    3.732998   4.293181   2.364498   2.159664   2.715291
     8  C    2.599658   3.105665   1.554458   1.328624   2.339392
     9  F    1.313119   2.179007   2.395490   2.882397   3.504758
    10  F    2.318553   3.504766   1.341731   2.734078   2.192374
                    6          7          8          9         10
     6  F    0.000000
     7  F    2.159586   0.000000
     8  C    1.328460   1.325543   0.000000
     9  F    3.607738   4.293437   3.105915   0.000000
    10  F    3.494639   2.715246   2.339346   2.739804   0.000000
 Stoichiometry    C3F7(2)
 Framework group  C1[X(C3F7)]
 Deg. of freedom    24
 Full point group                 C1      NOp   1
 Largest Abelian subgroup         C1      NOp   1
 Largest concise Abelian subgroup C1      NOp   1
                         Standard orientation:                         
 ---------------------------------------------------------------------
 Center     Atomic      Atomic             Coordinates (Angstroms)
 Number     Number       Type             X           Y           Z
 ---------------------------------------------------------------------
      1          6           0        1.523686    0.113560    0.000034
      2          9           0        1.876169   -0.529181    1.089505
      3          6           0        0.113740    0.672872    0.000001
      4          9           0       -0.938376   -1.149387   -1.080545
      5          9           0       -0.037060    1.431762    1.096283
      6          9           0       -0.938324   -1.149661    1.080198
      7          9           0       -2.207689    0.223632    0.000110
      8          6           0       -1.028381   -0.381594    0.000027
      9          9           0        1.876431   -0.528908   -1.089502
     10          9           0       -0.037180    1.431851   -1.096091
 ---------------------------------------------------------------------
 Rotational constants (GHZ):           1.7912688           1.1599535           1.1290810

 **********************************************************************

            Population analysis using the SCF density.

 **********************************************************************

 Orbital symmetries:
 Alpha Orbitals:
       Occupied  (A) (A) (A) (A) (A) (A) (A) (A) (A) (A) (A) (A)
                 (A) (A) (A) (A) (A) (A) (A) (A) (A) (A) (A) (A)
                 (A) (A) (A) (A) (A) (A) (A) (A) (A) (A) (A) (A)
                 (A) (A) (A) (A) (A)
       Virtual   (A) (A) (A) (A) (A) (A) (A) (A) (A) (A) (A) (A)
                 (A) (A) (A) (A) (A) (A) (A) (A) (A) (A) (A) (A)
                 (A) (A) (A) (A) (A) (A) (A) (A) (A) (A) (A) (A)
                 (A) (A) (A) (A) (A) (A) (A) (A) (A) (A) (A) (A)
                 (A) (A) (A) (A) (A) (A) (A) (A) (A) (A) (A) (A)
                 (A) (A) (A) (A) (A) (A) (A) (A) (A) (A) (A) (A)
                 (A) (A) (A) (A) (A) (A) (A) (A) (A) (A) (A) (A)
                 (A) (A) (A) (A) (A) (A) (A) (A) (A) (A) (A) (A)
                 (A) (A) (A) (A) (A) (A) (A) (A) (A) (A) (A) (A)
                 (A) (A) (A) (A) (A) (A) (A) (A) (A) (A) (A) (A)
                 (A) (A) (A) (A) (A) (A) (A) (A) (A) (A) (A) (A)
                 (A) (A) (A) (A) (A) (A) (A) (A) (A) (A) (A) (A)
                 (A) (A) (A) (A) (A) (A) (A) (A) (A) (A) (A) (A)
                 (A) (A) (A) (A) (A) (A) (A) (A) (A) (A) (A) (A)
                 (A) (A) (A) (A) (A) (A) (A) (A) (A) (A) (A) (A)
                 (A) (A) (A) (A) (A) (A) (A) (A) (A) (A) (A) (A)
                 (A) (A) (A) (A) (A) (A) (A) (A) (A) (A) (A) (A)
                 (A) (A) (A) (A) (A) (A) (A) (A) (A) (A) (A) (A)
                 (A) (A) (A) (A) (A) (A) (A) (A) (A) (A) (A) (A)
                 (A)
 Beta  Orbitals:
       Occupied  (A) (A) (A) (A) (A) (A) (A) (A) (A) (A) (A) (A)
                 (A) (A) (A) (A) (A) (A) (A) (A) (A) (A) (A) (A)
                 (A) (A) (A) (A) (A) (A) (A) (A) (A) (A) (A) (A)
                 (A) (A) (A) (A)
       Virtual   (A) (A) (A) (A) (A) (A) (A) (A) (A) (A) (A) (A)
                 (A) (A) (A) (A) (A) (A) (A) (A) (A) (A) (A) (A)
                 (A) (A) (A) (A) (A) (A) (A) (A) (A) (A) (A) (A)
                 (A) (A) (A) (A) (A) (A) (A) (A) (A) (A) (A) (A)
                 (A) (A) (A) (A) (A) (A) (A) (A) (A) (A) (A) (A)
                 (A) (A) (A) (A) (A) (A) (A) (A) (A) (A) (A) (A)
                 (A) (A) (A) (A) (A) (A) (A) (A) (A) (A) (A) (A)
                 (A) (A) (A) (A) (A) (A) (A) (A) (A) (A) (A) (A)
                 (A) (A) (A) (A) (A) (A) (A) (A) (A) (A) (A) (A)
                 (A) (A) (A) (A) (A) (A) (A) (A) (A) (A) (A) (A)
                 (A) (A) (A) (A) (A) (A) (A) (A) (A) (A) (A) (A)
                 (A) (A) (A) (A) (A) (A) (A) (A) (A) (A) (A) (A)
                 (A) (A) (A) (A) (A) (A) (A) (A) (A) (A) (A) (A)
                 (A) (A) (A) (A) (A) (A) (A) (A) (A) (A) (A) (A)
                 (A) (A) (A) (A) (A) (A) (A) (A) (A) (A) (A) (A)
                 (A) (A) (A) (A) (A) (A) (A) (A) (A) (A) (A) (A)
                 (A) (A) (A) (A) (A) (A) (A) (A) (A) (A) (A) (A)
                 (A) (A) (A) (A) (A) (A) (A) (A) (A) (A) (A) (A)
                 (A) (A) (A) (A) (A) (A) (A) (A) (A) (A) (A) (A)
                 (A) (A)
 The electronic state is 2-A.
 Alpha  occ. eigenvalues --  -24.89027 -24.89027 -24.88042 -24.88036 -24.87915
 Alpha  occ. eigenvalues --  -24.87454 -24.87452 -10.58225 -10.52702 -10.50410
 Alpha  occ. eigenvalues --   -1.47335  -1.44721  -1.42395  -1.38715  -1.37829
 Alpha  occ. eigenvalues --   -1.37699  -1.36411  -0.94366  -0.86086  -0.79986
 Alpha  occ. eigenvalues --   -0.75358  -0.74439  -0.74151  -0.72166  -0.71611
 Alpha  occ. eigenvalues --   -0.68860  -0.66911  -0.61120  -0.60754  -0.60523
 Alpha  occ. eigenvalues --   -0.59666  -0.59127  -0.57937  -0.57121  -0.56114
 Alpha  occ. eigenvalues --   -0.55315  -0.54475  -0.54050  -0.53852  -0.48795
 Alpha  occ. eigenvalues --   -0.35726
 Alpha virt. eigenvalues --    0.07326   0.08324   0.08489   0.09306   0.12327
 Alpha virt. eigenvalues --    0.12548   0.12639   0.13466   0.14838   0.14858
 Alpha virt. eigenvalues --    0.15630   0.17233   0.18578   0.19049   0.22303
 Alpha virt. eigenvalues --    0.24286   0.26614   0.28237   0.29001   0.29221
 Alpha virt. eigenvalues --    0.30814   0.31000   0.32471   0.32487   0.33725
 Alpha virt. eigenvalues --    0.34618   0.35530   0.36278   0.37280   0.38197
 Alpha virt. eigenvalues --    0.39023   0.40848   0.40942   0.41327   0.41610
 Alpha virt. eigenvalues --    0.42059   0.42931   0.43806   0.44226   0.44766
 Alpha virt. eigenvalues --    0.44781   0.45340   0.46453   0.50707   0.51499
 Alpha virt. eigenvalues --    0.52516   0.53717   0.53887   0.60308   0.61891
 Alpha virt. eigenvalues --    0.63087   0.69229   0.70796   0.70905   0.74472
 Alpha virt. eigenvalues --    0.74635   0.78902   0.79169   0.87004   0.87411
 Alpha virt. eigenvalues --    0.90588   0.98718   1.02338   1.02964   1.06773
 Alpha virt. eigenvalues --    1.10370   1.12598   1.19441   1.21539   1.24832
 Alpha virt. eigenvalues --    1.27528   1.30759   1.31908   1.35039   1.36072
 Alpha virt. eigenvalues --    1.37768   1.40099   1.41254   1.41676   1.42209
 Alpha virt. eigenvalues --    1.43311   1.44088   1.45924   1.46803   1.47069
 Alpha virt. eigenvalues --    1.47699   1.48966   1.50540   1.51004   1.52199
 Alpha virt. eigenvalues --    1.53275   1.54470   1.56991   1.57736   1.62475
 Alpha virt. eigenvalues --    1.65106   1.66649   1.88126   1.91376   1.95888
 Alpha virt. eigenvalues --    1.96928   2.01376   2.02263   2.03509   2.05784
 Alpha virt. eigenvalues --    2.07448   2.09961   2.10606   2.12014   2.12983
 Alpha virt. eigenvalues --    2.13013   2.14573   2.16137   2.21021   2.21168
 Alpha virt. eigenvalues --    2.22261   2.26380   2.30665   2.34856   2.36626
 Alpha virt. eigenvalues --    2.39676   2.43215   2.49358   2.51813   2.56524
 Alpha virt. eigenvalues --    2.56581   2.66536   2.66708   2.72410   2.73623
 Alpha virt. eigenvalues --    2.75912   2.77367   2.79526   2.84336   2.87214
 Alpha virt. eigenvalues --    2.88978   3.01416   3.08672   3.16000   3.24600
 Alpha virt. eigenvalues --    3.25756   3.39127   3.43633   3.43679   3.46423
 Alpha virt. eigenvalues --    3.46916   3.53476   3.54337   3.54804   3.58220
 Alpha virt. eigenvalues --    3.61144   3.65596   3.68977   3.71078   3.75106
 Alpha virt. eigenvalues --    3.78289   3.86326   4.26018   4.30480   4.31332
 Alpha virt. eigenvalues --    4.36032   4.37909   4.49806   6.37480   6.38817
 Alpha virt. eigenvalues --    6.40402   6.41436   6.41499   6.43773   6.45613
 Alpha virt. eigenvalues --    6.46005   6.46208   6.48223   6.48965   6.50072
 Alpha virt. eigenvalues --    6.53135   6.54133   6.55786   6.59636   6.68320
 Alpha virt. eigenvalues --    6.85233   6.87091   6.89612   6.97004   9.07394
 Alpha virt. eigenvalues --    9.08049   9.09890   9.10259   9.10721   9.12188
 Alpha virt. eigenvalues --    9.14451   9.15573   9.16053   9.18248   9.21180
 Alpha virt. eigenvalues --    9.22133   9.23017   9.23832   9.23994   9.26315
 Alpha virt. eigenvalues --    9.26657   9.32754   9.34913   9.36314   9.39156
 Alpha virt. eigenvalues --    9.40826   9.50156   9.56592   9.63680   9.66822
 Alpha virt. eigenvalues --    9.68414   9.73629   9.75139   9.75605   9.76733
 Alpha virt. eigenvalues --    9.78810   9.84069   9.89200   9.91121  23.92169
 Alpha virt. eigenvalues --   23.99641  24.03734  66.89295  66.91300  66.94447
 Alpha virt. eigenvalues --   66.94932  66.96993  66.99115  67.02423
  Beta  occ. eigenvalues --  -24.88698 -24.88697 -24.88042 -24.88037 -24.87877
  Beta  occ. eigenvalues --  -24.87450 -24.87447 -10.58157 -10.52674 -10.49111
  Beta  occ. eigenvalues --   -1.47270  -1.43857  -1.42233  -1.38220  -1.37631
  Beta  occ. eigenvalues --   -1.37538  -1.36340  -0.93485  -0.84828  -0.79315
  Beta  occ. eigenvalues --   -0.74969  -0.74037  -0.74034  -0.71609  -0.71254
  Beta  occ. eigenvalues --   -0.68578  -0.63515  -0.60946  -0.60644  -0.60304
  Beta  occ. eigenvalues --   -0.59564  -0.58193  -0.57482  -0.56322  -0.56020
  Beta  occ. eigenvalues --   -0.55184  -0.54387  -0.53812  -0.53588  -0.47919
  Beta virt. eigenvalues --   -0.04517   0.07794   0.08589   0.08696   0.09953
  Beta virt. eigenvalues --    0.12527   0.12799   0.13092   0.13663   0.15062
  Beta virt. eigenvalues --    0.15125   0.16581   0.17547   0.19280   0.19570
  Beta virt. eigenvalues --    0.23181   0.25361   0.26907   0.29087   0.29128
  Beta virt. eigenvalues --    0.29400   0.30901   0.31392   0.32524   0.33169
  Beta virt. eigenvalues --    0.34143   0.35672   0.35742   0.36638   0.37581
  Beta virt. eigenvalues --    0.38274   0.39241   0.40843   0.41116   0.41451
  Beta virt. eigenvalues --    0.41614   0.42217   0.43151   0.43776   0.44409
  Beta virt. eigenvalues --    0.44795   0.44847   0.45451   0.46539   0.50742
  Beta virt. eigenvalues --    0.51672   0.52642   0.53868   0.53965   0.60558
  Beta virt. eigenvalues --    0.63157   0.63688   0.69642   0.71034   0.71430
  Beta virt. eigenvalues --    0.74966   0.75299   0.79069   0.79323   0.87788
  Beta virt. eigenvalues --    0.87959   0.91248   0.99217   1.03009   1.03241
  Beta virt. eigenvalues --    1.07701   1.10775   1.13410   1.20001   1.21826
  Beta virt. eigenvalues --    1.25731   1.27904   1.31245   1.32035   1.35210
  Beta virt. eigenvalues --    1.36220   1.38014   1.40373   1.41443   1.41716
  Beta virt. eigenvalues --    1.42481   1.43455   1.44278   1.46078   1.46866
  Beta virt. eigenvalues --    1.47301   1.47848   1.49079   1.50611   1.51026
  Beta virt. eigenvalues --    1.52313   1.53363   1.54562   1.57205   1.58004
  Beta virt. eigenvalues --    1.62540   1.65334   1.66838   1.88245   1.91449
  Beta virt. eigenvalues --    1.95966   1.97094   2.01441   2.02539   2.03665
  Beta virt. eigenvalues --    2.05874   2.07925   2.10098   2.10700   2.12247
  Beta virt. eigenvalues --    2.13067   2.13323   2.14674   2.16444   2.21027
  Beta virt. eigenvalues --    2.21857   2.22418   2.26774   2.31069   2.35226
  Beta virt. eigenvalues --    2.37041   2.39949   2.43827   2.50029   2.51912
  Beta virt. eigenvalues --    2.56876   2.56921   2.66736   2.66887   2.72527
  Beta virt. eigenvalues --    2.74361   2.76319   2.78693   2.80380   2.84968
  Beta virt. eigenvalues --    2.87829   2.90359   3.02001   3.10619   3.17301
  Beta virt. eigenvalues --    3.24715   3.27621   3.41412   3.44623   3.46082
  Beta virt. eigenvalues --    3.48615   3.49165   3.54539   3.54838   3.55948
  Beta virt. eigenvalues --    3.59457   3.62906   3.66282   3.69419   3.71399
  Beta virt. eigenvalues --    3.75612   3.78400   3.89345   4.27470   4.30565
  Beta virt. eigenvalues --    4.31515   4.36176   4.38269   4.50863   6.38369
  Beta virt. eigenvalues --    6.39908   6.40446   6.41542   6.41676   6.44010
  Beta virt. eigenvalues --    6.45764   6.46061   6.46412   6.48270   6.49069
  Beta virt. eigenvalues --    6.50169   6.53184   6.54200   6.55803   6.59839
  Beta virt. eigenvalues --    6.68557   6.85517   6.87181   6.89682   6.97321
  Beta virt. eigenvalues --    9.07994   9.08316   9.10089   9.10363   9.10871
  Beta virt. eigenvalues --    9.13048   9.15143   9.16461   9.16525   9.18463
  Beta virt. eigenvalues --    9.21195   9.22688   9.23155   9.23960   9.24131
  Beta virt. eigenvalues --    9.26398   9.26731   9.33086   9.35001   9.37024
  Beta virt. eigenvalues --    9.39755   9.40891   9.50212   9.56873   9.63904
  Beta virt. eigenvalues --    9.66987   9.68510   9.73992   9.75298   9.75698
  Beta virt. eigenvalues --    9.76748   9.79194   9.84242   9.89248   9.91136
  Beta virt. eigenvalues --   23.92690  24.01180  24.04183  66.89515  66.91424
  Beta virt. eigenvalues --   66.94477  66.94951  66.97004  66.99222  67.02441
          Condensed to atoms (all electrons):
               1          2          3          4          5          6
     1  C    5.500083   0.136401  -0.122683   0.005596  -0.109090   0.005608
     2  F    0.136401   9.083457  -0.015117  -0.003362   0.015516   0.006193
     3  C   -0.122683  -0.015117   5.349599  -0.054964   0.321003  -0.054952
     4  F    0.005596  -0.003362  -0.054964   9.078931  -0.000566   0.017904
     5  F   -0.109090   0.015516   0.321003  -0.000566   9.115820   0.017188
     6  F    0.005608   0.006193  -0.054952   0.017904   0.017188   9.078867
     7  F    0.030661  -0.000147  -0.124759  -0.003628   0.020213  -0.003621
     8  C   -0.071632  -0.010090   0.094197   0.223548  -0.119709   0.223540
     9  F    0.136376   0.021372  -0.015080   0.006195  -0.000008  -0.003363
    10  F   -0.109053  -0.000008   0.320991   0.017191   0.005555  -0.000566
               7          8          9         10
     1  C    0.030661  -0.071632   0.136376  -0.109053
     2  F   -0.000147  -0.010090   0.021372  -0.000008
     3  C   -0.124759   0.094197  -0.015080   0.320991
     4  F   -0.003628   0.223548   0.006195   0.017191
     5  F    0.020213  -0.119709  -0.000008   0.005555
     6  F   -0.003621   0.223540  -0.003363  -0.000566
     7  F    9.116748   0.234930  -0.000146   0.020220
     8  C    0.234930   4.590166  -0.010101  -0.119728
     9  F   -0.000146  -0.010101   9.083456   0.015508
    10  F    0.020220  -0.119728   0.015508   9.115802
          Atomic-Atomic Spin Densities.
               1          2          3          4          5          6
     1  C    1.250084  -0.124918  -0.156704  -0.000686  -0.008658  -0.000687
     2  F   -0.124918   0.153637   0.005477   0.000026  -0.000382  -0.000570
     3  C   -0.156704   0.005477   0.205000   0.003408   0.010770   0.003414
     4  F   -0.000686   0.000026   0.003408  -0.000648  -0.000078   0.000013
     5  F   -0.008658  -0.000382   0.010770  -0.000078   0.003505   0.000132
     6  F   -0.000687  -0.000570   0.003414   0.000013   0.000132  -0.000646
     7  F   -0.002028  -0.000096   0.002667   0.000417   0.001192   0.000417
     8  C    0.050955   0.003479  -0.105739  -0.002179  -0.008987  -0.002185
     9  F   -0.124930   0.011546   0.005480  -0.000569   0.000200   0.000026
    10  F   -0.008643   0.000200   0.010763   0.000132   0.002597  -0.000078
               7          8          9         10
     1  C   -0.002028   0.050955  -0.124930  -0.008643
     2  F   -0.000096   0.003479   0.011546   0.000200
     3  C    0.002667  -0.105739   0.005480   0.010763
     4  F    0.000417  -0.002179  -0.000569   0.000132
     5  F    0.001192  -0.008987   0.000200   0.002597
     6  F    0.000417  -0.002185   0.000026  -0.000078
     7  F    0.015354  -0.012709  -0.000096   0.001192
     8  C   -0.012709   0.121180   0.003477  -0.008983
     9  F   -0.000096   0.003477   0.153649  -0.000383
    10  F    0.001192  -0.008983  -0.000383   0.003495
 Mulliken charges and spin densities:
               1          2
     1  C    0.597732   0.873784
     2  F   -0.234216   0.048399
     3  C    0.301764  -0.015463
     4  F   -0.286845  -0.000164
     5  F   -0.265923   0.000292
     6  F   -0.286799  -0.000163
     7  F   -0.290472   0.006311
     8  C    0.964879   0.038310
     9  F   -0.234209   0.048402
    10  F   -0.265912   0.000293
 Sum of Mulliken charges =  -0.00000   1.00000
 Mulliken charges and spin densities with hydrogens summed into heavy atoms:
               1          2
     1  C    0.597732   0.873784
     2  F   -0.234216   0.048399
     3  C    0.301764  -0.015463
     4  F   -0.286845  -0.000164
     5  F   -0.265923   0.000292
     6  F   -0.286799  -0.000163
     7  F   -0.290472   0.006311
     8  C    0.964879   0.038310
     9  F   -0.234209   0.048402
    10  F   -0.265912   0.000293
 Electronic spatial extent (au):  <R**2>=           1107.9182
 Charge=             -0.0000 electrons
 Dipole moment (field-independent basis, Debye):
    X=              0.4841    Y=             -0.0483    Z=              0.0003  Tot=              0.4865
 Quadrupole moment (field-independent basis, Debye-Ang):
   XX=            -51.8659   YY=            -52.8610   ZZ=            -53.4937
   XY=              0.7462   XZ=             -0.0008   YZ=             -0.0013
 Traceless Quadrupole moment (field-independent basis, Debye-Ang):
   XX=              0.8743   YY=             -0.1208   ZZ=             -0.7535
   XY=              0.7462   XZ=             -0.0008   YZ=             -0.0013
 Octapole moment (field-independent basis, Debye-Ang**2):
  XXX=             -1.4369  YYY=             -4.7355  ZZZ=              0.0004  XYY=             -0.8997
  XXY=              0.0946  XXZ=              0.0010  XZZ=             -2.1858  YZZ=             -1.1454
  YYZ=             -0.0003  XYZ=              0.0009
 Hexadecapole moment (field-independent basis, Debye-Ang**3):
 XXXX=           -551.4359 YYYY=           -275.5886 ZZZZ=           -242.6559 XXXY=             -0.9709
 XXXZ=             -0.0001 YYYX=             -6.0390 YYYZ=             -0.0040 ZZZX=             -0.0028
 ZZZY=             -0.0036 XXYY=           -136.5112 XXZZ=           -135.2358 YYZZ=            -88.2437
 XXYZ=             -0.0012 YYXZ=             -0.0015 ZZXY=             -2.2683
 N-N= 6.527444320482D+02 E-N=-3.238183235239D+03  KE= 8.111550571557D+02
                          Isotropic Fermi Contact Couplings
        Atom                 a.u.       MegaHertz       Gauss      10(-4) cm-1
     1  C(13)              0.33615     377.89904     134.84377     126.05355
     2  F(19)              0.05114     215.17905      76.78124      71.77601
     3  C(13)             -0.00468      -5.26620      -1.87911      -1.75661
     4  F(19)             -0.00006      -0.23935      -0.08541      -0.07984
     5  F(19)              0.00679      28.55769      10.19009       9.52582
     6  F(19)             -0.00006      -0.23778      -0.08485      -0.07932
     7  F(19)              0.00978      41.14797      14.68262      13.72549
     8  C(13)              0.03590      40.35470      14.39956      13.46088
     9  F(19)              0.05115     215.19637      76.78741      71.78178
    10  F(19)              0.00678      28.51640      10.17536       9.51205
 --------------------------------------------------------
       Center         ----  Spin Dipole Couplings  ----
                      3XX-RR        3YY-RR        3ZZ-RR
 --------------------------------------------------------
     1   Atom        0.096078      0.440801     -0.536879
     2   Atom        0.071332      0.359138     -0.430470
     3   Atom        0.056633     -0.013537     -0.043096
     4   Atom        0.000313      0.004975     -0.005287
     5   Atom       -0.014524     -0.015025      0.029549
     6   Atom        0.000309      0.004974     -0.005283
     7   Atom        0.072670     -0.031030     -0.041639
     8   Atom        0.008197      0.017182     -0.025380
     9   Atom        0.071257      0.359152     -0.430409
    10   Atom       -0.014539     -0.015012      0.029551
 --------------------------------------------------------
                        XY            XZ            YZ
 --------------------------------------------------------
     1   Atom        0.781305      0.000172      0.000211
     2   Atom        0.608805     -0.092836     -0.071122
     3   Atom       -0.066585     -0.000011      0.000007
     4   Atom        0.003988      0.000708     -0.004485
     5   Atom        0.001364     -0.008622      0.002311
     6   Atom        0.003997     -0.000704      0.004489
     7   Atom        0.038567      0.000004      0.000001
     8   Atom        0.035094      0.000003      0.000003
     9   Atom        0.608788      0.093106      0.071472
    10   Atom        0.001369      0.008590     -0.002296
 --------------------------------------------------------


 ---------------------------------------------------------------------------------
              Anisotropic Spin Dipole Couplings in Principal Axis System
 ---------------------------------------------------------------------------------

       Atom             a.u.   MegaHertz   Gauss  10(-4) cm-1        Axes

              Baa    -0.5369   -72.044   -25.707   -24.031 -0.0003  0.0000  1.0000
     1 C(13)  Bbb    -0.5317   -71.343   -25.457   -23.797  0.7796 -0.6263  0.0003
              Bcc     1.0685   143.387    51.164    47.829  0.6263  0.7796  0.0002
 
              Baa    -0.4577  -229.881   -82.027   -76.680  0.4512 -0.2620  0.8531
     2 F(19)  Bbb    -0.3931  -197.440   -70.451   -65.859  0.6423 -0.5684 -0.5142
              Bcc     0.8509   427.320   152.479   142.539  0.6196  0.7799 -0.0882
 
              Baa    -0.0537    -7.208    -2.572    -2.404  0.5166  0.8562  0.0000
     3 C(13)  Bbb    -0.0431    -5.783    -2.064    -1.929  0.0001 -0.0001  1.0000
              Bcc     0.0968    12.991     4.636     4.333  0.8562 -0.5166 -0.0001
 
              Baa    -0.0076    -3.805    -1.358    -1.269 -0.2808  0.4008  0.8720
     4 F(19)  Bbb    -0.0007    -0.336    -0.120    -0.112  0.8660 -0.2859  0.4103
              Bcc     0.0082     4.141     1.478     1.381  0.4138  0.8704 -0.2668
 
              Baa    -0.0175    -8.776    -3.131    -2.927  0.7820 -0.5988  0.1728
     5 F(19)  Bbb    -0.0138    -6.926    -2.471    -2.310  0.5956  0.7997  0.0758
              Bcc     0.0313    15.702     5.603     5.237 -0.1836  0.0436  0.9820
 
              Baa    -0.0076    -3.805    -1.358    -1.269  0.2812 -0.4014  0.8717
     6 F(19)  Bbb    -0.0007    -0.340    -0.121    -0.113  0.8657 -0.2858 -0.4109
              Bcc     0.0083     4.145     1.479     1.383  0.4141  0.8702  0.2671
 
              Baa    -0.0438   -21.998    -7.849    -7.338 -0.3143  0.9493  0.0001
     7 F(19)  Bbb    -0.0416   -20.912    -7.462    -6.976 -0.0000 -0.0001  1.0000
              Bcc     0.0854    42.910    15.311    14.313  0.9493  0.3143  0.0000
 
              Baa    -0.0254    -3.406    -1.215    -1.136 -0.0000 -0.0000  1.0000
     8 C(13)  Bbb    -0.0227    -3.045    -1.086    -1.016  0.7507 -0.6607  0.0000
              Bcc     0.0481     6.451     2.302     2.152  0.6607  0.7507  0.0001
 
              Baa    -0.4577  -229.890   -82.030   -76.683 -0.4514  0.2617  0.8531
     9 F(19)  Bbb    -0.3932  -197.451   -70.455   -65.863  0.6422 -0.5685  0.5142
              Bcc     0.8509   427.341   152.486   142.546  0.6196  0.7799  0.0885
 
              Baa    -0.0175    -8.774    -3.131    -2.927  0.7836 -0.5970 -0.1723
    10 F(19)  Bbb    -0.0138    -6.922    -2.470    -2.309  0.5938  0.8011 -0.0753
              Bcc     0.0313    15.696     5.601     5.236  0.1830 -0.0433  0.9822
 

 ---------------------------------------------------------------------------------

 1\1\GINC-CCLEARCO\FOpt\UwB97XD\6-311+G(2d,2p)\C3F7(2)\RAPPE\12-Feb-202
 3\0\\# opt uwb97xd/6-311+g(2d,2p) freq geom=connectivity scf=xqc\\Titl
 e Card Required\\0,2\C,-1.051465636,0.6147162868,-0.0189588829\F,-1.16
 40895985,1.2101996711,1.1459543655\C,0.0030299615,-0.4728651269,-0.096
 3153206\F,1.7633263894,0.8666220924,-0.9343399765\F,-0.2265381117,-1.3
 514528848,0.8915462987\F,1.6537606636,0.6082786625,1.2081036727\F,2.30
 11823511,-1.0267232011,-0.0454613695\C,1.4755438369,0.007002348,0.0369
 880407\F,-1.053882615,1.4708597451,-1.0145966347\F,-0.1152292415,-1.08
 9184593,-1.2822361934\\Version=EM64M-G16RevA.03\State=2-A\HF=-813.1854
 814\S2=0.752782\S2-1=0.\S2A=0.750005\RMSD=5.881e-09\RMSF=2.422e-05\Dip
 ole=-0.1656258,0.0958622,0.0032102\Quadrupole=0.9367524,-0.3842932,-0.
 5524592,0.0805635,0.087263,0.0260058\PG=C01 [X(C3F7)]\\@


 WE HAVE LEFT UNDONE THOSE THINGS WHICH WE OUGHT TO HAVE DONE,
 AND WE HAVE DONE THOSE THINGS WHICH WE OUGHT NOT TO HAVE DONE.
                   BOOK OF COMMON PRAYER                      
 Job cpu time:       0 days  2 hours  4 minutes 54.2 seconds.
 Elapsed time:       0 days  0 hours  7 minutes 11.9 seconds.
 File lengths (MBytes):  RWF=     62 Int=      0 D2E=      0 Chk=      8 Scr=      1
 Normal termination of Gaussian 16 at Sun Feb 12 12:04:13 2023.
 Link1:  Proceeding to internal job step number  2.
 ----------------------------------------------------------------------
 #N Geom=AllCheck Guess=TCheck SCRF=Check GenChk UwB97XD/6-311+G(2d,2p)
  Freq
 ----------------------------------------------------------------------
 1/10=4,29=7,30=1,38=1,40=1/1,3;
 2/12=2,40=1/2;
 3/5=4,6=6,7=212,11=2,14=-4,25=1,30=1,70=2,71=2,74=-58,116=2,140=1/1,2,3;
 4/5=101/1;
 5/5=2,8=3,13=1,38=6,98=1/2,8;
 8/6=4,10=90,11=11/1;
 11/6=1,8=1,9=11,15=111,16=1/1,2,10;
 10/6=1/2;
 6/7=2,8=2,9=2,10=2,28=1/1;
 7/8=1,10=1,25=1/1,2,3,16;
 1/10=4,30=1/3;
 99//99;
 Structure from the checkpoint file:  "c3f7.chk"
 -------------------
 Title Card Required
 -------------------
 Charge =  0 Multiplicity = 2
 Redundant internal coordinates found in file.  (old form).
 C,0,-1.051465636,0.6147162868,-0.0189588829
 F,0,-1.1640895985,1.2101996711,1.1459543655
 C,0,0.0030299615,-0.4728651269,-0.0963153206
 F,0,1.7633263894,0.8666220924,-0.9343399765
 F,0,-0.2265381117,-1.3514528848,0.8915462987
 F,0,1.6537606636,0.6082786625,1.2081036727
 F,0,2.3011823511,-1.0267232011,-0.0454613695
 C,0,1.4755438369,0.007002348,0.0369880407
 F,0,-1.053882615,1.4708597451,-1.0145966347
 F,0,-0.1152292415,-1.089184593,-1.2822361934
 Recover connectivity data from disk.

 GradGradGradGradGradGradGradGradGradGradGradGradGradGradGradGradGradGrad
 Berny optimization.
 Initialization pass.
                           ----------------------------
                           !    Initial Parameters    !
                           ! (Angstroms and Degrees)  !
 --------------------------                            --------------------------
 ! Name  Definition              Value          Derivative Info.                !
 --------------------------------------------------------------------------------
 ! R1    R(1,2)                  1.3131         calculate D2E/DX2 analytically  !
 ! R2    R(1,3)                  1.5168         calculate D2E/DX2 analytically  !
 ! R3    R(1,9)                  1.3131         calculate D2E/DX2 analytically  !
 ! R4    R(3,5)                  1.3418         calculate D2E/DX2 analytically  !
 ! R5    R(3,8)                  1.5545         calculate D2E/DX2 analytically  !
 ! R6    R(3,10)                 1.3417         calculate D2E/DX2 analytically  !
 ! R7    R(4,8)                  1.3286         calculate D2E/DX2 analytically  !
 ! R8    R(6,8)                  1.3285         calculate D2E/DX2 analytically  !
 ! R9    R(7,8)                  1.3255         calculate D2E/DX2 analytically  !
 ! A1    A(2,1,3)              115.4688         calculate D2E/DX2 analytically  !
 ! A2    A(2,1,9)              112.1365         calculate D2E/DX2 analytically  !
 ! A3    A(3,1,9)              115.4736         calculate D2E/DX2 analytically  !
 ! A4    A(1,3,5)              108.2397         calculate D2E/DX2 analytically  !
 ! A5    A(1,3,8)              115.6474         calculate D2E/DX2 analytically  !
 ! A6    A(1,3,10)             108.2496         calculate D2E/DX2 analytically  !
 ! A7    A(5,3,8)              107.5216         calculate D2E/DX2 analytically  !
 ! A8    A(5,3,10)             109.5646         calculate D2E/DX2 analytically  !
 ! A9    A(8,3,10)             107.5232         calculate D2E/DX2 analytically  !
 ! A10   A(3,8,4)              110.0123         calculate D2E/DX2 analytically  !
 ! A11   A(3,8,6)              110.0233         calculate D2E/DX2 analytically  !
 ! A12   A(3,8,7)              110.1181         calculate D2E/DX2 analytically  !
 ! A13   A(4,8,6)              108.8197         calculate D2E/DX2 analytically  !
 ! A14   A(4,8,7)              108.9156         calculate D2E/DX2 analytically  !
 ! A15   A(6,8,7)              108.9197         calculate D2E/DX2 analytically  !
 ! D1    D(2,1,3,5)             53.8803         calculate D2E/DX2 analytically  !
 ! D2    D(2,1,3,8)            -66.7746         calculate D2E/DX2 analytically  !
 ! D3    D(2,1,3,10)           172.5608         calculate D2E/DX2 analytically  !
 ! D4    D(9,1,3,5)           -172.5498         calculate D2E/DX2 analytically  !
 ! D5    D(9,1,3,8)             66.7953         calculate D2E/DX2 analytically  !
 ! D6    D(9,1,3,10)           -53.8693         calculate D2E/DX2 analytically  !
 ! D7    D(1,3,8,4)            -59.9498         calculate D2E/DX2 analytically  !
 ! D8    D(1,3,8,6)             59.9271         calculate D2E/DX2 analytically  !
 ! D9    D(1,3,8,7)            179.9947         calculate D2E/DX2 analytically  !
 ! D10   D(5,3,8,4)            179.0074         calculate D2E/DX2 analytically  !
 ! D11   D(5,3,8,6)            -61.1157         calculate D2E/DX2 analytically  !
 ! D12   D(5,3,8,7)             58.9519         calculate D2E/DX2 analytically  !
 ! D13   D(10,3,8,4)            61.1071         calculate D2E/DX2 analytically  !
 ! D14   D(10,3,8,6)          -179.016          calculate D2E/DX2 analytically  !
 ! D15   D(10,3,8,7)           -58.9484         calculate D2E/DX2 analytically  !
 --------------------------------------------------------------------------------
 Trust Radius=3.00D-01 FncErr=1.00D-07 GrdErr=1.00D-07 EigMax=2.50D+02 EigMin=1.00D-04
 Number of steps in this run=      2 maximum allowed number of steps=      2.
 GradGradGradGradGradGradGradGradGradGradGradGradGradGradGradGradGradGrad

                          Input orientation:                          
 ---------------------------------------------------------------------
 Center     Atomic      Atomic             Coordinates (Angstroms)
 Number     Number       Type             X           Y           Z
 ---------------------------------------------------------------------
      1          6           0       -1.051466    0.614716   -0.018959
      2          9           0       -1.164090    1.210200    1.145954
      3          6           0        0.003030   -0.472865   -0.096315
      4          9           0        1.763326    0.866622   -0.934340
      5          9           0       -0.226538   -1.351453    0.891546
      6          9           0        1.653761    0.608279    1.208104
      7          9           0        2.301182   -1.026723   -0.045461
      8          6           0        1.475544    0.007002    0.036988
      9          9           0       -1.053883    1.470860   -1.014597
     10          9           0       -0.115229   -1.089185   -1.282236
 ---------------------------------------------------------------------
                    Distance matrix (angstroms):
                    1          2          3          4          5
     1  C    0.000000
     2  F    1.313129   0.000000
     3  C    1.516832   2.395435   0.000000
     4  F    2.970595   3.607691   2.365408   0.000000
     5  F    2.318479   2.739670   1.341823   3.494750   0.000000
     6  F    2.970517   2.882092   2.365437   2.160743   2.734279
     7  F    3.732998   4.293181   2.364498   2.159664   2.715291
     8  C    2.599658   3.105665   1.554458   1.328624   2.339392
     9  F    1.313119   2.179007   2.395490   2.882397   3.504758
    10  F    2.318553   3.504766   1.341731   2.734078   2.192374
                    6          7          8          9         10
     6  F    0.000000
     7  F    2.159586   0.000000
     8  C    1.328460   1.325543   0.000000
     9  F    3.607738   4.293437   3.105915   0.000000
    10  F    3.494639   2.715246   2.339346   2.739804   0.000000
 Stoichiometry    C3F7(2)
 Framework group  C1[X(C3F7)]
 Deg. of freedom    24
 Full point group                 C1      NOp   1
 Largest Abelian subgroup         C1      NOp   1
 Largest concise Abelian subgroup C1      NOp   1
                         Standard orientation:                         
 ---------------------------------------------------------------------
 Center     Atomic      Atomic             Coordinates (Angstroms)
 Number     Number       Type             X           Y           Z
 ---------------------------------------------------------------------
      1          6           0        1.523686    0.113560    0.000034
      2          9           0        1.876169   -0.529181    1.089505
      3          6           0        0.113740    0.672872    0.000001
      4          9           0       -0.938376   -1.149387   -1.080545
      5          9           0       -0.037060    1.431762    1.096283
      6          9           0       -0.938324   -1.149661    1.080198
      7          9           0       -2.207689    0.223632    0.000110
      8          6           0       -1.028381   -0.381594    0.000027
      9          9           0        1.876431   -0.528908   -1.089502
     10          9           0       -0.037180    1.431851   -1.096091
 ---------------------------------------------------------------------
 Rotational constants (GHZ):           1.7912688           1.1599535           1.1290810
 Standard basis: 6-311+G(2d,2p) (5D, 7F)
 There are   290 symmetry adapted cartesian basis functions of A   symmetry.
 There are   270 symmetry adapted basis functions of A   symmetry.
   270 basis functions,   420 primitive gaussians,   290 cartesian basis functions
    41 alpha electrons       40 beta electrons
       nuclear repulsion energy       652.7486958685 Hartrees.
 NAtoms=   10 NActive=   10 NUniq=   10 SFac= 1.00D+00 NAtFMM=   60 NAOKFM=F Big=F
 Integral buffers will be    131072 words long.
 Raffenetti 2 integral format.
 Two-electron integral symmetry is turned on.
 Nuclear repulsion after empirical dispersion term =      652.7444320482 Hartrees.
 One-electron integrals computed using PRISM.
 NBasis=   270 RedAO= T EigKep=  7.27D-05  NBF=   270
 NBsUse=   270 1.00D-06 EigRej= -1.00D+00 NBFU=   270
 Initial guess from the checkpoint file:  "c3f7.chk"
 B after Tr=     0.000000    0.000000    0.000000
         Rot=    1.000000    0.000000    0.000000    0.000000 Ang=   0.00 deg.
 Initial guess <Sx>= 0.0000 <Sy>= 0.0000 <Sz>= 0.5000 <S**2>= 0.7528 S= 0.5014
 Keep R1 and R2 ints in memory in canonical form, NReq=2703878162.
 Requested convergence on RMS density matrix=1.00D-08 within  32 cycles.
 Requested convergence on MAX density matrix=1.00D-06.
 Requested convergence on             energy=1.00D-06.
 No special actions if energy rises.
 SCF Done:  E(UwB97XD) =  -813.185481443     A.U. after    1 cycles
            NFock=  1  Conv=0.18D-08     -V/T= 2.0025
 <Sx>= 0.0000 <Sy>= 0.0000 <Sz>= 0.5000 <S**2>= 0.7528 S= 0.5014
 <L.S>= 0.000000000000E+00
 Annihilation of the first spin contaminant:
 S**2 before annihilation     0.7528,   after     0.7500
 QCSCF skips out because SCF is already converged.
 DoSCS=F DFT=T ScalE2(SS,OS)=  1.000000  1.000000
 Range of M.O.s used for correlation:     1   270
 NBasis=   270 NAE=    41 NBE=    40 NFC=     0 NFV=     0
 NROrb=    270 NOA=    41 NOB=    40 NVA=   229 NVB=   230

 **** Warning!!: The largest alpha MO coefficient is  0.47599560D+02


 **** Warning!!: The largest beta MO coefficient is  0.39536076D+02

 Symmetrizing basis deriv contribution to polar:
 IMax=3 JMax=2 DiffMx= 0.00D+00
 G2DrvN: will do    11 centers at a time, making    1 passes.
 Calling FoFCou, ICntrl=  3107 FMM=F I1Cent=   0 AccDes= 0.00D+00.
 End of G2Drv F.D. properties file   721 does not exist.
 End of G2Drv F.D. properties file   722 does not exist.
 End of G2Drv F.D. properties file   788 does not exist.
          IDoAtm=1111111111
          Differentiating once with respect to electric field.
                with respect to dipole field.
          Differentiating once with respect to nuclear coordinates.
 Keep R1 and R2 ints in memory in canonical form, NReq=2703804475.
          There are    33 degrees of freedom in the 1st order CPHF.  IDoFFX=6 NUNeed=     3.
     30 vectors produced by pass  0 Test12= 5.63D-14 3.03D-09 XBig12= 2.72D+01 1.14D+00.
 AX will form    30 AO Fock derivatives at one time.
     30 vectors produced by pass  1 Test12= 5.63D-14 3.03D-09 XBig12= 5.30D+00 3.68D-01.
     30 vectors produced by pass  2 Test12= 5.63D-14 3.03D-09 XBig12= 2.92D-01 8.58D-02.
     30 vectors produced by pass  3 Test12= 5.63D-14 3.03D-09 XBig12= 1.08D-02 1.38D-02.
     30 vectors produced by pass  4 Test12= 5.63D-14 3.03D-09 XBig12= 2.70D-04 3.98D-03.
     30 vectors produced by pass  5 Test12= 5.63D-14 3.03D-09 XBig12= 4.22D-06 3.58D-04.
     30 vectors produced by pass  6 Test12= 5.63D-14 3.03D-09 XBig12= 4.23D-08 3.20D-05.
     28 vectors produced by pass  7 Test12= 5.63D-14 3.03D-09 XBig12= 4.47D-10 3.67D-06.
     10 vectors produced by pass  8 Test12= 5.63D-14 3.03D-09 XBig12= 4.04D-12 2.46D-07.
      3 vectors produced by pass  9 Test12= 5.63D-14 3.03D-09 XBig12= 3.44D-14 2.69D-08.
 InvSVY:  IOpt=1 It=  1 EMax= 3.55D-15
 Solved reduced A of dimension   251 with    33 vectors.
 Isotropic polarizability for W=    0.000000       41.28 Bohr**3.
 End of Minotr F.D. properties file   721 does not exist.
 End of Minotr F.D. properties file   722 does not exist.
 End of Minotr F.D. properties file   788 does not exist.

 **********************************************************************

            Population analysis using the SCF density.

 **********************************************************************

 Orbital symmetries:
 Alpha Orbitals:
       Occupied  (A) (A) (A) (A) (A) (A) (A) (A) (A) (A) (A) (A)
                 (A) (A) (A) (A) (A) (A) (A) (A) (A) (A) (A) (A)
                 (A) (A) (A) (A) (A) (A) (A) (A) (A) (A) (A) (A)
                 (A) (A) (A) (A) (A)
       Virtual   (A) (A) (A) (A) (A) (A) (A) (A) (A) (A) (A) (A)
                 (A) (A) (A) (A) (A) (A) (A) (A) (A) (A) (A) (A)
                 (A) (A) (A) (A) (A) (A) (A) (A) (A) (A) (A) (A)
                 (A) (A) (A) (A) (A) (A) (A) (A) (A) (A) (A) (A)
                 (A) (A) (A) (A) (A) (A) (A) (A) (A) (A) (A) (A)
                 (A) (A) (A) (A) (A) (A) (A) (A) (A) (A) (A) (A)
                 (A) (A) (A) (A) (A) (A) (A) (A) (A) (A) (A) (A)
                 (A) (A) (A) (A) (A) (A) (A) (A) (A) (A) (A) (A)
                 (A) (A) (A) (A) (A) (A) (A) (A) (A) (A) (A) (A)
                 (A) (A) (A) (A) (A) (A) (A) (A) (A) (A) (A) (A)
                 (A) (A) (A) (A) (A) (A) (A) (A) (A) (A) (A) (A)
                 (A) (A) (A) (A) (A) (A) (A) (A) (A) (A) (A) (A)
                 (A) (A) (A) (A) (A) (A) (A) (A) (A) (A) (A) (A)
                 (A) (A) (A) (A) (A) (A) (A) (A) (A) (A) (A) (A)
                 (A) (A) (A) (A) (A) (A) (A) (A) (A) (A) (A) (A)
                 (A) (A) (A) (A) (A) (A) (A) (A) (A) (A) (A) (A)
                 (A) (A) (A) (A) (A) (A) (A) (A) (A) (A) (A) (A)
                 (A) (A) (A) (A) (A) (A) (A) (A) (A) (A) (A) (A)
                 (A) (A) (A) (A) (A) (A) (A) (A) (A) (A) (A) (A)
                 (A)
 Beta  Orbitals:
       Occupied  (A) (A) (A) (A) (A) (A) (A) (A) (A) (A) (A) (A)
                 (A) (A) (A) (A) (A) (A) (A) (A) (A) (A) (A) (A)
                 (A) (A) (A) (A) (A) (A) (A) (A) (A) (A) (A) (A)
                 (A) (A) (A) (A)
       Virtual   (A) (A) (A) (A) (A) (A) (A) (A) (A) (A) (A) (A)
                 (A) (A) (A) (A) (A) (A) (A) (A) (A) (A) (A) (A)
                 (A) (A) (A) (A) (A) (A) (A) (A) (A) (A) (A) (A)
                 (A) (A) (A) (A) (A) (A) (A) (A) (A) (A) (A) (A)
                 (A) (A) (A) (A) (A) (A) (A) (A) (A) (A) (A) (A)
                 (A) (A) (A) (A) (A) (A) (A) (A) (A) (A) (A) (A)
                 (A) (A) (A) (A) (A) (A) (A) (A) (A) (A) (A) (A)
                 (A) (A) (A) (A) (A) (A) (A) (A) (A) (A) (A) (A)
                 (A) (A) (A) (A) (A) (A) (A) (A) (A) (A) (A) (A)
                 (A) (A) (A) (A) (A) (A) (A) (A) (A) (A) (A) (A)
                 (A) (A) (A) (A) (A) (A) (A) (A) (A) (A) (A) (A)
                 (A) (A) (A) (A) (A) (A) (A) (A) (A) (A) (A) (A)
                 (A) (A) (A) (A) (A) (A) (A) (A) (A) (A) (A) (A)
                 (A) (A) (A) (A) (A) (A) (A) (A) (A) (A) (A) (A)
                 (A) (A) (A) (A) (A) (A) (A) (A) (A) (A) (A) (A)
                 (A) (A) (A) (A) (A) (A) (A) (A) (A) (A) (A) (A)
                 (A) (A) (A) (A) (A) (A) (A) (A) (A) (A) (A) (A)
                 (A) (A) (A) (A) (A) (A) (A) (A) (A) (A) (A) (A)
                 (A) (A) (A) (A) (A) (A) (A) (A) (A) (A) (A) (A)
                 (A) (A)
 The electronic state is 2-A.
 Alpha  occ. eigenvalues --  -24.89027 -24.89027 -24.88042 -24.88036 -24.87915
 Alpha  occ. eigenvalues --  -24.87454 -24.87452 -10.58225 -10.52702 -10.50410
 Alpha  occ. eigenvalues --   -1.47335  -1.44721  -1.42395  -1.38715  -1.37829
 Alpha  occ. eigenvalues --   -1.37699  -1.36411  -0.94366  -0.86086  -0.79986
 Alpha  occ. eigenvalues --   -0.75358  -0.74439  -0.74151  -0.72166  -0.71611
 Alpha  occ. eigenvalues --   -0.68860  -0.66911  -0.61120  -0.60754  -0.60523
 Alpha  occ. eigenvalues --   -0.59666  -0.59127  -0.57937  -0.57121  -0.56114
 Alpha  occ. eigenvalues --   -0.55315  -0.54475  -0.54050  -0.53852  -0.48795
 Alpha  occ. eigenvalues --   -0.35726
 Alpha virt. eigenvalues --    0.07326   0.08324   0.08489   0.09306   0.12327
 Alpha virt. eigenvalues --    0.12548   0.12639   0.13466   0.14838   0.14858
 Alpha virt. eigenvalues --    0.15630   0.17233   0.18578   0.19049   0.22303
 Alpha virt. eigenvalues --    0.24286   0.26614   0.28237   0.29001   0.29221
 Alpha virt. eigenvalues --    0.30814   0.31000   0.32471   0.32487   0.33725
 Alpha virt. eigenvalues --    0.34618   0.35530   0.36278   0.37280   0.38197
 Alpha virt. eigenvalues --    0.39023   0.40848   0.40942   0.41327   0.41610
 Alpha virt. eigenvalues --    0.42059   0.42931   0.43806   0.44226   0.44766
 Alpha virt. eigenvalues --    0.44781   0.45340   0.46453   0.50707   0.51499
 Alpha virt. eigenvalues --    0.52516   0.53717   0.53887   0.60308   0.61891
 Alpha virt. eigenvalues --    0.63087   0.69229   0.70796   0.70905   0.74472
 Alpha virt. eigenvalues --    0.74635   0.78902   0.79169   0.87004   0.87411
 Alpha virt. eigenvalues --    0.90588   0.98718   1.02338   1.02964   1.06773
 Alpha virt. eigenvalues --    1.10370   1.12598   1.19441   1.21539   1.24832
 Alpha virt. eigenvalues --    1.27528   1.30759   1.31908   1.35039   1.36072
 Alpha virt. eigenvalues --    1.37768   1.40099   1.41254   1.41676   1.42209
 Alpha virt. eigenvalues --    1.43311   1.44088   1.45924   1.46803   1.47069
 Alpha virt. eigenvalues --    1.47699   1.48966   1.50540   1.51004   1.52199
 Alpha virt. eigenvalues --    1.53275   1.54470   1.56991   1.57736   1.62475
 Alpha virt. eigenvalues --    1.65106   1.66649   1.88126   1.91376   1.95888
 Alpha virt. eigenvalues --    1.96928   2.01376   2.02263   2.03509   2.05784
 Alpha virt. eigenvalues --    2.07448   2.09961   2.10606   2.12014   2.12983
 Alpha virt. eigenvalues --    2.13013   2.14573   2.16137   2.21021   2.21168
 Alpha virt. eigenvalues --    2.22261   2.26380   2.30665   2.34856   2.36626
 Alpha virt. eigenvalues --    2.39676   2.43215   2.49358   2.51813   2.56524
 Alpha virt. eigenvalues --    2.56581   2.66536   2.66708   2.72410   2.73623
 Alpha virt. eigenvalues --    2.75912   2.77367   2.79526   2.84336   2.87214
 Alpha virt. eigenvalues --    2.88978   3.01416   3.08672   3.16000   3.24600
 Alpha virt. eigenvalues --    3.25756   3.39127   3.43633   3.43679   3.46423
 Alpha virt. eigenvalues --    3.46916   3.53476   3.54337   3.54804   3.58220
 Alpha virt. eigenvalues --    3.61144   3.65596   3.68977   3.71078   3.75106
 Alpha virt. eigenvalues --    3.78289   3.86326   4.26018   4.30480   4.31332
 Alpha virt. eigenvalues --    4.36032   4.37909   4.49806   6.37480   6.38817
 Alpha virt. eigenvalues --    6.40402   6.41436   6.41499   6.43773   6.45613
 Alpha virt. eigenvalues --    6.46005   6.46208   6.48223   6.48965   6.50072
 Alpha virt. eigenvalues --    6.53135   6.54133   6.55786   6.59636   6.68320
 Alpha virt. eigenvalues --    6.85233   6.87091   6.89612   6.97004   9.07394
 Alpha virt. eigenvalues --    9.08049   9.09890   9.10259   9.10721   9.12188
 Alpha virt. eigenvalues --    9.14451   9.15573   9.16053   9.18248   9.21180
 Alpha virt. eigenvalues --    9.22133   9.23017   9.23832   9.23994   9.26315
 Alpha virt. eigenvalues --    9.26657   9.32754   9.34913   9.36314   9.39156
 Alpha virt. eigenvalues --    9.40826   9.50156   9.56592   9.63680   9.66822
 Alpha virt. eigenvalues --    9.68414   9.73629   9.75139   9.75605   9.76733
 Alpha virt. eigenvalues --    9.78810   9.84069   9.89200   9.91121  23.92169
 Alpha virt. eigenvalues --   23.99641  24.03734  66.89295  66.91300  66.94447
 Alpha virt. eigenvalues --   66.94932  66.96993  66.99115  67.02423
  Beta  occ. eigenvalues --  -24.88698 -24.88697 -24.88042 -24.88037 -24.87877
  Beta  occ. eigenvalues --  -24.87450 -24.87447 -10.58157 -10.52674 -10.49111
  Beta  occ. eigenvalues --   -1.47270  -1.43857  -1.42233  -1.38220  -1.37631
  Beta  occ. eigenvalues --   -1.37538  -1.36340  -0.93485  -0.84828  -0.79315
  Beta  occ. eigenvalues --   -0.74969  -0.74037  -0.74034  -0.71609  -0.71254
  Beta  occ. eigenvalues --   -0.68578  -0.63515  -0.60946  -0.60644  -0.60304
  Beta  occ. eigenvalues --   -0.59564  -0.58193  -0.57482  -0.56322  -0.56020
  Beta  occ. eigenvalues --   -0.55184  -0.54387  -0.53812  -0.53588  -0.47919
  Beta virt. eigenvalues --   -0.04517   0.07794   0.08589   0.08696   0.09953
  Beta virt. eigenvalues --    0.12527   0.12799   0.13092   0.13663   0.15062
  Beta virt. eigenvalues --    0.15125   0.16581   0.17547   0.19280   0.19570
  Beta virt. eigenvalues --    0.23181   0.25361   0.26907   0.29087   0.29128
  Beta virt. eigenvalues --    0.29400   0.30901   0.31392   0.32524   0.33169
  Beta virt. eigenvalues --    0.34143   0.35672   0.35742   0.36638   0.37581
  Beta virt. eigenvalues --    0.38274   0.39241   0.40843   0.41116   0.41451
  Beta virt. eigenvalues --    0.41614   0.42217   0.43151   0.43776   0.44409
  Beta virt. eigenvalues --    0.44795   0.44847   0.45451   0.46539   0.50742
  Beta virt. eigenvalues --    0.51672   0.52642   0.53868   0.53965   0.60558
  Beta virt. eigenvalues --    0.63157   0.63688   0.69642   0.71034   0.71430
  Beta virt. eigenvalues --    0.74966   0.75299   0.79069   0.79323   0.87788
  Beta virt. eigenvalues --    0.87959   0.91248   0.99217   1.03009   1.03241
  Beta virt. eigenvalues --    1.07701   1.10775   1.13410   1.20001   1.21826
  Beta virt. eigenvalues --    1.25731   1.27904   1.31245   1.32035   1.35210
  Beta virt. eigenvalues --    1.36220   1.38014   1.40373   1.41443   1.41716
  Beta virt. eigenvalues --    1.42481   1.43455   1.44278   1.46078   1.46866
  Beta virt. eigenvalues --    1.47301   1.47848   1.49079   1.50611   1.51026
  Beta virt. eigenvalues --    1.52313   1.53363   1.54562   1.57205   1.58004
  Beta virt. eigenvalues --    1.62540   1.65334   1.66838   1.88245   1.91449
  Beta virt. eigenvalues --    1.95966   1.97094   2.01441   2.02539   2.03665
  Beta virt. eigenvalues --    2.05874   2.07925   2.10098   2.10700   2.12247
  Beta virt. eigenvalues --    2.13067   2.13323   2.14674   2.16444   2.21027
  Beta virt. eigenvalues --    2.21857   2.22418   2.26774   2.31069   2.35226
  Beta virt. eigenvalues --    2.37041   2.39949   2.43827   2.50029   2.51912
  Beta virt. eigenvalues --    2.56876   2.56921   2.66736   2.66887   2.72527
  Beta virt. eigenvalues --    2.74361   2.76319   2.78693   2.80380   2.84968
  Beta virt. eigenvalues --    2.87829   2.90359   3.02001   3.10619   3.17301
  Beta virt. eigenvalues --    3.24715   3.27621   3.41412   3.44623   3.46082
  Beta virt. eigenvalues --    3.48615   3.49165   3.54539   3.54838   3.55948
  Beta virt. eigenvalues --    3.59457   3.62906   3.66282   3.69419   3.71399
  Beta virt. eigenvalues --    3.75612   3.78400   3.89345   4.27470   4.30565
  Beta virt. eigenvalues --    4.31515   4.36176   4.38269   4.50863   6.38369
  Beta virt. eigenvalues --    6.39908   6.40446   6.41542   6.41676   6.44010
  Beta virt. eigenvalues --    6.45764   6.46061   6.46412   6.48270   6.49069
  Beta virt. eigenvalues --    6.50169   6.53184   6.54200   6.55803   6.59839
  Beta virt. eigenvalues --    6.68557   6.85517   6.87181   6.89682   6.97321
  Beta virt. eigenvalues --    9.07994   9.08316   9.10089   9.10363   9.10871
  Beta virt. eigenvalues --    9.13048   9.15143   9.16461   9.16525   9.18463
  Beta virt. eigenvalues --    9.21195   9.22688   9.23155   9.23960   9.24131
  Beta virt. eigenvalues --    9.26398   9.26731   9.33086   9.35001   9.37024
  Beta virt. eigenvalues --    9.39755   9.40891   9.50212   9.56873   9.63904
  Beta virt. eigenvalues --    9.66987   9.68510   9.73992   9.75298   9.75698
  Beta virt. eigenvalues --    9.76748   9.79194   9.84242   9.89248   9.91136
  Beta virt. eigenvalues --   23.92690  24.01180  24.04183  66.89515  66.91424
  Beta virt. eigenvalues --   66.94477  66.94951  66.97004  66.99222  67.02441
          Condensed to atoms (all electrons):
               1          2          3          4          5          6
     1  C    5.500083   0.136401  -0.122683   0.005596  -0.109090   0.005608
     2  F    0.136401   9.083457  -0.015117  -0.003362   0.015516   0.006193
     3  C   -0.122683  -0.015117   5.349599  -0.054964   0.321003  -0.054952
     4  F    0.005596  -0.003362  -0.054964   9.078931  -0.000566   0.017904
     5  F   -0.109090   0.015516   0.321003  -0.000566   9.115820   0.017188
     6  F    0.005608   0.006193  -0.054952   0.017904   0.017188   9.078867
     7  F    0.030661  -0.000147  -0.124759  -0.003628   0.020213  -0.003621
     8  C   -0.071632  -0.010090   0.094197   0.223548  -0.119709   0.223540
     9  F    0.136376   0.021372  -0.015080   0.006195  -0.000008  -0.003363
    10  F   -0.109053  -0.000008   0.320991   0.017191   0.005555  -0.000566
               7          8          9         10
     1  C    0.030661  -0.071632   0.136376  -0.109053
     2  F   -0.000147  -0.010090   0.021372  -0.000008
     3  C   -0.124759   0.094197  -0.015080   0.320991
     4  F   -0.003628   0.223548   0.006195   0.017191
     5  F    0.020213  -0.119709  -0.000008   0.005555
     6  F   -0.003621   0.223540  -0.003363  -0.000566
     7  F    9.116748   0.234930  -0.000146   0.020220
     8  C    0.234930   4.590166  -0.010101  -0.119728
     9  F   -0.000146  -0.010101   9.083456   0.015508
    10  F    0.020220  -0.119728   0.015508   9.115802
          Atomic-Atomic Spin Densities.
               1          2          3          4          5          6
     1  C    1.250084  -0.124919  -0.156704  -0.000686  -0.008658  -0.000687
     2  F   -0.124919   0.153637   0.005477   0.000026  -0.000382  -0.000570
     3  C   -0.156704   0.005477   0.205000   0.003408   0.010770   0.003414
     4  F   -0.000686   0.000026   0.003408  -0.000648  -0.000078   0.000013
     5  F   -0.008658  -0.000382   0.010770  -0.000078   0.003505   0.000132
     6  F   -0.000687  -0.000570   0.003414   0.000013   0.000132  -0.000646
     7  F   -0.002028  -0.000096   0.002667   0.000417   0.001192   0.000417
     8  C    0.050955   0.003479  -0.105739  -0.002179  -0.008987  -0.002185
     9  F   -0.124930   0.011546   0.005480  -0.000569   0.000200   0.000026
    10  F   -0.008643   0.000200   0.010763   0.000132   0.002597  -0.000078
               7          8          9         10
     1  C   -0.002028   0.050955  -0.124930  -0.008643
     2  F   -0.000096   0.003479   0.011546   0.000200
     3  C    0.002667  -0.105739   0.005480   0.010763
     4  F    0.000417  -0.002179  -0.000569   0.000132
     5  F    0.001192  -0.008987   0.000200   0.002597
     6  F    0.000417  -0.002185   0.000026  -0.000078
     7  F    0.015354  -0.012709  -0.000096   0.001192
     8  C   -0.012709   0.121180   0.003477  -0.008983
     9  F   -0.000096   0.003477   0.153649  -0.000383
    10  F    0.001192  -0.008983  -0.000383   0.003495
 Mulliken charges and spin densities:
               1          2
     1  C    0.597732   0.873784
     2  F   -0.234216   0.048399
     3  C    0.301764  -0.015463
     4  F   -0.286845  -0.000164
     5  F   -0.265923   0.000292
     6  F   -0.286799  -0.000163
     7  F   -0.290472   0.006311
     8  C    0.964879   0.038310
     9  F   -0.234210   0.048402
    10  F   -0.265912   0.000293
 Sum of Mulliken charges =  -0.00000   1.00000
 Mulliken charges and spin densities with hydrogens summed into heavy atoms:
               1          2
     1  C    0.597732   0.873784
     2  F   -0.234216   0.048399
     3  C    0.301764  -0.015463
     4  F   -0.286845  -0.000164
     5  F   -0.265923   0.000292
     6  F   -0.286799  -0.000163
     7  F   -0.290472   0.006311
     8  C    0.964879   0.038310
     9  F   -0.234210   0.048402
    10  F   -0.265912   0.000293
 APT charges:
               1
     1  C    0.862858
     2  F   -0.443011
     3  C    1.001114
     4  F   -0.507522
     5  F   -0.477276
     6  F   -0.507468
     7  F   -0.547586
     8  C    1.539141
     9  F   -0.443018
    10  F   -0.477233
 Sum of APT charges =   0.00000
 APT charges with hydrogens summed into heavy atoms:
               1
     1  C    0.862858
     2  F   -0.443011
     3  C    1.001114
     4  F   -0.507522
     5  F   -0.477276
     6  F   -0.507468
     7  F   -0.547586
     8  C    1.539141
     9  F   -0.443018
    10  F   -0.477233
 Electronic spatial extent (au):  <R**2>=           1107.9182
 Charge=             -0.0000 electrons
 Dipole moment (field-independent basis, Debye):
    X=              0.4841    Y=             -0.0483    Z=              0.0003  Tot=              0.4865
 Quadrupole moment (field-independent basis, Debye-Ang):
   XX=            -51.8659   YY=            -52.8610   ZZ=            -53.4937
   XY=              0.7462   XZ=             -0.0008   YZ=             -0.0013
 Traceless Quadrupole moment (field-independent basis, Debye-Ang):
   XX=              0.8743   YY=             -0.1208   ZZ=             -0.7535
   XY=              0.7462   XZ=             -0.0008   YZ=             -0.0013
 Octapole moment (field-independent basis, Debye-Ang**2):
  XXX=             -1.4369  YYY=             -4.7355  ZZZ=              0.0004  XYY=             -0.8997
  XXY=              0.0946  XXZ=              0.0010  XZZ=             -2.1858  YZZ=             -1.1454
  YYZ=             -0.0003  XYZ=              0.0009
 Hexadecapole moment (field-independent basis, Debye-Ang**3):
 XXXX=           -551.4359 YYYY=           -275.5886 ZZZZ=           -242.6559 XXXY=             -0.9709
 XXXZ=             -0.0001 YYYX=             -6.0390 YYYZ=             -0.0040 ZZZX=             -0.0028
 ZZZY=             -0.0036 XXYY=           -136.5112 XXZZ=           -135.2358 YYZZ=            -88.2437
 XXYZ=             -0.0012 YYXZ=             -0.0015 ZZXY=             -2.2683
 N-N= 6.527444320482D+02 E-N=-3.238183238543D+03  KE= 8.111550586845D+02
  Exact polarizability:  43.140  -1.749  38.836  -0.000   0.000  41.855
 Approx polarizability:  42.045  -2.750  41.631  -0.001   0.000  48.519
                          Isotropic Fermi Contact Couplings
        Atom                 a.u.       MegaHertz       Gauss      10(-4) cm-1
     1  C(13)              0.33615     377.89909     134.84379     126.05357
     2  F(19)              0.05114     215.17939      76.78136      71.77612
     3  C(13)             -0.00468      -5.26619      -1.87911      -1.75661
     4  F(19)             -0.00006      -0.23943      -0.08543      -0.07986
     5  F(19)              0.00679      28.55795      10.19019       9.52591
     6  F(19)             -0.00006      -0.23771      -0.08482      -0.07929
     7  F(19)              0.00978      41.14795      14.68261      13.72548
     8  C(13)              0.03590      40.35467      14.39955      13.46087
     9  F(19)              0.05115     215.19602      76.78729      71.78167
    10  F(19)              0.00678      28.51616      10.17527       9.51197
 --------------------------------------------------------
       Center         ----  Spin Dipole Couplings  ----
                      3XX-RR        3YY-RR        3ZZ-RR
 --------------------------------------------------------
     1   Atom        0.096077      0.440801     -0.536879
     2   Atom        0.071331      0.359138     -0.430470
     3   Atom        0.056633     -0.013537     -0.043096
     4   Atom        0.000313      0.004975     -0.005287
     5   Atom       -0.014524     -0.015025      0.029549
     6   Atom        0.000309      0.004974     -0.005283
     7   Atom        0.072670     -0.031030     -0.041639
     8   Atom        0.008197      0.017182     -0.025380
     9   Atom        0.071258      0.359151     -0.430409
    10   Atom       -0.014539     -0.015012      0.029551
 --------------------------------------------------------
                        XY            XZ            YZ
 --------------------------------------------------------
     1   Atom        0.781305      0.000172      0.000212
     2   Atom        0.608805     -0.092836     -0.071122
     3   Atom       -0.066585     -0.000011      0.000007
     4   Atom        0.003988      0.000708     -0.004485
     5   Atom        0.001364     -0.008622      0.002311
     6   Atom        0.003997     -0.000704      0.004489
     7   Atom        0.038567      0.000004      0.000001
     8   Atom        0.035094      0.000003      0.000003
     9   Atom        0.608788      0.093106      0.071471
    10   Atom        0.001369      0.008590     -0.002296
 --------------------------------------------------------


 ---------------------------------------------------------------------------------
              Anisotropic Spin Dipole Couplings in Principal Axis System
 ---------------------------------------------------------------------------------

       Atom             a.u.   MegaHertz   Gauss  10(-4) cm-1        Axes

              Baa    -0.5369   -72.044   -25.707   -24.031 -0.0003  0.0000  1.0000
     1 C(13)  Bbb    -0.5317   -71.343   -25.457   -23.797  0.7796 -0.6263  0.0003
              Bcc     1.0685   143.387    51.164    47.829  0.6263  0.7796  0.0002
 
              Baa    -0.4577  -229.881   -82.027   -76.680  0.4512 -0.2620  0.8531
     2 F(19)  Bbb    -0.3931  -197.440   -70.451   -65.859  0.6423 -0.5684 -0.5142
              Bcc     0.8509   427.321   152.479   142.539  0.6196  0.7799 -0.0882
 
              Baa    -0.0537    -7.208    -2.572    -2.404  0.5166  0.8562  0.0000
     3 C(13)  Bbb    -0.0431    -5.783    -2.064    -1.929  0.0001 -0.0001  1.0000
              Bcc     0.0968    12.991     4.636     4.333  0.8562 -0.5166 -0.0001
 
              Baa    -0.0076    -3.805    -1.358    -1.269 -0.2808  0.4008  0.8720
     4 F(19)  Bbb    -0.0007    -0.336    -0.120    -0.112  0.8660 -0.2859  0.4103
              Bcc     0.0082     4.141     1.478     1.381  0.4138  0.8704 -0.2668
 
              Baa    -0.0175    -8.776    -3.131    -2.927  0.7820 -0.5988  0.1728
     5 F(19)  Bbb    -0.0138    -6.926    -2.471    -2.310  0.5956  0.7997  0.0758
              Bcc     0.0313    15.702     5.603     5.238 -0.1836  0.0436  0.9820
 
              Baa    -0.0076    -3.805    -1.358    -1.269  0.2813 -0.4014  0.8717
     6 F(19)  Bbb    -0.0007    -0.340    -0.121    -0.113  0.8657 -0.2858 -0.4109
              Bcc     0.0083     4.146     1.479     1.383  0.4141  0.8702  0.2671
 
              Baa    -0.0438   -21.998    -7.849    -7.338 -0.3143  0.9493  0.0000
     7 F(19)  Bbb    -0.0416   -20.912    -7.462    -6.976 -0.0000 -0.0001  1.0000
              Bcc     0.0854    42.910    15.311    14.313  0.9493  0.3143  0.0000
 
              Baa    -0.0254    -3.406    -1.215    -1.136 -0.0000 -0.0000  1.0000
     8 C(13)  Bbb    -0.0227    -3.045    -1.086    -1.016  0.7507 -0.6607  0.0000
              Bcc     0.0481     6.451     2.302     2.152  0.6607  0.7507  0.0001
 
              Baa    -0.4577  -229.890   -82.030   -76.683 -0.4514  0.2617  0.8531
     9 F(19)  Bbb    -0.3932  -197.451   -70.455   -65.863  0.6422 -0.5685  0.5142
              Bcc     0.8509   427.341   152.486   142.546  0.6196  0.7799  0.0885
 
              Baa    -0.0175    -8.774    -3.131    -2.927  0.7836 -0.5970 -0.1723
    10 F(19)  Bbb    -0.0138    -6.922    -2.470    -2.309  0.5938  0.8011 -0.0753
              Bcc     0.0313    15.696     5.601     5.236  0.1830 -0.0433  0.9822
 

 ---------------------------------------------------------------------------------

 Calling FoFJK, ICntrl=    100127 FMM=F ISym2X=0 I1Cent= 0 IOpClX= 1 NMat=1 NMatS=1 NMatT=0.
 Full mass-weighted force constant matrix:
 Low frequencies ---  -10.0041   -1.7554   -0.0010    0.0009    0.0010    5.1089
 Low frequencies ---   35.7266   80.3575  135.3969
 Diagonal vibrational polarizability:
       10.2294521       9.2866306      13.9045823
 Harmonic frequencies (cm**-1), IR intensities (KM/Mole), Raman scattering
 activities (A**4/AMU), depolarization ratios for plane and unpolarized
 incident light, reduced masses (AMU), force constants (mDyne/A),
 and normal coordinates:
                      1                      2                      3
                      A                      A                      A
 Frequencies --     35.7147                80.3491               135.3961
 Red. masses --     18.9394                18.7731                18.3859
 Frc consts  --      0.0142                 0.0714                 0.1986
 IR Inten    --      0.0007                 0.0177                 0.6138
  Atom  AN      X      Y      Z        X      Y      Z        X      Y      Z
     1   6     0.00  -0.00  -0.02     0.00   0.00  -0.15     0.11   0.05   0.00
     2   9    -0.11  -0.40  -0.22     0.34   0.37  -0.04     0.40   0.23   0.00
     3   6     0.00  -0.00   0.05     0.00  -0.00   0.08     0.01  -0.21  -0.00
     4   9     0.24  -0.28   0.29     0.21  -0.11   0.04    -0.38  -0.08   0.00
     5   9     0.03  -0.02   0.07     0.09  -0.21   0.23    -0.01  -0.23   0.02
     6   9    -0.24   0.28   0.29    -0.21   0.11   0.04    -0.38  -0.08  -0.00
     7   9     0.00   0.00  -0.34     0.00   0.00  -0.37     0.00   0.28   0.00
     8   6     0.00  -0.00   0.08    -0.00  -0.00  -0.06    -0.16  -0.05   0.00
     9   9     0.11   0.40  -0.22    -0.34  -0.37  -0.04     0.40   0.23  -0.00
    10   9    -0.03   0.02   0.07    -0.09   0.21   0.23    -0.01  -0.23  -0.02
                      4                      5                      6
                      A                      A                      A
 Frequencies --    206.4817               227.0398               276.5564
 Red. masses --     18.3753                18.7893                18.1885
 Frc consts  --      0.4616                 0.5706                 0.8196
 IR Inten    --      2.9607                 0.0221                 1.2515
  Atom  AN      X      Y      Z        X      Y      Z        X      Y      Z
     1   6     0.00   0.00  -0.16    -0.00  -0.00   0.12     0.07   0.15   0.00
     2   9    -0.39   0.14   0.05     0.25  -0.09  -0.03    -0.21   0.01   0.02
     3   6    -0.00  -0.00  -0.23    -0.00  -0.00  -0.02     0.07  -0.02  -0.00
     4   9    -0.26  -0.23   0.04    -0.28  -0.22   0.03     0.05  -0.17   0.05
     5   9     0.13  -0.37   0.07    -0.51  -0.14   0.00    -0.25  -0.10   0.01
     6   9     0.26   0.23   0.04     0.28   0.22   0.03     0.05  -0.17  -0.05
     7   9    -0.00   0.00   0.01    -0.00  -0.00   0.00     0.58   0.49   0.00
     8   6    -0.00   0.00  -0.11    -0.00   0.00  -0.12     0.27  -0.10  -0.00
     9   9     0.39  -0.13   0.05    -0.25   0.09  -0.03    -0.21   0.01  -0.02
    10   9    -0.13   0.37   0.07     0.51   0.14   0.00    -0.25  -0.10  -0.01
                      7                      8                      9
                      A                      A                      A
 Frequencies --    343.0760               369.2776               374.6321
 Red. masses --     18.5550                18.5781                18.2566
 Frc consts  --      1.2867                 1.4926                 1.5097
 IR Inten    --      0.0516                 0.0814                 0.3086
  Atom  AN      X      Y      Z        X      Y      Z        X      Y      Z
     1   6    -0.03   0.15  -0.00     0.17  -0.02   0.00     0.00   0.00  -0.27
     2   9    -0.25   0.21   0.09     0.23  -0.23  -0.12    -0.19   0.17  -0.16
     3   6     0.11   0.06  -0.00     0.01   0.15   0.00    -0.00   0.00  -0.10
     4   9    -0.19  -0.35   0.10    -0.13  -0.22   0.08     0.35   0.13   0.11
     5   9     0.40   0.16  -0.03    -0.18   0.44  -0.23    -0.34  -0.16  -0.06
     6   9    -0.19  -0.35  -0.10    -0.13  -0.22  -0.08    -0.35  -0.13   0.11
     7   9     0.03  -0.08   0.00     0.04  -0.00  -0.00    -0.00  -0.00   0.36
     8   6    -0.01  -0.16  -0.00    -0.01  -0.08  -0.00    -0.00   0.00   0.14
     9   9    -0.25   0.21  -0.09     0.23  -0.23   0.12     0.19  -0.17  -0.16
    10   9     0.40   0.16   0.03    -0.18   0.44   0.23     0.34   0.16  -0.06
                     10                     11                     12
                      A                      A                      A
 Frequencies --    507.4420               519.2021               550.5775
 Red. masses --     17.7967                16.0662                16.4247
 Frc consts  --      2.7000                 2.5517                 2.9335
 IR Inten    --      0.8472                10.0810                12.3542
  Atom  AN      X      Y      Z        X      Y      Z        X      Y      Z
     1   6    -0.00  -0.00   0.24    -0.43  -0.33  -0.00     0.22   0.48   0.00
     2   9     0.21  -0.16   0.17     0.10   0.04   0.04    -0.01  -0.12  -0.35
     3   6    -0.00  -0.00  -0.28    -0.24  -0.03   0.00     0.02   0.27  -0.00
     4   9     0.24  -0.19  -0.10     0.25  -0.17   0.32    -0.01  -0.08   0.19
     5   9     0.16  -0.25  -0.20     0.03   0.01   0.03     0.03  -0.08   0.34
     6   9    -0.24   0.19  -0.10     0.25  -0.17  -0.32    -0.01  -0.08  -0.19
     7   9    -0.00   0.00   0.41    -0.21   0.35  -0.00    -0.15   0.01   0.00
     8   6    -0.00   0.00  -0.19    -0.20   0.17   0.00    -0.02   0.11  -0.00
     9   9    -0.21   0.16   0.17     0.10   0.04  -0.04    -0.01  -0.12   0.35
    10   9    -0.16   0.25  -0.20     0.03   0.01  -0.03     0.03  -0.08  -0.34
                     13                     14                     15
                      A                      A                      A
 Frequencies --    606.3980               643.9937               681.4775
 Red. masses --     17.9112                15.5717                16.3943
 Frc consts  --      3.8805                 3.8050                 4.4859
 IR Inten    --      0.2765                26.8698                 1.4181
  Atom  AN      X      Y      Z        X      Y      Z        X      Y      Z
     1   6     0.00   0.00   0.09     0.60  -0.02   0.00     0.31   0.37   0.00
     2   9     0.09  -0.08   0.09    -0.04  -0.03   0.39    -0.11   0.01  -0.17
     3   6     0.00   0.00  -0.25     0.29   0.10   0.00     0.05  -0.33   0.00
     4   9    -0.09   0.37   0.26    -0.02   0.01   0.25     0.13   0.02   0.04
     5   9     0.03  -0.29  -0.23    -0.13  -0.04   0.04     0.05  -0.13  -0.43
     6   9     0.09  -0.37   0.26    -0.02   0.01  -0.25     0.13   0.02  -0.04
     7   9     0.00  -0.00  -0.32    -0.21  -0.05   0.00    -0.27   0.17   0.00
     8   6     0.00  -0.00   0.29     0.03   0.19  -0.00    -0.16  -0.01  -0.00
     9   9    -0.09   0.08   0.09    -0.04  -0.03  -0.39    -0.11   0.01   0.17
    10   9    -0.03   0.29  -0.23    -0.13  -0.04  -0.04     0.05  -0.13   0.43
                     16                     17                     18
                      A                      A                      A
 Frequencies --    776.6819              1025.1782              1169.5179
 Red. masses --     17.3287                13.4410                13.7178
 Frc consts  --      6.1589                 8.3230                11.0548
 IR Inten    --      6.4522               143.1196               226.8665
  Atom  AN      X      Y      Z        X      Y      Z        X      Y      Z
     1   6    -0.26  -0.09  -0.00    -0.15  -0.35  -0.00    -0.20   0.26  -0.00
     2   9    -0.01   0.05  -0.14    -0.04   0.10  -0.16     0.07  -0.10   0.13
     3   6     0.07  -0.08   0.00     0.72   0.22   0.00    -0.28   0.67   0.00
     4   9    -0.15   0.17   0.41    -0.01  -0.11  -0.12    -0.03  -0.09  -0.08
     5   9    -0.01  -0.09  -0.18    -0.08  -0.05  -0.04     0.05  -0.19  -0.19
     6   9    -0.15   0.17  -0.41    -0.01  -0.11   0.12    -0.03  -0.08   0.08
     7   9     0.29  -0.34   0.00    -0.24   0.06  -0.00    -0.05   0.01  -0.00
     8   6     0.28   0.27  -0.00     0.23   0.19   0.00     0.25   0.22   0.00
     9   9    -0.01   0.05   0.14    -0.04   0.10   0.16     0.07  -0.10  -0.13
    10   9    -0.01  -0.09   0.18    -0.08  -0.05   0.04     0.05  -0.19   0.19
                     19                     20                     21
                      A                      A                      A
 Frequencies --   1208.1392              1230.3676              1234.1729
 Red. masses --     12.9791                13.2164                13.0871
 Frc consts  --     11.1616                11.7878                11.7448
 IR Inten    --     82.6672               212.8508               205.6351
  Atom  AN      X      Y      Z        X      Y      Z        X      Y      Z
     1   6     0.00  -0.00   0.00     0.01  -0.00  -0.25     0.15  -0.07   0.01
     2   9    -0.03   0.02  -0.03     0.02  -0.04   0.07    -0.02   0.03  -0.04
     3   6     0.00  -0.00   0.88    -0.00  -0.00   0.23    -0.03  -0.04  -0.01
     4   9    -0.01   0.01   0.05    -0.00  -0.14  -0.23     0.03  -0.13  -0.11
     5   9     0.03  -0.13  -0.22    -0.01  -0.06  -0.08    -0.01  -0.02  -0.01
     6   9     0.01  -0.01   0.05     0.01   0.13  -0.22     0.03  -0.14   0.13
     7   9    -0.00   0.00   0.02     0.01  -0.01  -0.05     0.25  -0.14   0.00
     8   6     0.00  -0.00  -0.28    -0.03   0.04   0.84    -0.52   0.73  -0.04
     9   9     0.03  -0.02  -0.03    -0.02   0.04   0.07    -0.02   0.02   0.03
    10   9    -0.03   0.13  -0.22     0.01   0.06  -0.08    -0.01  -0.02   0.02
                     22                     23                     24
                      A                      A                      A
 Frequencies --   1309.2827              1329.2858              1389.7845
 Red. masses --     13.3288                12.5562                12.7846
 Frc consts  --     13.4619                13.0721                14.5489
 IR Inten    --    411.5426               115.5146                29.3880
  Atom  AN      X      Y      Z        X      Y      Z        X      Y      Z
     1   6     0.00  -0.00   0.86     0.17  -0.07  -0.00    -0.50   0.56   0.00
     2   9    -0.07   0.14  -0.25    -0.02   0.02  -0.03     0.07  -0.14   0.15
     3   6    -0.00  -0.00   0.00    -0.38  -0.41   0.00     0.37  -0.38   0.00
     4   9     0.00  -0.04  -0.06    -0.04  -0.09  -0.08     0.00  -0.03  -0.02
     5   9     0.02  -0.04  -0.03     0.01   0.07   0.06    -0.02   0.06   0.05
     6   9    -0.00   0.04  -0.06    -0.04  -0.09   0.08     0.00  -0.03   0.02
     7   9    -0.00   0.00  -0.02    -0.17   0.03   0.00    -0.03  -0.02   0.00
     8   6     0.00  -0.00   0.26     0.65   0.40  -0.00     0.02   0.20  -0.00
     9   9     0.07  -0.14  -0.25    -0.02   0.02   0.03     0.07  -0.14  -0.15
    10   9    -0.02   0.04  -0.04     0.01   0.07  -0.06    -0.02   0.06  -0.05

 -------------------
 - Thermochemistry -
 -------------------
 Temperature   298.150 Kelvin.  Pressure   1.00000 Atm.
 Atom     1 has atomic number  6 and mass  12.00000
 Atom     2 has atomic number  9 and mass  18.99840
 Atom     3 has atomic number  6 and mass  12.00000
 Atom     4 has atomic number  9 and mass  18.99840
 Atom     5 has atomic number  9 and mass  18.99840
 Atom     6 has atomic number  9 and mass  18.99840
 Atom     7 has atomic number  9 and mass  18.99840
 Atom     8 has atomic number  6 and mass  12.00000
 Atom     9 has atomic number  9 and mass  18.99840
 Atom    10 has atomic number  9 and mass  18.99840
 Molecular mass:   168.98882 amu.
 Principal axes and moments of inertia in atomic units:
                           1         2         3
     Eigenvalues --  1007.521171555.873721598.41601
           X            1.00000   0.00279   0.00000
           Y           -0.00279   1.00000  -0.00000
           Z           -0.00000   0.00000   1.00000
 This molecule is an asymmetric top.
 Rotational symmetry number  1.
 Warning -- assumption of classical behavior for rotation
           may cause significant error
 Rotational temperatures (Kelvin)      0.08597     0.05567     0.05419
 Rotational constants (GHZ):           1.79127     1.15995     1.12908
 Zero-point vibrational energy      97077.1 (Joules/Mol)
                                   23.20199 (Kcal/Mol)
 Warning -- explicit consideration of  13 degrees of freedom as
           vibrations may cause significant error
 Vibrational temperatures:     51.39   115.60   194.80   297.08   326.66
          (Kelvin)            397.90   493.61   531.31   539.01   730.10
                              747.02   792.16   872.47   926.56   980.49
                             1117.47  1475.00  1682.68  1738.24  1770.22
                             1775.70  1883.77  1912.55  1999.59
 
 Zero-point correction=                           0.036975 (Hartree/Particle)
 Thermal correction to Energy=                    0.045924
 Thermal correction to Enthalpy=                  0.046868
 Thermal correction to Gibbs Free Energy=         0.000991
 Sum of electronic and zero-point Energies=           -813.148507
 Sum of electronic and thermal Energies=              -813.139558
 Sum of electronic and thermal Enthalpies=            -813.138614
 Sum of electronic and thermal Free Energies=         -813.184490
 
                     E (Thermal)             CV                S
                      KCal/Mol        Cal/Mol-Kelvin    Cal/Mol-Kelvin
 Total                   28.817             30.446             96.555
 Electronic               0.000              0.000              1.377
 Translational            0.889              2.981             41.282
 Rotational               0.889              2.981             29.306
 Vibrational             27.040             24.484             24.589
 Vibration     1          0.594              1.982              5.484
 Vibration     2          0.600              1.962              3.882
 Vibration     3          0.613              1.918              2.868
 Vibration     4          0.641              1.831              2.075
 Vibration     5          0.651              1.800              1.902
 Vibration     6          0.678              1.717              1.555
 Vibration     7          0.722              1.589              1.198
 Vibration     8          0.742              1.535              1.083
 Vibration     9          0.746              1.524              1.061
 Vibration    10          0.863              1.234              0.640
 Vibration    11          0.874              1.207              0.612
 Vibration    12          0.906              1.138              0.543
 Vibration    13          0.965              1.018              0.439
                       Q            Log10(Q)             Ln(Q)
 Total Bot       0.349900D+00         -0.456056         -1.050108
 Total V=0       0.355728D+17         16.551119         38.110359
 Vib (Bot)       0.357576D-14        -14.446632        -33.264599
 Vib (Bot)    1  0.579505D+01          0.763057          1.757004
 Vib (Bot)    2  0.256297D+01          0.408743          0.941166
 Vib (Bot)    3  0.150362D+01          0.177137          0.407874
 Vib (Bot)    4  0.963252D+00         -0.016260         -0.037440
 Vib (Bot)    5  0.868622D+00         -0.061169         -0.140847
 Vib (Bot)    6  0.696455D+00         -0.157107         -0.361752
 Vib (Bot)    7  0.540180D+00         -0.267462         -0.615853
 Vib (Bot)    8  0.493256D+00         -0.306927         -0.706727
 Vib (Bot)    9  0.484424D+00         -0.314774         -0.724794
 Vib (Bot)   10  0.321740D+00         -0.492496         -1.134013
 Vib (Bot)   11  0.311115D+00         -0.507079         -1.167592
 Vib (Bot)   12  0.284874D+00         -0.545347         -1.255708
 Vib (Bot)   13  0.244618D+00         -0.611511         -1.408056
 Vib (V=0)       0.363532D+03          2.560543          5.895868
 Vib (V=0)    1  0.631658D+01          0.800482          1.843177
 Vib (V=0)    2  0.311128D+01          0.492940          1.135036
 Vib (V=0)    3  0.208457D+01          0.319017          0.734563
 Vib (V=0)    4  0.158529D+01          0.200109          0.460768
 Vib (V=0)    5  0.150225D+01          0.176742          0.406964
 Vib (V=0)    6  0.135735D+01          0.132692          0.305534
 Vib (V=0)    7  0.123607D+01          0.092042          0.211934
 Vib (V=0)    8  0.120235D+01          0.080032          0.184282
 Vib (V=0)    9  0.119618D+01          0.077797          0.179133
 Vib (V=0)   10  0.109457D+01          0.039244          0.090364
 Vib (V=0)   11  0.108889D+01          0.036984          0.085160
 Vib (V=0)   12  0.107546D+01          0.031594          0.072748
 Vib (V=0)   13  0.105663D+01          0.023923          0.055086
 Electronic      0.200000D+01          0.301030          0.693147
 Translational   0.863457D+08          7.936241         18.273870
 Rotational      0.566637D+06          5.753305         13.247474
 ***** Axes restored to original set *****
 -------------------------------------------------------------------
 Center     Atomic                   Forces (Hartrees/Bohr)
 Number     Number              X              Y              Z
 -------------------------------------------------------------------
      1        6           0.000000685    0.000010760    0.000000568
      2        9          -0.000003133   -0.000007992   -0.000002406
      3        6          -0.000034509   -0.000014329    0.000042770
      4        9          -0.000020740   -0.000019748    0.000041369
      5        9           0.000023794    0.000022386   -0.000019152
      6        9          -0.000008308    0.000027744    0.000035784
      7        9           0.000012109   -0.000007199    0.000001541
      8        6           0.000020535   -0.000008248   -0.000084407
      9        9           0.000000682   -0.000007125   -0.000004686
     10        9           0.000008885    0.000003752   -0.000011380
 -------------------------------------------------------------------
 Cartesian Forces:  Max     0.000084407 RMS     0.000024233
 FormGI is forming the generalized inverse of G from B-inverse, IUseBI=4.

 GradGradGradGradGradGradGradGradGradGradGradGradGradGradGradGradGradGrad
 Berny optimization.
 Internal  Forces:  Max     0.000048667 RMS     0.000014058
 Search for a local minimum.
 Step number   1 out of a maximum of    2
 All quantities printed in internal units (Hartrees-Bohrs-Radians)
 Second derivative matrix not updated -- analytic derivatives used.
 ITU=  0
     Eigenvalues ---    0.00157   0.00445   0.05517   0.05667   0.09516
     Eigenvalues ---    0.10138   0.10518   0.15433   0.15618   0.19467
     Eigenvalues ---    0.19882   0.22431   0.23298   0.23912   0.25702
     Eigenvalues ---    0.30732   0.36634   0.37936   0.38470   0.38650
     Eigenvalues ---    0.40805   0.48006   0.52420   0.55709
 Angle between quadratic step and forces=  52.19 degrees.
 Linear search not attempted -- first point.
 Iteration  1 RMS(Cart)=  0.00010350 RMS(Int)=  0.00000001
 Iteration  2 RMS(Cart)=  0.00000001 RMS(Int)=  0.00000000
 Variable       Old X    -DE/DX   Delta X   Delta X   Delta X     New X
                                 (Linear)    (Quad)   (Total)
    R1        2.48145  -0.00000   0.00000  -0.00002  -0.00002   2.48143
    R2        2.86640  -0.00000   0.00000  -0.00001  -0.00001   2.86639
    R3        2.48144   0.00000   0.00000  -0.00000  -0.00000   2.48144
    R4        2.53568  -0.00003   0.00000  -0.00012  -0.00012   2.53556
    R5        2.93750  -0.00000   0.00000   0.00001   0.00001   2.93751
    R6        2.53550   0.00001   0.00000   0.00006   0.00006   2.53556
    R7        2.51074  -0.00005   0.00000  -0.00015  -0.00015   2.51059
    R8        2.51043   0.00004   0.00000   0.00016   0.00016   2.51059
    R9        2.50491   0.00001   0.00000   0.00001   0.00001   2.50492
    A1        2.01531   0.00000   0.00000   0.00004   0.00004   2.01535
    A2        1.95715   0.00001   0.00000   0.00004   0.00004   1.95719
    A3        2.01539  -0.00001   0.00000  -0.00005  -0.00005   2.01535
    A4        1.88914   0.00001   0.00000   0.00012   0.00012   1.88926
    A5        2.01843   0.00000   0.00000  -0.00002  -0.00002   2.01841
    A6        1.88931  -0.00000   0.00000  -0.00005  -0.00005   1.88926
    A7        1.87661  -0.00002   0.00000  -0.00004  -0.00004   1.87657
    A8        1.91226   0.00001   0.00000   0.00006   0.00006   1.91232
    A9        1.87663  -0.00001   0.00000  -0.00007  -0.00007   1.87657
   A10        1.92008  -0.00001   0.00000   0.00004   0.00004   1.92011
   A11        1.92027  -0.00002   0.00000  -0.00016  -0.00016   1.92011
   A12        1.92192   0.00001   0.00000   0.00008   0.00008   1.92201
   A13        1.89926   0.00000   0.00000  -0.00004  -0.00004   1.89922
   A14        1.90094   0.00001   0.00000   0.00007   0.00007   1.90101
   A15        1.90101   0.00001   0.00000   0.00000   0.00000   1.90101
    D1        0.94039  -0.00001   0.00000  -0.00018  -0.00018   0.94020
    D2       -1.16544  -0.00000   0.00000  -0.00021  -0.00021  -1.16565
    D3        3.01175   0.00001   0.00000  -0.00007  -0.00007   3.01168
    D4       -3.01156  -0.00001   0.00000  -0.00013  -0.00013  -3.01169
    D5        1.16580   0.00000   0.00000  -0.00016  -0.00016   1.16564
    D6       -0.94020   0.00001   0.00000  -0.00002  -0.00002  -0.94022
    D7       -1.04632   0.00001   0.00000   0.00026   0.00026  -1.04606
    D8        1.04593  -0.00000   0.00000   0.00014   0.00014   1.04606
    D9        3.14150   0.00000   0.00000   0.00009   0.00009  -3.14159
   D10        3.12427   0.00001   0.00000   0.00015   0.00015   3.12441
   D11       -1.06667  -0.00001   0.00000   0.00002   0.00002  -1.06665
   D12        1.02890  -0.00000   0.00000  -0.00002  -0.00002   1.02888
   D13        1.06652   0.00001   0.00000   0.00013   0.00013   1.06665
   D14       -3.12442  -0.00001   0.00000   0.00001   0.00001  -3.12441
   D15       -1.02884  -0.00000   0.00000  -0.00004  -0.00004  -1.02888
         Item               Value     Threshold  Converged?
 Maximum Force            0.000049     0.000450     YES
 RMS     Force            0.000014     0.000300     YES
 Maximum Displacement     0.000331     0.001800     YES
 RMS     Displacement     0.000103     0.001200     YES
 Predicted change in Energy=-1.704589D-08
 Optimization completed.
    -- Stationary point found.
                           ----------------------------
                           !   Optimized Parameters   !
                           ! (Angstroms and Degrees)  !
 --------------------------                            --------------------------
 ! Name  Definition              Value          Derivative Info.                !
 --------------------------------------------------------------------------------
 ! R1    R(1,2)                  1.3131         -DE/DX =    0.0                 !
 ! R2    R(1,3)                  1.5168         -DE/DX =    0.0                 !
 ! R3    R(1,9)                  1.3131         -DE/DX =    0.0                 !
 ! R4    R(3,5)                  1.3418         -DE/DX =    0.0                 !
 ! R5    R(3,8)                  1.5545         -DE/DX =    0.0                 !
 ! R6    R(3,10)                 1.3417         -DE/DX =    0.0                 !
 ! R7    R(4,8)                  1.3286         -DE/DX =    0.0                 !
 ! R8    R(6,8)                  1.3285         -DE/DX =    0.0                 !
 ! R9    R(7,8)                  1.3255         -DE/DX =    0.0                 !
 ! A1    A(2,1,3)              115.4688         -DE/DX =    0.0                 !
 ! A2    A(2,1,9)              112.1365         -DE/DX =    0.0                 !
 ! A3    A(3,1,9)              115.4736         -DE/DX =    0.0                 !
 ! A4    A(1,3,5)              108.2397         -DE/DX =    0.0                 !
 ! A5    A(1,3,8)              115.6474         -DE/DX =    0.0                 !
 ! A6    A(1,3,10)             108.2496         -DE/DX =    0.0                 !
 ! A7    A(5,3,8)              107.5216         -DE/DX =    0.0                 !
 ! A8    A(5,3,10)             109.5646         -DE/DX =    0.0                 !
 ! A9    A(8,3,10)             107.5232         -DE/DX =    0.0                 !
 ! A10   A(3,8,4)              110.0123         -DE/DX =    0.0                 !
 ! A11   A(3,8,6)              110.0233         -DE/DX =    0.0                 !
 ! A12   A(3,8,7)              110.1181         -DE/DX =    0.0                 !
 ! A13   A(4,8,6)              108.8197         -DE/DX =    0.0                 !
 ! A14   A(4,8,7)              108.9156         -DE/DX =    0.0                 !
 ! A15   A(6,8,7)              108.9197         -DE/DX =    0.0                 !
 ! D1    D(2,1,3,5)             53.8803         -DE/DX =    0.0                 !
 ! D2    D(2,1,3,8)            -66.7746         -DE/DX =    0.0                 !
 ! D3    D(2,1,3,10)           172.5608         -DE/DX =    0.0                 !
 ! D4    D(9,1,3,5)           -172.5498         -DE/DX =    0.0                 !
 ! D5    D(9,1,3,8)             66.7953         -DE/DX =    0.0                 !
 ! D6    D(9,1,3,10)           -53.8693         -DE/DX =    0.0                 !
 ! D7    D(1,3,8,4)            -59.9498         -DE/DX =    0.0                 !
 ! D8    D(1,3,8,6)             59.9271         -DE/DX =    0.0                 !
 ! D9    D(1,3,8,7)           -180.0053         -DE/DX =    0.0                 !
 ! D10   D(5,3,8,4)            179.0074         -DE/DX =    0.0                 !
 ! D11   D(5,3,8,6)            -61.1157         -DE/DX =    0.0                 !
 ! D12   D(5,3,8,7)             58.9519         -DE/DX =    0.0                 !
 ! D13   D(10,3,8,4)            61.1071         -DE/DX =    0.0                 !
 ! D14   D(10,3,8,6)          -179.016          -DE/DX =    0.0                 !
 ! D15   D(10,3,8,7)           -58.9484         -DE/DX =    0.0                 !
 --------------------------------------------------------------------------------
 GradGradGradGradGradGradGradGradGradGradGradGradGradGradGradGradGradGrad


 ----------------------------------------------------------------------

 Electric dipole moment (input orientation):
 (Debye = 10**-18 statcoulomb cm , SI units = C m)
                  (au)            (Debye)         (10**-30 SI)
   Tot        0.191395D+00      0.486477D+00      0.162271D+01
   x         -0.165626D+00     -0.420979D+00     -0.140424D+01
   y          0.958623D-01      0.243658D+00      0.812755D+00
   z          0.321061D-02      0.816056D-02      0.272207D-01

 Dipole polarizability, Alpha (input orientation).
 (esu units = cm**3 , SI units = C**2 m**2 J**-1)
 Alpha(0;0):
               (au)            (10**-24 esu)      (10**-40 SI)
   iso        0.412772D+02      0.611665D+01      0.680569D+01
   aniso      0.488022D+01      0.723173D+00      0.804639D+00
   xx         0.411064D+02      0.609134D+01      0.677753D+01
   yx        -0.274228D+01     -0.406364D+00     -0.452141D+00
   yy         0.409196D+02      0.606366D+01      0.674673D+01
   zx        -0.369066D+00     -0.546900D-01     -0.608508D-01
   zy        -0.253813D+00     -0.376112D-01     -0.418481D-01
   zz         0.418055D+02      0.619494D+01      0.689280D+01

 ----------------------------------------------------------------------

 Dipole orientation:
     6         -0.05938803          0.04597756          2.30068698
     9          2.26920698         -0.29966674          3.08540932
     6         -0.53691146         -0.57951377         -0.45557144
     9          0.04821089          3.53841343         -2.09293764
     9          0.25648423         -2.95010190         -0.88042017
     9          3.28908729          1.05459792         -2.09036968
     9          0.24443555          0.43521709         -4.73635447
     6          0.80086141          1.16358035         -2.40515916
     9         -0.99909493          2.20510151          3.08341140
     9         -3.03161098         -0.42963324         -0.88311727

 Electric dipole moment (dipole orientation):
 (Debye = 10**-18 statcoulomb cm , SI units = C m)
                  (au)            (Debye)         (10**-30 SI)
   Tot        0.191395D+00      0.486477D+00      0.162271D+01
   x          0.000000D+00      0.000000D+00      0.000000D+00
   y          0.000000D+00      0.000000D+00      0.000000D+00
   z          0.191395D+00      0.486477D+00      0.162271D+01

 Dipole polarizability, Alpha (dipole orientation).
 (esu units = cm**3 , SI units = C**2 m**2 J**-1)
 Alpha(0;0):
               (au)            (10**-24 esu)      (10**-40 SI)
   iso        0.412772D+02      0.611665D+01      0.680569D+01
   aniso      0.488022D+01      0.723173D+00      0.804639D+00
   xx         0.406244D+02      0.601991D+01      0.669805D+01
   yx        -0.160431D+01     -0.237735D+00     -0.264516D+00
   yy         0.397638D+02      0.589238D+01      0.655616D+01
   zx         0.782848D+00      0.116006D+00      0.129074D+00
   zy         0.102358D+01      0.151679D+00      0.168765D+00
   zz         0.434434D+02      0.643764D+01      0.716284D+01

 ----------------------------------------------------------------------
 1\1\GINC-CCLEARCO\Freq\UwB97XD\6-311+G(2d,2p)\C3F7(2)\RAPPE\12-Feb-202
 3\0\\#N Geom=AllCheck Guess=TCheck SCRF=Check GenChk UwB97XD/6-311+G(2
 d,2p) Freq\\Title Card Required\\0,2\C,-1.051465636,0.6147162868,-0.01
 89588829\F,-1.1640895985,1.2101996711,1.1459543655\C,0.0030299615,-0.4
 728651269,-0.0963153206\F,1.7633263894,0.8666220924,-0.9343399765\F,-0
 .2265381117,-1.3514528848,0.8915462987\F,1.6537606636,0.6082786625,1.2
 081036727\F,2.3011823511,-1.0267232011,-0.0454613695\C,1.4755438369,0.
 007002348,0.0369880407\F,-1.053882615,1.4708597451,-1.0145966347\F,-0.
 1152292415,-1.089184593,-1.2822361934\\Version=EM64M-G16RevA.03\State=
 2-A\HF=-813.1854814\S2=0.752782\S2-1=0.\S2A=0.750005\RMSD=1.840e-09\RM
 SF=2.423e-05\ZeroPoint=0.0369747\Thermal=0.0459235\Dipole=-0.1656261,0
 .0958623,0.0032106\DipoleDeriv=0.1732784,-0.0887713,-0.0771954,-0.3642
 473,0.9525569,-0.0818614,-0.1103965,-0.0677853,1.4627398,-0.1150508,0.
 0487172,0.0327849,0.2021704,-0.4226717,-0.371288,0.1867793,-0.2488506,
 -0.7913107,0.6545326,0.1626725,-0.0123119,-0.0443405,1.0748033,-0.0267
 136,-0.0372892,-0.0161474,1.274005,-0.3948405,-0.138615,0.1543698,-0.1
 12443,-0.5338226,0.3118164,0.0860437,0.2788467,-0.593902,-0.3037129,-0
 .0849729,0.0903809,-0.081629,-0.5515665,0.3544678,0.0520119,0.2705759,
 -0.5765487,-0.3704368,-0.074438,-0.1500529,-0.0620354,-0.3988337,-0.27
 01861,-0.0770717,-0.2391607,-0.7531329,-0.7189247,0.4139878,0.0263479,
 0.2968509,-0.6628888,-0.0335923,0.0122321,-0.0276242,-0.2609437,1.4683
 433,-0.2185126,-0.0336742,0.010619,1.5395945,-0.0081957,-0.0060489,-0.
 0199093,1.6094858,-0.102239,0.0189664,0.0377744,0.1915058,-0.5898622,0
 .44305,-0.0769098,0.3039529,-0.6369514,-0.2909495,-0.039034,-0.0684234
 ,-0.036451,-0.4073091,-0.317497,-0.029351,-0.2338982,-0.7334411\Polar=
 41.1064204,-2.7422834,40.9195763,-0.3690664,-0.2538128,41.8055128\Quad
 rupole=0.9367536,-0.3842938,-0.5524598,0.0805636,0.0872629,0.0260059\P
 G=C01 [X(C3F7)]\NImag=0\\0.22640176,-0.11788558,0.56187643,-0.03179819
 ,-0.00715236,0.56865518,-0.03722455,0.01463636,0.00986729,0.03062675,0
 .03437615,-0.16443206,-0.13454477,-0.03530709,0.13952926,0.02995575,-0
 .15289568,-0.28091785,-0.03919169,0.14841919,0.37391809,-0.14129565,0.
 07923206,0.00438252,0.00485730,-0.00603572,0.00116097,0.48392065,0.041
 39641,-0.13891295,-0.00980792,0.01643352,0.00324782,0.00361485,-0.0082
 6938,0.56256691,-0.00017647,-0.00788179,-0.04105262,0.02435422,-0.0275
 4656,-0.02025151,-0.00313714,0.00409273,0.52645698,0.00185431,-0.00204
 043,-0.00111424,-0.00013177,0.00101818,0.00085614,0.00224385,-0.021038
 79,0.02823762,0.08907956,-0.00202306,-0.00603235,0.00264446,0.00018201
 ,0.00124856,0.00008101,-0.00376541,-0.01134049,0.02363328,0.04499595,0
 .22011256,0.00031764,0.00338149,-0.00495059,0.00034348,-0.00000150,0.0
 0152976,0.00003158,0.01115951,-0.01489200,-0.05585929,-0.16019749,0.26
 187476,0.00866345,0.01469017,-0.01419263,-0.00039944,0.00011726,-0.000
 78875,-0.08287666,-0.02789405,0.02538577,-0.00965980,-0.00658485,0.003
 98352,0.07681883,-0.00554240,-0.02454916,0.03649042,0.00015384,-0.0013
 5222,-0.00272369,-0.03303853,-0.19039350,0.09838287,-0.00759809,-0.003
 16352,0.00147727,0.03839914,0.21806801,-0.00325877,0.01466345,-0.01746
 972,-0.00000270,0.00225699,0.00721825,0.03289959,0.11047484,-0.1600616
 0,0.00377033,0.00188408,0.00067234,-0.04191917,-0.16381208,0.25029674,
 0.00174611,-0.00198243,0.00139053,-0.00290690,0.00123937,-0.00001770,0
 .00516170,-0.01289998,-0.02985869,0.01564609,0.00399969,0.01005869,-0.
 00065498,-0.00120019,0.00126845,0.07896380,-0.00170148,-0.00453292,-0.
 00274843,0.00110170,0.00272583,0.00316260,-0.00163731,-0.00331111,-0.0
 2073514,0.00437592,0.02049256,0.01965189,0.00029215,0.00092367,0.00016
 595,0.01779221,0.14799715,-0.00000660,-0.00349972,-0.00634431,0.000751
 80,0.00297653,0.00494469,0.00179394,-0.00971892,-0.02582057,0.00117197
 ,0.00604363,-0.08245449,-0.00141974,-0.00218314,0.00666607,0.04087756,
 0.13441223,0.34446016,-0.00906128,-0.01129663,-0.00173461,0.00141823,0
 .00289326,0.00371282,-0.03421166,0.04757087,0.00387656,0.01496422,0.01
 464074,-0.01131069,0.00213032,-0.00319796,0.00063218,0.01116178,0.0158
 0855,0.01706268,0.20256519,0.00093849,0.00091559,0.00037485,-0.0000445
 3,0.00012588,-0.00021341,0.00759225,-0.01338933,-0.00148782,0.02732677
 ,-0.06188673,0.03156983,-0.00106671,0.00539074,-0.00196418,0.02542628,
 -0.04250010,-0.03971551,-0.16817157,0.28698381,-0.00025850,-0.00025077
 ,-0.00184039,0.00030371,0.00052607,0.00097903,-0.00094615,0.00055714,0
 .00218961,-0.01920444,0.03923023,0.00020281,-0.00038345,-0.00259406,0.
 00247457,0.02764780,-0.04852255,-0.01539229,-0.01404068,0.01629569,0.0
 8184252,-0.02160077,0.01507149,-0.00029955,0.00095791,-0.00474513,-0.0
 0407225,-0.16749548,-0.04570296,-0.01235276,-0.11062277,-0.05322939,0.
 05285904,-0.00188676,0.00246418,0.00147268,-0.10049498,-0.03123830,-0.
 05349345,-0.19296177,0.10932922,0.00709546,0.59261417,0.02995259,0.025
 98217,0.00228173,-0.00368061,-0.00711657,-0.00715965,-0.00974246,-0.06
 465287,-0.00421792,-0.04771626,-0.16445574,0.09531214,-0.02766837,-0.0
 2067608,0.01445903,-0.02743308,-0.12103021,-0.08564419,0.10124309,-0.1
 8006623,-0.00761169,0.00892147,0.55229943,0.00149602,0.00151788,0.0200
 5967,-0.00277634,-0.00365236,-0.00809874,-0.00801377,-0.00605613,-0.03
 501687,0.04477765,0.09143761,-0.17202607,0.02847473,0.02720013,-0.0184
 8235,-0.04428640,-0.08224079,-0.22593954,0.00612211,-0.00720398,-0.074
 55166,0.00331404,0.00089475,0.55056815,-0.03596187,-0.00236946,0.01299
 992,0.00589953,0.00009209,0.00499889,0.00705357,0.02147790,-0.01731153
 ,-0.00279074,0.00166129,-0.00113152,-0.00262689,0.00619228,-0.00127704
 ,-0.00000939,0.00028729,-0.00044289,0.00177918,0.00000672,-0.00022084,
 0.00029573,-0.00501276,0.00245322,0.02676513,0.02330927,-0.23790474,0.
 14837623,0.00053502,0.03343648,0.01073470,-0.00886027,-0.00377855,0.03
 111850,0.00159479,0.00423340,-0.00299120,0.00654072,-0.00909770,0.0039
 0494,0.00120864,0.00126505,0.00006700,0.00372924,0.00020067,-0.0003278
 9,-0.00600137,-0.00954263,0.00265711,-0.02240284,0.22216437,-0.0016077
 6,0.16440911,-0.20873020,0.00394676,0.01692162,-0.07914971,-0.00048877
 ,0.00265176,-0.01541560,-0.00035469,-0.00317971,0.00331763,-0.00217314
 ,0.00153006,0.00104269,-0.00074392,-0.00010566,0.00139083,-0.00282727,
 0.00007126,0.00054151,0.00350347,0.00626885,-0.00500940,0.00067510,-0.
 18929291,0.29516314,0.00647848,0.01194445,0.02049896,-0.00309706,0.006
 35162,0.00338582,-0.07735761,-0.01107354,-0.01901758,-0.00058295,0.000
 12303,0.00070753,0.01049192,0.00336773,0.00641445,-0.00861324,-0.00508
 073,-0.00629525,0.00221579,-0.00133692,0.00000708,0.00119471,-0.018863
 62,-0.03156126,-0.00040427,0.00034681,0.00007022,0.06967423,-0.0028203
 8,-0.01241002,-0.03591419,0.00598977,-0.00741298,-0.00301994,-0.015475
 24,-0.14003592,-0.09535814,-0.00091802,0.00079175,0.00063806,0.0031745
 4,0.02484976,0.01796699,-0.00615053,-0.00202992,-0.00273792,-0.0032196
 0,0.00422571,0.00269783,0.00513080,-0.01074127,-0.02455421,0.00006748,
 -0.00097635,0.00072561,0.01422118,0.14373925,0.00533689,-0.01229161,-0
 .02740917,0.00240347,-0.00535522,-0.00017200,-0.02768278,-0.10696785,-
 0.21613581,-0.00228105,-0.00157710,0.00672585,0.00303285,0.00623221,-0
 .07235698,-0.00633632,-0.00304009,-0.00151054,-0.00149309,0.00227327,0
 .00355429,0.00197332,-0.01458304,-0.03150318,-0.00074332,-0.00424648,0
 .00684911,0.02579003,0.13955591,0.33195843\\-0.00000068,-0.00001076,-0
 .00000057,0.00000313,0.00000799,0.00000241,0.00003451,0.00001433,-0.00
 004277,0.00002074,0.00001975,-0.00004137,-0.00002379,-0.00002239,0.000
 01915,0.00000831,-0.00002774,-0.00003578,-0.00001211,0.00000720,-0.000
 00154,-0.00002054,0.00000825,0.00008441,-0.00000068,0.00000713,0.00000
 469,-0.00000888,-0.00000375,0.00001138\\\@


 IF YOU BELIEVE CERTAIN WORDS, YOU BELIEVE THEIR HIDDEN ARGUMENTS.
 WHEN YOU BELIEVE SOMETHING IS RIGHT OR WRONG, TRUE OR FALSE, 
 YOU BELIEVE THE ASSUMPTIONS IN THE WORDS WHICH EXPRESS THE ARGUMENTS.
 SUCH ASSUMPTIONS ARE OFTEN FULL OF HOLES, BUT REMAIN MOST PRECIOUS 
 TO THE CONVINCED.

                 -- THE OPEN-ENDED PROOF FROM THE PANOPLIA PROPHETICA
                    CHILDREN OF DUNE BY FRANK HERBERT
 Job cpu time:       0 days  2 hours 31 minutes 20.9 seconds.
 Elapsed time:       0 days  0 hours  6 minutes 30.6 seconds.
 File lengths (MBytes):  RWF=    158 Int=      0 D2E=      0 Chk=      9 Scr=      1
 Normal termination of Gaussian 16 at Sun Feb 12 12:10:47 2023.
