 Entering Gaussian System, Link 0=/applications/g16/g16/g16
 Initial command:
 /applications/g16/g16/l1.exe "/scratch/g98/Gau-39261.inp" -scrdir="/scratch/g98/"
 Entering Link 1 = /applications/g16/g16/l1.exe PID=     39262.
  
 Copyright (c) 1988,1990,1992,1993,1995,1998,2003,2009,2016,
            Gaussian, Inc.  All Rights Reserved.
  
 This is part of the Gaussian(R) 16 program.  It is based on
 the Gaussian(R) 09 system (copyright 2009, Gaussian, Inc.),
 the Gaussian(R) 03 system (copyright 2003, Gaussian, Inc.),
 the Gaussian(R) 98 system (copyright 1998, Gaussian, Inc.),
 the Gaussian(R) 94 system (copyright 1995, Gaussian, Inc.),
 the Gaussian 92(TM) system (copyright 1992, Gaussian, Inc.),
 the Gaussian 90(TM) system (copyright 1990, Gaussian, Inc.),
 the Gaussian 88(TM) system (copyright 1988, Gaussian, Inc.),
 the Gaussian 86(TM) system (copyright 1986, Carnegie Mellon
 University), and the Gaussian 82(TM) system (copyright 1983,
 Carnegie Mellon University). Gaussian is a federally registered
 trademark of Gaussian, Inc.
  
 This software contains proprietary and confidential information,
 including trade secrets, belonging to Gaussian, Inc.
  
 This software is provided under written license and may be
 used, copied, transmitted, or stored only in accord with that
 written license.
  
 The following legend is applicable only to US Government
 contracts under FAR:
  
                    RESTRICTED RIGHTS LEGEND
  
 Use, reproduction and disclosure by the US Government is
 subject to restrictions as set forth in subparagraphs (a)
 and (c) of the Commercial Computer Software - Restricted
 Rights clause in FAR 52.227-19.
  
 Gaussian, Inc.
 340 Quinnipiac St., Bldg. 40, Wallingford CT 06492
  
  
 ---------------------------------------------------------------
 Warning -- This program may not be used in any manner that
 competes with the business of Gaussian, Inc. or will provide
 assistance to any competitor of Gaussian, Inc.  The licensee
 of this program is prohibited from giving any competitor of
 Gaussian, Inc. access to this program.  By using this program,
 the user acknowledges that Gaussian, Inc. is engaged in the
 business of creating and licensing software in the field of
 computational chemistry and represents and warrants to the
 licensee that it is not a competitor of Gaussian, Inc. and that
 it will not use this program in any manner prohibited above.
 ---------------------------------------------------------------
  

 Cite this work as:
 Gaussian 16, Revision A.03,
 M. J. Frisch, G. W. Trucks, H. B. Schlegel, G. E. Scuseria, 
 M. A. Robb, J. R. Cheeseman, G. Scalmani, V. Barone, 
 G. A. Petersson, H. Nakatsuji, X. Li, M. Caricato, A. V. Marenich, 
 J. Bloino, B. G. Janesko, R. Gomperts, B. Mennucci, H. P. Hratchian, 
 J. V. Ortiz, A. F. Izmaylov, J. L. Sonnenberg, D. Williams-Young, 
 F. Ding, F. Lipparini, F. Egidi, J. Goings, B. Peng, A. Petrone, 
 T. Henderson, D. Ranasinghe, V. G. Zakrzewski, J. Gao, N. Rega, 
 G. Zheng, W. Liang, M. Hada, M. Ehara, K. Toyota, R. Fukuda, 
 J. Hasegawa, M. Ishida, T. Nakajima, Y. Honda, O. Kitao, H. Nakai, 
 T. Vreven, K. Throssell, J. A. Montgomery, Jr., J. E. Peralta, 
 F. Ogliaro, M. J. Bearpark, J. J. Heyd, E. N. Brothers, K. N. Kudin, 
 V. N. Staroverov, T. A. Keith, R. Kobayashi, J. Normand, 
 K. Raghavachari, A. P. Rendell, J. C. Burant, S. S. Iyengar, 
 J. Tomasi, M. Cossi, J. M. Millam, M. Klene, C. Adamo, R. Cammi, 
 J. W. Ochterski, R. L. Martin, K. Morokuma, O. Farkas, 
 J. B. Foresman, and D. J. Fox, Gaussian, Inc., Wallingford CT, 2016.
 
 ******************************************
 Gaussian 16:  EM64M-G16RevA.03 25-Dec-2016
                 1-Apr-2022 
 ******************************************
 %mem=24GB
 %nprocshared=8
 Will use up to    8 processors via shared memory.
 %chk=cf3.chk
 ---------------------------------------------------
 # opt freq uwb97xd/6-311+g(2d,2p) geom=connectivity
 ---------------------------------------------------
 1/18=20,19=15,26=3,38=1,57=2/1,3;
 2/9=110,12=2,17=6,18=5,40=1/2;
 3/5=4,6=6,7=212,11=2,25=1,30=1,71=1,74=-58,116=2/1,2,3;
 4//1;
 5/5=2,38=5/2;
 6/7=2,8=2,9=2,10=2,28=1/1;
 7//1,2,3,16;
 1/18=20,19=15,26=3/3(2);
 2/9=110/2;
 99//99;
 2/9=110/2;
 3/5=4,6=6,7=212,11=2,25=1,30=1,71=1,74=-58,116=2/1,2,3;
 4/5=5,16=3,69=1/1;
 5/5=2,38=5/2;
 7//1,2,3,16;
 1/18=20,19=15,26=3/3(-5);
 2/9=110/2;
 6/7=2,8=2,9=2,10=2,19=2,28=1/1;
 99/9=1/99;
 -------------------
 Title Card Required
 -------------------
 Symbolic Z-matrix:
 Charge =  0 Multiplicity = 2
 F                     2.6949    1.25007   0.10087 
 F                     2.6948   -0.71238   1.03217 
 C                     2.3       0.       -0.00001 
 F                     2.695    -0.53771  -1.13297 
 

 GradGradGradGradGradGradGradGradGradGradGradGradGradGradGradGradGradGrad
 Berny optimization.
 Initialization pass.
                           ----------------------------
                           !    Initial Parameters    !
                           ! (Angstroms and Degrees)  !
 --------------------------                            --------------------------
 ! Name  Definition              Value          Derivative Info.                !
 --------------------------------------------------------------------------------
 ! R1    R(1,3)                  1.3148         estimate D2E/DX2                !
 ! R2    R(2,3)                  1.3148         estimate D2E/DX2                !
 ! R3    R(3,4)                  1.3148         estimate D2E/DX2                !
 ! A1    A(1,3,2)              111.3896         estimate D2E/DX2                !
 ! A2    A(1,3,4)              111.3889         estimate D2E/DX2                !
 ! A3    A(2,3,4)              111.3869         estimate D2E/DX2                !
 ! D1    D(1,3,4,2)            125.0325         estimate D2E/DX2                !
 --------------------------------------------------------------------------------
 Trust Radius=3.00D-01 FncErr=1.00D-07 GrdErr=1.00D-06 EigMax=2.50D+02 EigMin=1.00D-04
 Number of steps in this run=     20 maximum allowed number of steps=    100.
 GradGradGradGradGradGradGradGradGradGradGradGradGradGradGradGradGradGrad

                          Input orientation:                          
 ---------------------------------------------------------------------
 Center     Atomic      Atomic             Coordinates (Angstroms)
 Number     Number       Type             X           Y           Z
 ---------------------------------------------------------------------
      1          9           0        2.694904    1.250068    0.100866
      2          9           0        2.694802   -0.712380    1.032170
      3          6           0        2.300000    0.000005   -0.000010
      4          9           0        2.694999   -0.537707   -1.132970
 ---------------------------------------------------------------------
                    Distance matrix (angstroms):
                    1          2          3          4
     1  F    0.000000
     2  F    2.172218   0.000000
     3  C    1.314832   1.314822   0.000000
     4  F    2.172209   2.172174   1.314822   0.000000
 Stoichiometry    CF3(2)
 Framework group  C1[X(CF3)]
 Deg. of freedom     6
 Full point group                 C1      NOp   1
 Largest Abelian subgroup         C1      NOp   1
 Largest concise Abelian subgroup C1      NOp   1
                         Standard orientation:                         
 ---------------------------------------------------------------------
 Center     Atomic      Atomic             Coordinates (Angstroms)
 Number     Number       Type             X           Y           Z
 ---------------------------------------------------------------------
      1          9           0        1.248108   -0.122794   -0.071801
      2          9           0       -0.730402   -1.019470   -0.071800
      3          6           0        0.000006   -0.000003    0.323101
      4          9           0       -0.517710    1.142266   -0.071800
 ---------------------------------------------------------------------
 Rotational constants (GHZ):          10.8996935          10.8991832           5.6376794
 Standard basis: 6-311+G(2d,2p) (5D, 7F)
 There are   116 symmetry adapted cartesian basis functions of A   symmetry.
 There are   108 symmetry adapted basis functions of A   symmetry.
   108 basis functions,   168 primitive gaussians,   116 cartesian basis functions
    17 alpha electrons       16 beta electrons
       nuclear repulsion energy       124.3981492091 Hartrees.
 NAtoms=    4 NActive=    4 NUniq=    4 SFac= 1.00D+00 NAtFMM=   60 NAOKFM=F Big=F
 Integral buffers will be    131072 words long.
 Raffenetti 2 integral format.
 Two-electron integral symmetry is turned on.
 Nuclear repulsion after empirical dispersion term =      124.3979692768 Hartrees.
 One-electron integrals computed using PRISM.
 NBasis=   108 RedAO= T EigKep=  1.80D-03  NBF=   108
 NBsUse=   108 1.00D-06 EigRej= -1.00D+00 NBFU=   108
 ExpMin= 4.38D-02 ExpMax= 1.14D+04 ExpMxC= 1.72D+03 IAcc=3 IRadAn=         5 AccDes= 0.00D+00
 Harris functional with IExCor= 4639 and IRadAn=       5 diagonalized for initial guess.
 HarFok:  IExCor= 4639 AccDes= 0.00D+00 IRadAn=         5 IDoV= 1 UseB2=F ITyADJ=14
 ICtDFT=  3500011 ScaDFX=  1.000000  1.000000  1.000000  1.000000
 FoFCou: FMM=F IPFlag=           0 FMFlag=      100000 FMFlg1=           0
         NFxFlg=           0 DoJE=T BraDBF=F KetDBF=T FulRan=T
         wScrn=  0.000000 ICntrl=       500 IOpCl=  0 I1Cent=   200000004 NGrid=           0
         NMat0=    1 NMatS0=      1 NMatT0=    0 NMatD0=    1 NMtDS0=    0 NMtDT0=    0
 Petite list used in FoFCou.
 Initial guess <Sx>= 0.0000 <Sy>= 0.0000 <Sz>= 0.5000 <S**2>= 0.7500 S= 0.5000
 Keep R1 and R2 ints in memory in canonical form, NReq=76835404.
 Requested convergence on RMS density matrix=1.00D-08 within 128 cycles.
 Requested convergence on MAX density matrix=1.00D-06.
 Requested convergence on             energy=1.00D-06.
 No special actions if energy rises.
 SCF Done:  E(UwB97XD) =  -337.580014832     A.U. after   13 cycles
            NFock= 13  Conv=0.34D-08     -V/T= 2.0024
 <Sx>= 0.0000 <Sy>= 0.0000 <Sz>= 0.5000 <S**2>= 0.7520 S= 0.5010
 <L.S>= 0.000000000000E+00
 Annihilation of the first spin contaminant:
 S**2 before annihilation     0.7520,   after     0.7500

 **********************************************************************

            Population analysis using the SCF density.

 **********************************************************************

 Orbital symmetries:
 Alpha Orbitals:
       Occupied  (A) (A) (A) (A) (A) (A) (A) (A) (A) (A) (A) (A)
                 (A) (A) (A) (A) (A)
       Virtual   (A) (A) (A) (A) (A) (A) (A) (A) (A) (A) (A) (A)
                 (A) (A) (A) (A) (A) (A) (A) (A) (A) (A) (A) (A)
                 (A) (A) (A) (A) (A) (A) (A) (A) (A) (A) (A) (A)
                 (A) (A) (A) (A) (A) (A) (A) (A) (A) (A) (A) (A)
                 (A) (A) (A) (A) (A) (A) (A) (A) (A) (A) (A) (A)
                 (A) (A) (A) (A) (A) (A) (A) (A) (A) (A) (A) (A)
                 (A) (A) (A) (A) (A) (A) (A) (A) (A) (A) (A) (A)
                 (A) (A) (A) (A) (A) (A) (A)
 Beta  Orbitals:
       Occupied  (A) (A) (A) (A) (A) (A) (A) (A) (A) (A) (A) (A)
                 (A) (A) (A) (A)
       Virtual   (A) (A) (A) (A) (A) (A) (A) (A) (A) (A) (A) (A)
                 (A) (A) (A) (A) (A) (A) (A) (A) (A) (A) (A) (A)
                 (A) (A) (A) (A) (A) (A) (A) (A) (A) (A) (A) (A)
                 (A) (A) (A) (A) (A) (A) (A) (A) (A) (A) (A) (A)
                 (A) (A) (A) (A) (A) (A) (A) (A) (A) (A) (A) (A)
                 (A) (A) (A) (A) (A) (A) (A) (A) (A) (A) (A) (A)
                 (A) (A) (A) (A) (A) (A) (A) (A) (A) (A) (A) (A)
                 (A) (A) (A) (A) (A) (A) (A) (A)
 The electronic state is 2-A.
 Alpha  occ. eigenvalues --  -24.88030 -24.88030 -24.88029 -10.55441  -1.46484
 Alpha  occ. eigenvalues --   -1.37765  -1.37765  -0.83122  -0.72726  -0.72726
 Alpha  occ. eigenvalues --   -0.69193  -0.59878  -0.59877  -0.56525  -0.56525
 Alpha  occ. eigenvalues --   -0.53874  -0.36548
 Alpha virt. eigenvalues --    0.08096   0.10090   0.10302   0.10302   0.25215
 Alpha virt. eigenvalues --    0.25216   0.25565   0.29907   0.29907   0.31592
 Alpha virt. eigenvalues --    0.32180   0.32183   0.35400   0.39176   0.39177
 Alpha virt. eigenvalues --    0.39560   0.39854   0.47463   0.47464   0.59755
 Alpha virt. eigenvalues --    0.66822   0.66823   0.82195   0.90125   0.90126
 Alpha virt. eigenvalues --    1.03970   1.17873   1.17873   1.31803   1.31803
 Alpha virt. eigenvalues --    1.35650   1.36427   1.36427   1.43104   1.45262
 Alpha virt. eigenvalues --    1.51230   1.51231   1.88035   1.88036   2.02380
 Alpha virt. eigenvalues --    2.02662   2.02663   2.02984   2.07184   2.11216
 Alpha virt. eigenvalues --    2.11218   2.19656   2.35914   2.35915   2.45015
 Alpha virt. eigenvalues --    2.65220   2.65222   2.78624   2.78625   2.89074
 Alpha virt. eigenvalues --    3.12065   3.34490   3.34491   3.48834   3.48836
 Alpha virt. eigenvalues --    3.50744   4.20515   4.20518   6.33113   6.33113
 Alpha virt. eigenvalues --    6.34765   6.40543   6.40543   6.41956   6.46557
 Alpha virt. eigenvalues --    6.84538   6.84538   9.06527   9.08130   9.08130
 Alpha virt. eigenvalues --    9.08695   9.18149   9.18150   9.20154   9.24178
 Alpha virt. eigenvalues --    9.24178   9.43898   9.61140   9.61140   9.64730
 Alpha virt. eigenvalues --    9.81563   9.81564  23.99868  66.87378  66.87378
 Alpha virt. eigenvalues --   66.94237
  Beta  occ. eigenvalues --  -24.87710 -24.87710 -24.87709 -10.54006  -1.45469
  Beta  occ. eigenvalues --   -1.36894  -1.36894  -0.81337  -0.71684  -0.71684
  Beta  occ. eigenvalues --   -0.65338  -0.58838  -0.58837  -0.55566  -0.55566
  Beta  occ. eigenvalues --   -0.53549
  Beta virt. eigenvalues --   -0.03385   0.09629   0.10999   0.10999   0.12052
  Beta virt. eigenvalues --    0.26722   0.27257   0.27258   0.30957   0.30957
  Beta virt. eigenvalues --    0.31921   0.32795   0.32798   0.36118   0.39701
  Beta virt. eigenvalues --    0.39702   0.39998   0.40238   0.47596   0.47597
  Beta virt. eigenvalues --    0.62903   0.67285   0.67286   0.83700   0.91878
  Beta virt. eigenvalues --    0.91879   1.05970   1.18479   1.18480   1.32139
  Beta virt. eigenvalues --    1.32140   1.35986   1.37158   1.37159   1.43744
  Beta virt. eigenvalues --    1.45442   1.51428   1.51428   1.88267   1.88268
  Beta virt. eigenvalues --    2.02708   2.02961   2.02962   2.04286   2.07788
  Beta virt. eigenvalues --    2.11711   2.11713   2.19698   2.36864   2.36865
  Beta virt. eigenvalues --    2.47457   2.66299   2.66300   2.79805   2.79805
  Beta virt. eigenvalues --    2.92209   3.16388   3.39739   3.39740   3.50771
  Beta virt. eigenvalues --    3.50774   3.55533   4.22296   4.22298   6.33852
  Beta virt. eigenvalues --    6.33852   6.35564   6.41093   6.41094   6.42216
  Beta virt. eigenvalues --    6.47381   6.85359   6.85360   9.07636   9.08844
  Beta virt. eigenvalues --    9.08844   9.09931   9.19053   9.19054   9.20451
  Beta virt. eigenvalues --    9.25384   9.25385   9.44720   9.61860   9.61860
  Beta virt. eigenvalues --    9.65494   9.82261   9.82262  24.02333  66.87622
  Beta virt. eigenvalues --   66.87622  66.94482
          Condensed to atoms (all electrons):
               1          2          3          4
     1  F    9.094232   0.018613   0.120347   0.018621
     2  F    0.018613   9.094263   0.120335   0.018607
     3  C    0.120347   0.120335   4.883513   0.120353
     4  F    0.018621   0.018607   0.120353   9.094242
          Atomic-Atomic Spin Densities.
               1          2          3          4
     1  F    0.165985   0.019636  -0.172977   0.019633
     2  F    0.019636   0.165982  -0.172977   0.019634
     3  C   -0.172977  -0.172977   1.422071  -0.172953
     4  F    0.019633   0.019634  -0.172953   0.165971
 Mulliken charges and spin densities:
               1          2
     1  F   -0.251813   0.032277
     2  F   -0.251817   0.032274
     3  C    0.755453   0.903164
     4  F   -0.251822   0.032285
 Sum of Mulliken charges =  -0.00000   1.00000
 Mulliken charges and spin densities with hydrogens summed into heavy atoms:
               1          2
     1  F   -0.251813   0.032277
     2  F   -0.251817   0.032274
     3  C    0.755453   0.903164
     4  F   -0.251822   0.032285
 Electronic spatial extent (au):  <R**2>=            200.1764
 Charge=             -0.0000 electrons
 Dipole moment (field-independent basis, Debye):
    X=             -0.0000    Y=             -0.0000    Z=              0.2924  Tot=              0.2924
 Quadrupole moment (field-independent basis, Debye-Ang):
   XX=            -20.9490   YY=            -20.9490   ZZ=            -19.6957
   XY=             -0.0000   XZ=             -0.0000   YZ=              0.0000
 Traceless Quadrupole moment (field-independent basis, Debye-Ang):
   XX=             -0.4178   YY=             -0.4178   ZZ=              0.8355
   XY=             -0.0000   XZ=             -0.0000   YZ=              0.0000
 Octapole moment (field-independent basis, Debye-Ang**2):
  XXX=             -0.7265  YYY=             -0.2201  ZZZ=             -2.8215  XYY=              0.7263
  XXY=              0.2200  XXZ=             -0.6588  XZZ=             -0.0000  YZZ=             -0.0000
  YYZ=             -0.6588  XYZ=              0.0000
 Hexadecapole moment (field-independent basis, Debye-Ang**3):
 XXXX=            -82.2623 YYYY=            -82.2593 ZZZZ=            -19.7376 XXXY=             -0.0000
 XXXZ=             -0.3353 YYYX=             -0.0001 YYYZ=             -0.1015 ZZZX=             -0.0001
 ZZZY=              0.0001 XXYY=            -27.4202 XXZZ=            -16.7129 YYZZ=            -16.7124
 XXYZ=              0.1016 YYXZ=              0.3353 ZZXY=             -0.0000
 N-N= 1.243979692768D+02 E-N=-1.052209376877D+03  KE= 3.367791146238D+02
                          Isotropic Fermi Contact Couplings
        Atom                 a.u.       MegaHertz       Gauss      10(-4) cm-1
     1  F(19)              0.09105     383.08813     136.69537     127.78445
     2  F(19)              0.09105     383.06757     136.68803     127.77759
     3  C(13)              0.62932     707.47698     252.44538     235.98892
     4  F(19)              0.09104     383.06315     136.68646     127.77611
 --------------------------------------------------------
       Center         ----  Spin Dipole Couplings  ----
                      3XX-RR        3YY-RR        3ZZ-RR
 --------------------------------------------------------
     1   Atom       -0.317337     -0.365896      0.683233
     2   Atom       -0.349596     -0.333667      0.683263
     3   Atom       -0.488635     -0.488620      0.977255
     4   Atom       -0.357929     -0.325295      0.683225
 --------------------------------------------------------
                        XY            XZ            YZ
 --------------------------------------------------------
     1   Atom       -0.004845     -0.287900      0.028339
     2   Atom        0.023429      0.168531      0.235193
     3   Atom       -0.000026      0.000024      0.000025
     4   Atom       -0.018606      0.119411     -0.263456
 --------------------------------------------------------


 ---------------------------------------------------------------------------------
              Anisotropic Spin Dipole Couplings in Principal Axis System
 ---------------------------------------------------------------------------------

       Atom             a.u.   MegaHertz   Gauss  10(-4) cm-1        Axes

              Baa    -0.3945  -198.133   -70.699   -66.090  0.9612 -0.0940  0.2592
     1 F(19)  Bbb    -0.3664  -184.003   -65.657   -61.377  0.0974  0.9952 -0.0002
              Bcc     0.7609   382.136   136.356   127.467 -0.2580  0.0254  0.9658
 
              Baa    -0.3946  -198.158   -70.708   -66.098  0.5628  0.7849 -0.2593
     2 F(19)  Bbb    -0.3664  -184.004   -65.657   -61.377  0.8127 -0.5827  0.0001
              Bcc     0.7609   382.162   136.365   127.475  0.1510  0.2108  0.9658
 
              Baa    -0.4887   -65.573   -23.398   -21.873  0.7982  0.6023 -0.0000
     3 C(13)  Bbb    -0.4886   -65.565   -23.395   -21.870 -0.6023  0.7982 -0.0000
              Bcc     0.9773   131.138    46.793    43.743  0.0000  0.0000  1.0000
 
              Baa    -0.3945  -198.127   -70.697   -66.088 -0.3989  0.8796  0.2592
     4 F(19)  Bbb    -0.3664  -183.995   -65.654   -61.374  0.9107  0.4130  0.0001
              Bcc     0.7609   382.123   136.351   127.462  0.1070 -0.2361  0.9658
 

 ---------------------------------------------------------------------------------

 Calling FoFJK, ICntrl=      2127 FMM=F ISym2X=0 I1Cent= 0 IOpClX= 1 NMat=1 NMatS=1 NMatT=0.
 ***** Axes restored to original set *****
 -------------------------------------------------------------------
 Center     Atomic                   Forces (Hartrees/Bohr)
 Number     Number              X              Y              Z
 -------------------------------------------------------------------
      1        9           0.000099838   -0.000256974   -0.000023719
      2        9           0.000110104    0.000146907   -0.000199318
      3        6          -0.000316042   -0.000004550   -0.000002978
      4        9           0.000106100    0.000114617    0.000226015
 -------------------------------------------------------------------
 Cartesian Forces:  Max     0.000316042 RMS     0.000164668

 GradGradGradGradGradGradGradGradGradGradGradGradGradGradGradGradGradGrad
 Berny optimization.
 FormGI is forming the generalized inverse of G from B-inverse, IUseBI=4.
 Internal  Forces:  Max     0.000347856 RMS     0.000221269
 Search for a local minimum.
 Step number   1 out of a maximum of   20
 All quantities printed in internal units (Hartrees-Bohrs-Radians)
 Mixed Optimization -- En-DIIS/RFO-DIIS
 Second derivative matrix not updated -- first step.
 The second derivative matrix:
                          R1        R2        R3        A1        A2
           R1           0.63237
           R2           0.00000   0.63239
           R3           0.00000   0.00000   0.63239
           A1           0.00000   0.00000   0.00000   0.25000
           A2           0.00000   0.00000   0.00000   0.00000   0.25000
           A3           0.00000   0.00000   0.00000   0.00000   0.00000
           D1           0.00000   0.00000   0.00000   0.00000   0.00000
                          A3        D1
           A3           0.25000
           D1           0.00000   0.02554
 ITU=  0
     Eigenvalues ---    0.08378   0.25000   0.25000   0.63237   0.63239
     Eigenvalues ---    0.63239
 RFO step:  Lambda=-2.34858979D-06 EMin= 8.37818976D-02
 Linear search not attempted -- first point.
 Iteration  1 RMS(Cart)=  0.00158848 RMS(Int)=  0.00000367
 Iteration  2 RMS(Cart)=  0.00000236 RMS(Int)=  0.00000283
 Iteration  3 RMS(Cart)=  0.00000000 RMS(Int)=  0.00000283
 Variable       Old X    -DE/DX   Delta X   Delta X   Delta X     New X
                                 (Linear)    (Quad)   (Total)
    R1        2.48467  -0.00021   0.00000  -0.00034  -0.00034   2.48433
    R2        2.48465  -0.00020   0.00000  -0.00032  -0.00032   2.48433
    R3        2.48465  -0.00021   0.00000  -0.00033  -0.00033   2.48432
    A1        1.94411  -0.00002   0.00000  -0.00136  -0.00137   1.94275
    A2        1.94410  -0.00022   0.00000  -0.00161  -0.00162   1.94249
    A3        1.94407  -0.00020   0.00000  -0.00153  -0.00153   1.94253
    D1        2.18223  -0.00035   0.00000  -0.00415  -0.00415   2.17808
         Item               Value     Threshold  Converged?
 Maximum Force            0.000348     0.000450     YES
 RMS     Force            0.000221     0.000300     YES
 Maximum Displacement     0.002817     0.001800     NO 
 RMS     Displacement     0.001590     0.001200     NO 
 Predicted change in Energy=-1.170735D-06
 GradGradGradGradGradGradGradGradGradGradGradGradGradGradGradGradGradGrad

                          Input orientation:                          
 ---------------------------------------------------------------------
 Center     Atomic      Atomic             Coordinates (Angstroms)
 Number     Number       Type             X           Y           Z
 ---------------------------------------------------------------------
      1          9           0        2.695399    1.249271    0.100723
      2          9           0        2.695292   -0.711983    1.031506
      3          6           0        2.298509    0.000011    0.000034
      4          9           0        2.695505   -0.537315   -1.132207
 ---------------------------------------------------------------------
                    Distance matrix (angstroms):
                    1          2          3          4
     1  F    0.000000
     2  F    2.170916   0.000000
     3  C    1.314652   1.314651   0.000000
     4  F    2.170716   2.170752   1.314646   0.000000
 Stoichiometry    CF3(2)
 Framework group  C1[X(CF3)]
 Deg. of freedom     6
 Full point group                 C1      NOp   1
 Largest Abelian subgroup         C1      NOp   1
 Largest concise Abelian subgroup C1      NOp   1
                         Standard orientation:                         
 ---------------------------------------------------------------------
 Center     Atomic      Atomic             Coordinates (Angstroms)
 Number     Number       Type             X           Y           Z
 ---------------------------------------------------------------------
      1          9           0        1.029380   -0.714991   -0.072164
      2          9           0       -1.133966   -0.533851   -0.072167
      3          6           0       -0.000015   -0.000055    0.324728
      4          9           0        0.104596    1.248879   -0.072154
 ---------------------------------------------------------------------
 Rotational constants (GHZ):          10.9106090          10.9082169           5.6449834
 Standard basis: 6-311+G(2d,2p) (5D, 7F)
 There are   116 symmetry adapted cartesian basis functions of A   symmetry.
 There are   108 symmetry adapted basis functions of A   symmetry.
   108 basis functions,   168 primitive gaussians,   116 cartesian basis functions
    17 alpha electrons       16 beta electrons
       nuclear repulsion energy       124.4451845867 Hartrees.
 NAtoms=    4 NActive=    4 NUniq=    4 SFac= 1.00D+00 NAtFMM=   60 NAOKFM=F Big=F
 Integral buffers will be    131072 words long.
 Raffenetti 2 integral format.
 Two-electron integral symmetry is turned on.
 Nuclear repulsion after empirical dispersion term =      124.4450053040 Hartrees.
 One-electron integrals computed using PRISM.
 NBasis=   108 RedAO= T EigKep=  1.80D-03  NBF=   108
 NBsUse=   108 1.00D-06 EigRej= -1.00D+00 NBFU=   108
 Initial guess from the checkpoint file:  "cf3.chk"
 B after Tr=    -0.000000   -0.000000    0.000000
         Rot=    0.967780   -0.000006    0.000001    0.251797 Ang= -29.17 deg.
 Initial guess <Sx>= 0.0000 <Sy>= 0.0000 <Sz>= 0.5000 <S**2>= 0.7520 S= 0.5010
 Keep R1 and R2 ints in memory in canonical form, NReq=76835404.
 Requested convergence on RMS density matrix=1.00D-08 within 128 cycles.
 Requested convergence on MAX density matrix=1.00D-06.
 Requested convergence on             energy=1.00D-06.
 No special actions if energy rises.
 SCF Done:  E(UwB97XD) =  -337.580014603     A.U. after    8 cycles
            NFock=  8  Conv=0.55D-08     -V/T= 2.0024
 <Sx>= 0.0000 <Sy>= 0.0000 <Sz>= 0.5000 <S**2>= 0.7520 S= 0.5010
 <L.S>= 0.000000000000E+00
 Annihilation of the first spin contaminant:
 S**2 before annihilation     0.7520,   after     0.7500
 Calling FoFJK, ICntrl=      2127 FMM=F ISym2X=0 I1Cent= 0 IOpClX= 1 NMat=1 NMatS=1 NMatT=0.
 ***** Axes restored to original set *****
 -------------------------------------------------------------------
 Center     Atomic                   Forces (Hartrees/Bohr)
 Number     Number              X              Y              Z
 -------------------------------------------------------------------
      1        9          -0.000185133    0.000178693    0.000044914
      2        9          -0.000187201   -0.000077627    0.000152139
      3        6           0.000566858   -0.000006224   -0.000018250
      4        9          -0.000194524   -0.000094842   -0.000178803
 -------------------------------------------------------------------
 Cartesian Forces:  Max     0.000566858 RMS     0.000210742

 GradGradGradGradGradGradGradGradGradGradGradGradGradGradGradGradGradGrad
 Berny optimization.
 Using GEDIIS/GDIIS optimizer.
 FormGI is forming the generalized inverse of G from B-inverse, IUseBI=4.
 Internal  Forces:  Max     0.000455754 RMS     0.000254136
 Search for a local minimum.
 Step number   2 out of a maximum of   20
 All quantities printed in internal units (Hartrees-Bohrs-Radians)
 Mixed Optimization -- En-DIIS/RFO-DIIS
 Swapping is turned off.
 Update second derivatives using D2CorX and points    1    2
 DE=  2.29D-07 DEPred=-1.17D-06 R=-1.95D-01
 Trust test=-1.95D-01 RLast= 4.94D-03 DXMaxT set to 1.50D-01
 The second derivative matrix:
                          R1        R2        R3        A1        A2
           R1           0.63339
           R2           0.00060   0.63261
           R3           0.00224   0.00174   0.63587
           A1          -0.03051  -0.02900  -0.02982   0.20055
           A2          -0.00266  -0.00314  -0.00054  -0.05758   0.23739
           A3          -0.00353  -0.00392  -0.00156  -0.05462  -0.01363
           D1           0.04025   0.03734   0.04240  -0.01388   0.06469
                          A3        D1
           A3           0.23553
           D1           0.05888   0.14172
 ITU= -1  0
     Eigenvalues ---    0.14882   0.25000   0.31467   0.63192   0.63238
     Eigenvalues ---    0.64364
 En-DIIS/RFO-DIIS/Sim-DIIS IScMMF=       -3 using points:     2    1
 RFO step:  Lambda=-1.70109965D-06.
 DidBck=T Rises=T En-DIIS coefs:    0.47860    0.52140
 Iteration  1 RMS(Cart)=  0.00089344 RMS(Int)=  0.00000090
 Iteration  2 RMS(Cart)=  0.00000071 RMS(Int)=  0.00000050
 Variable       Old X    -DE/DX   Delta X   Delta X   Delta X     New X
                                 (Linear)    (Quad)   (Total)
    R1        2.48433   0.00012   0.00018  -0.00010   0.00008   2.48441
    R2        2.48433   0.00011   0.00017  -0.00010   0.00007   2.48440
    R3        2.48432   0.00013   0.00017  -0.00008   0.00009   2.48441
    A1        1.94275  -0.00001   0.00071  -0.00002   0.00070   1.94345
    A2        1.94249   0.00033   0.00084   0.00014   0.00098   1.94347
    A3        1.94253   0.00031   0.00080   0.00014   0.00094   1.94348
    D1        2.17808   0.00046   0.00216   0.00019   0.00235   2.18043
         Item               Value     Threshold  Converged?
 Maximum Force            0.000456     0.000450     NO 
 RMS     Force            0.000254     0.000300     YES
 Maximum Displacement     0.001659     0.001800     YES
 RMS     Displacement     0.000893     0.001200     YES
 Predicted change in Energy=-8.505695D-07
 GradGradGradGradGradGradGradGradGradGradGradGradGradGradGradGradGradGrad

                          Input orientation:                          
 ---------------------------------------------------------------------
 Center     Atomic      Atomic             Coordinates (Angstroms)
 Number     Number       Type             X           Y           Z
 ---------------------------------------------------------------------
      1          9           0        2.695110    1.249654    0.100844
      2          9           0        2.695006   -0.712134    1.031858
      3          6           0        2.299387   -0.000005   -0.000016
      4          9           0        2.695201   -0.537531   -1.132631
 ---------------------------------------------------------------------
                    Distance matrix (angstroms):
                    1          2          3          4
     1  F    0.000000
     2  F    2.171496   0.000000
     3  C    1.314693   1.314688   0.000000
     4  F    2.171518   2.171520   1.314694   0.000000
 Stoichiometry    CF3(2)
 Framework group  C1[X(CF3)]
 Deg. of freedom     6
 Full point group                 C1      NOp   1
 Largest Abelian subgroup         C1      NOp   1
 Largest concise Abelian subgroup C1      NOp   1
                         Standard orientation:                         
 ---------------------------------------------------------------------
 Center     Atomic      Atomic             Coordinates (Angstroms)
 Number     Number       Type             X           Y           Z
 ---------------------------------------------------------------------
      1          9           0       -0.595782   -1.103112   -0.071948
      2          9           0       -0.657447    1.067509   -0.071949
      3          6           0        0.000005    0.000003    0.323770
      4          9           0        1.253224    0.035601   -0.071950
 ---------------------------------------------------------------------
 Rotational constants (GHZ):          10.9047618          10.9044722           5.6412570
 Standard basis: 6-311+G(2d,2p) (5D, 7F)
 There are   116 symmetry adapted cartesian basis functions of A   symmetry.
 There are   108 symmetry adapted basis functions of A   symmetry.
   108 basis functions,   168 primitive gaussians,   116 cartesian basis functions
    17 alpha electrons       16 beta electrons
       nuclear repulsion energy       124.4235551952 Hartrees.
 NAtoms=    4 NActive=    4 NUniq=    4 SFac= 1.00D+00 NAtFMM=   60 NAOKFM=F Big=F
 Integral buffers will be    131072 words long.
 Raffenetti 2 integral format.
 Two-electron integral symmetry is turned on.
 Nuclear repulsion after empirical dispersion term =      124.4233755829 Hartrees.
 One-electron integrals computed using PRISM.
 NBasis=   108 RedAO= T EigKep=  1.80D-03  NBF=   108
 NBsUse=   108 1.00D-06 EigRej= -1.00D+00 NBFU=   108
 Initial guess from the checkpoint file:  "cf3.chk"
 B after Tr=     0.000000    0.000000   -0.000000
         Rot=    0.745558    0.000004   -0.000005    0.666441 Ang=  83.59 deg.
 Initial guess <Sx>= 0.0000 <Sy>= 0.0000 <Sz>= 0.5000 <S**2>= 0.7520 S= 0.5010
 Keep R1 and R2 ints in memory in canonical form, NReq=76835404.
 Requested convergence on RMS density matrix=1.00D-08 within 128 cycles.
 Requested convergence on MAX density matrix=1.00D-06.
 Requested convergence on             energy=1.00D-06.
 No special actions if energy rises.
 SCF Done:  E(UwB97XD) =  -337.580015312     A.U. after    8 cycles
            NFock=  8  Conv=0.31D-08     -V/T= 2.0024
 <Sx>= 0.0000 <Sy>= 0.0000 <Sz>= 0.5000 <S**2>= 0.7520 S= 0.5010
 <L.S>= 0.000000000000E+00
 Annihilation of the first spin contaminant:
 S**2 before annihilation     0.7520,   after     0.7500
 Calling FoFJK, ICntrl=      2127 FMM=F ISym2X=0 I1Cent= 0 IOpClX= 1 NMat=1 NMatS=1 NMatT=0.
 ***** Axes restored to original set *****
 -------------------------------------------------------------------
 Center     Atomic                   Forces (Hartrees/Bohr)
 Number     Number              X              Y              Z
 -------------------------------------------------------------------
      1        9          -0.000018444   -0.000018563    0.000001743
      2        9          -0.000015811    0.000009632   -0.000007045
      3        6           0.000026887    0.000004910   -0.000004820
      4        9           0.000007369    0.000004021    0.000010121
 -------------------------------------------------------------------
 Cartesian Forces:  Max     0.000026887 RMS     0.000012985

 GradGradGradGradGradGradGradGradGradGradGradGradGradGradGradGradGradGrad
 Berny optimization.
 Using GEDIIS/GDIIS optimizer.
 FormGI is forming the generalized inverse of G from B-inverse, IUseBI=4.
 Internal  Forces:  Max     0.000021228 RMS     0.000011898
 Search for a local minimum.
 Step number   3 out of a maximum of   20
 All quantities printed in internal units (Hartrees-Bohrs-Radians)
 Mixed Optimization -- En-DIIS/RFO-DIIS
 Swapping is turned off.
 Update second derivatives using D2CorX and points    1    2    3
 DE= -7.08D-07 DEPred=-8.51D-07 R= 8.33D-01
 Trust test= 8.33D-01 RLast= 2.81D-03 DXMaxT set to 1.50D-01
 The second derivative matrix:
                          R1        R2        R3        A1        A2
           R1           0.63122
           R2          -0.00143   0.63085
           R3           0.00100   0.00053   0.63511
           A1          -0.03110  -0.02936  -0.03019   0.20065
           A2           0.00243   0.00031   0.00230  -0.05782   0.23369
           A3           0.00132  -0.00063   0.00115  -0.05485  -0.01713
           D1           0.04559   0.04072   0.04537  -0.01444   0.06246
                          A3        D1
           A3           0.23224
           D1           0.05679   0.14144
 ITU=  0 -1  0
     Eigenvalues ---    0.14757   0.24999   0.30581   0.63127   0.63243
     Eigenvalues ---    0.64282
 En-DIIS/RFO-DIIS/Sim-DIIS IScMMF=       -3 using points:     3    2    1
 RFO step:  Lambda= 0.00000000D+00.
 DIIS inversion failure, remove point   3.
 RFO-DIIS uses    2 points instead of    3
 DidBck=F Rises=F RFO-DIIS coefs:    1.02104   -0.02104    0.00000
 Iteration  1 RMS(Cart)=  0.00002506 RMS(Int)=  0.00000002
 Iteration  2 RMS(Cart)=  0.00000000 RMS(Int)=  0.00000002
 Variable       Old X    -DE/DX   Delta X   Delta X   Delta X     New X
                                 (Linear)    (Quad)   (Total)
    R1        2.48441  -0.00002   0.00000  -0.00004  -0.00004   2.48437
    R2        2.48440  -0.00001   0.00000  -0.00003  -0.00002   2.48438
    R3        2.48441  -0.00001   0.00000  -0.00002  -0.00002   2.48439
    A1        1.94345  -0.00000   0.00001  -0.00001   0.00000   1.94345
    A2        1.94347   0.00001   0.00002   0.00001   0.00003   1.94350
    A3        1.94348   0.00001   0.00002   0.00001   0.00003   1.94351
    D1        2.18043   0.00001   0.00005  -0.00000   0.00005   2.18048
         Item               Value     Threshold  Converged?
 Maximum Force            0.000021     0.000450     YES
 RMS     Force            0.000012     0.000300     YES
 Maximum Displacement     0.000047     0.001800     YES
 RMS     Displacement     0.000025     0.001200     YES
 Predicted change in Energy=-1.142228D-09
 Optimization completed.
    -- Stationary point found.
                           ----------------------------
                           !   Optimized Parameters   !
                           ! (Angstroms and Degrees)  !
 --------------------------                            --------------------------
 ! Name  Definition              Value          Derivative Info.                !
 --------------------------------------------------------------------------------
 ! R1    R(1,3)                  1.3147         -DE/DX =    0.0                 !
 ! R2    R(2,3)                  1.3147         -DE/DX =    0.0                 !
 ! R3    R(3,4)                  1.3147         -DE/DX =    0.0                 !
 ! A1    A(1,3,2)              111.3512         -DE/DX =    0.0                 !
 ! A2    A(1,3,4)              111.3525         -DE/DX =    0.0                 !
 ! A3    A(2,3,4)              111.353          -DE/DX =    0.0                 !
 ! D1    D(1,3,4,2)            124.9295         -DE/DX =    0.0                 !
 --------------------------------------------------------------------------------
 GradGradGradGradGradGradGradGradGradGradGradGradGradGradGradGradGradGrad

                          Input orientation:                          
 ---------------------------------------------------------------------
 Center     Atomic      Atomic             Coordinates (Angstroms)
 Number     Number       Type             X           Y           Z
 ---------------------------------------------------------------------
      1          9           0        2.695110    1.249654    0.100844
      2          9           0        2.695006   -0.712134    1.031858
      3          6           0        2.299387   -0.000005   -0.000016
      4          9           0        2.695201   -0.537531   -1.132631
 ---------------------------------------------------------------------
                    Distance matrix (angstroms):
                    1          2          3          4
     1  F    0.000000
     2  F    2.171496   0.000000
     3  C    1.314693   1.314688   0.000000
     4  F    2.171518   2.171520   1.314694   0.000000
 Stoichiometry    CF3(2)
 Framework group  C1[X(CF3)]
 Deg. of freedom     6
 Full point group                 C1      NOp   1
 Largest Abelian subgroup         C1      NOp   1
 Largest concise Abelian subgroup C1      NOp   1
                         Standard orientation:                         
 ---------------------------------------------------------------------
 Center     Atomic      Atomic             Coordinates (Angstroms)
 Number     Number       Type             X           Y           Z
 ---------------------------------------------------------------------
      1          9           0       -0.595782   -1.103112   -0.071948
      2          9           0       -0.657447    1.067509   -0.071949
      3          6           0        0.000005    0.000003    0.323770
      4          9           0        1.253224    0.035601   -0.071950
 ---------------------------------------------------------------------
 Rotational constants (GHZ):          10.9047618          10.9044722           5.6412570

 **********************************************************************

            Population analysis using the SCF density.

 **********************************************************************

 Orbital symmetries:
 Alpha Orbitals:
       Occupied  (A) (A) (A) (A) (A) (A) (A) (A) (A) (A) (A) (A)
                 (A) (A) (A) (A) (A)
       Virtual   (A) (A) (A) (A) (A) (A) (A) (A) (A) (A) (A) (A)
                 (A) (A) (A) (A) (A) (A) (A) (A) (A) (A) (A) (A)
                 (A) (A) (A) (A) (A) (A) (A) (A) (A) (A) (A) (A)
                 (A) (A) (A) (A) (A) (A) (A) (A) (A) (A) (A) (A)
                 (A) (A) (A) (A) (A) (A) (A) (A) (A) (A) (A) (A)
                 (A) (A) (A) (A) (A) (A) (A) (A) (A) (A) (A) (A)
                 (A) (A) (A) (A) (A) (A) (A) (A) (A) (A) (A) (A)
                 (A) (A) (A) (A) (A) (A) (A)
 Beta  Orbitals:
       Occupied  (A) (A) (A) (A) (A) (A) (A) (A) (A) (A) (A) (A)
                 (A) (A) (A) (A)
       Virtual   (A) (A) (A) (A) (A) (A) (A) (A) (A) (A) (A) (A)
                 (A) (A) (A) (A) (A) (A) (A) (A) (A) (A) (A) (A)
                 (A) (A) (A) (A) (A) (A) (A) (A) (A) (A) (A) (A)
                 (A) (A) (A) (A) (A) (A) (A) (A) (A) (A) (A) (A)
                 (A) (A) (A) (A) (A) (A) (A) (A) (A) (A) (A) (A)
                 (A) (A) (A) (A) (A) (A) (A) (A) (A) (A) (A) (A)
                 (A) (A) (A) (A) (A) (A) (A) (A) (A) (A) (A) (A)
                 (A) (A) (A) (A) (A) (A) (A) (A)
 The electronic state is 2-A.
 Alpha  occ. eigenvalues --  -24.88025 -24.88025 -24.88025 -10.55441  -1.46497
 Alpha  occ. eigenvalues --   -1.37764  -1.37764  -0.83123  -0.72727  -0.72727
 Alpha  occ. eigenvalues --   -0.69199  -0.59880  -0.59880  -0.56517  -0.56517
 Alpha  occ. eigenvalues --   -0.53868  -0.36568
 Alpha virt. eigenvalues --    0.08101   0.10089   0.10302   0.10302   0.25213
 Alpha virt. eigenvalues --    0.25213   0.25615   0.29904   0.29904   0.31608
 Alpha virt. eigenvalues --    0.32183   0.32185   0.35395   0.39174   0.39174
 Alpha virt. eigenvalues --    0.39573   0.39856   0.47471   0.47472   0.59742
 Alpha virt. eigenvalues --    0.66802   0.66803   0.82212   0.90142   0.90142
 Alpha virt. eigenvalues --    1.03955   1.17880   1.17880   1.31771   1.31771
 Alpha virt. eigenvalues --    1.35649   1.36433   1.36433   1.43109   1.45270
 Alpha virt. eigenvalues --    1.51239   1.51240   1.88044   1.88045   2.02384
 Alpha virt. eigenvalues --    2.02679   2.02680   2.02959   2.07218   2.11261
 Alpha virt. eigenvalues --    2.11263   2.19724   2.35857   2.35858   2.45051
 Alpha virt. eigenvalues --    2.65218   2.65219   2.78525   2.78526   2.89077
 Alpha virt. eigenvalues --    3.12170   3.34509   3.34510   3.48912   3.48915
 Alpha virt. eigenvalues --    3.50723   4.20528   4.20529   6.33116   6.33117
 Alpha virt. eigenvalues --    6.34768   6.40557   6.40557   6.41957   6.46589
 Alpha virt. eigenvalues --    6.84590   6.84591   9.06532   9.08140   9.08141
 Alpha virt. eigenvalues --    9.08677   9.18165   9.18165   9.20207   9.24175
 Alpha virt. eigenvalues --    9.24176   9.43968   9.61110   9.61110   9.64740
 Alpha virt. eigenvalues --    9.81563   9.81563  23.99914  66.87386  66.87386
 Alpha virt. eigenvalues --   66.94244
  Beta  occ. eigenvalues --  -24.87706 -24.87705 -24.87705 -10.54007  -1.45481
  Beta  occ. eigenvalues --   -1.36894  -1.36893  -0.81339  -0.71686  -0.71685
  Beta  occ. eigenvalues --   -0.65344  -0.58839  -0.58839  -0.55560  -0.55560
  Beta  occ. eigenvalues --   -0.53543
  Beta virt. eigenvalues --   -0.03405   0.09634   0.10998   0.10998   0.12050
  Beta virt. eigenvalues --    0.26768   0.27258   0.27258   0.30952   0.30953
  Beta virt. eigenvalues --    0.31938   0.32797   0.32799   0.36113   0.39698
  Beta virt. eigenvalues --    0.39698   0.40000   0.40251   0.47603   0.47605
  Beta virt. eigenvalues --    0.62888   0.67266   0.67267   0.83717   0.91895
  Beta virt. eigenvalues --    0.91895   1.05956   1.18486   1.18487   1.32106
  Beta virt. eigenvalues --    1.32107   1.35985   1.37166   1.37167   1.43748
  Beta virt. eigenvalues --    1.45450   1.51436   1.51437   1.88276   1.88276
  Beta virt. eigenvalues --    2.02712   2.02978   2.02978   2.04269   2.07812
  Beta virt. eigenvalues --    2.11757   2.11758   2.19766   2.36807   2.36808
  Beta virt. eigenvalues --    2.47499   2.66296   2.66297   2.79708   2.79709
  Beta virt. eigenvalues --    2.92210   3.16489   3.39753   3.39755   3.50850
  Beta virt. eigenvalues --    3.50852   3.55514   4.22309   4.22310   6.33855
  Beta virt. eigenvalues --    6.33855   6.35568   6.41107   6.41108   6.42217
  Beta virt. eigenvalues --    6.47411   6.85412   6.85414   9.07642   9.08854
  Beta virt. eigenvalues --    9.08855   9.09913   9.19068   9.19068   9.20503
  Beta virt. eigenvalues --    9.25382   9.25382   9.44791   9.61830   9.61830
  Beta virt. eigenvalues --    9.65503   9.82262   9.82262  24.02378  66.87630
  Beta virt. eigenvalues --   66.87630  66.94489
          Condensed to atoms (all electrons):
               1          2          3          4
     1  F    9.094231   0.018563   0.120379   0.018566
     2  F    0.018563   9.094240   0.120373   0.018561
     3  C    0.120379   0.120373   4.883635   0.120376
     4  F    0.018566   0.018561   0.120376   9.094257
          Atomic-Atomic Spin Densities.
               1          2          3          4
     1  F    0.165932   0.019628  -0.172859   0.019624
     2  F    0.019628   0.165936  -0.172871   0.019625
     3  C   -0.172859  -0.172871   1.421597  -0.172840
     4  F    0.019624   0.019625  -0.172840   0.165922
 Mulliken charges and spin densities:
               1          2
     1  F   -0.251740   0.032325
     2  F   -0.251738   0.032318
     3  C    0.755238   0.903027
     4  F   -0.251761   0.032330
 Sum of Mulliken charges =  -0.00000   1.00000
 Mulliken charges and spin densities with hydrogens summed into heavy atoms:
               1          2
     1  F   -0.251740   0.032325
     2  F   -0.251738   0.032318
     3  C    0.755238   0.903027
     4  F   -0.251761   0.032330
 Electronic spatial extent (au):  <R**2>=            200.0896
 Charge=             -0.0000 electrons
 Dipole moment (field-independent basis, Debye):
    X=              0.0000    Y=              0.0001    Z=              0.2949  Tot=              0.2949
 Quadrupole moment (field-independent basis, Debye-Ang):
   XX=            -20.9486   YY=            -20.9485   ZZ=            -19.6940
   XY=              0.0000   XZ=              0.0000   YZ=             -0.0000
 Traceless Quadrupole moment (field-independent basis, Debye-Ang):
   XX=             -0.4182   YY=             -0.4181   ZZ=              0.8364
   XY=              0.0000   XZ=              0.0000   YZ=             -0.0000
 Octapole moment (field-independent basis, Debye-Ang**2):
  XXX=             -0.7566  YYY=              0.0648  ZZZ=             -2.8244  XYY=              0.7564
  XXY=             -0.0646  XXZ=             -0.6606  XZZ=             -0.0001  YZZ=              0.0000
  YYZ=             -0.6607  XYZ=             -0.0000
 Hexadecapole moment (field-independent basis, Debye-Ang**3):
 XXXX=            -82.2211 YYYY=            -82.2189 ZZZZ=            -19.7521 XXXY=              0.0001
 XXXZ=             -0.3501 YYYX=              0.0001 YYYZ=              0.0299 ZZZX=              0.0000
 ZZZY=             -0.0001 XXYY=            -27.4067 XXZZ=            -16.7068 YYZZ=            -16.7064
 XXYZ=             -0.0299 YYXZ=              0.3502 ZZXY=              0.0000
 N-N= 1.244233755829D+02 E-N=-1.052261478255D+03  KE= 3.367806112139D+02
                          Isotropic Fermi Contact Couplings
        Atom                 a.u.       MegaHertz       Gauss      10(-4) cm-1
     1  F(19)              0.09099     382.83904     136.60649     127.70136
     2  F(19)              0.09099     382.84730     136.60944     127.70411
     3  C(13)              0.62993     708.15888     252.68870     236.21638
     4  F(19)              0.09100     382.86668     136.61635     127.71058
 --------------------------------------------------------
       Center         ----  Spin Dipole Couplings  ----
                      3XX-RR        3YY-RR        3ZZ-RR
 --------------------------------------------------------
     1   Atom       -0.355238     -0.328222      0.683461
     2   Atom       -0.352828     -0.330654      0.683482
     3   Atom       -0.488341     -0.488319      0.976660
     4   Atom       -0.317120     -0.366335      0.683456
 --------------------------------------------------------
                        XY            XZ            YZ
 --------------------------------------------------------
     1   Atom        0.020595      0.137159      0.253961
     2   Atom       -0.021994      0.151387     -0.245793
     3   Atom        0.000021      0.000025     -0.000015
     4   Atom        0.001419     -0.288567     -0.008207
 --------------------------------------------------------


 ---------------------------------------------------------------------------------
              Anisotropic Spin Dipole Couplings in Principal Axis System
 ---------------------------------------------------------------------------------

       Atom             a.u.   MegaHertz   Gauss  10(-4) cm-1        Axes

              Baa    -0.3944  -198.074   -70.678   -66.070  0.4591  0.8499 -0.2587
     1 F(19)  Bbb    -0.3664  -183.995   -65.654   -61.374  0.8798 -0.4753  0.0000
              Bcc     0.7608   382.069   136.332   127.445  0.1229  0.2276  0.9660
 
              Baa    -0.3944  -198.088   -70.683   -66.075 -0.5067  0.8224  0.2587
     2 F(19)  Bbb    -0.3664  -184.001   -65.656   -61.376  0.8514  0.5246  0.0000
              Bcc     0.7608   382.089   136.339   127.451  0.1357 -0.2203  0.9660
 
              Baa    -0.4884   -65.532   -23.384   -21.859  0.8585 -0.5129 -0.0000
     3 C(13)  Bbb    -0.4883   -65.526   -23.381   -21.857  0.5129  0.8585 -0.0000
              Bcc     0.9767   131.058    46.765    43.716  0.0000 -0.0000  1.0000
 
              Baa    -0.3944  -198.077   -70.679   -66.071  0.9656  0.0268  0.2587
     4 F(19)  Bbb    -0.3664  -184.004   -65.657   -61.377 -0.0278  0.9996  0.0002
              Bcc     0.7608   382.080   136.336   127.448 -0.2586 -0.0074  0.9660
 

 ---------------------------------------------------------------------------------

 1\1\GINC-CCLEARNH3\FOpt\UwB97XD\6-311+G(2d,2p)\C1F3(2)\RAPPE\01-Apr-20
 22\0\\# opt freq uwb97xd/6-311+g(2d,2p) geom=connectivity\\Title Card 
 Required\\0,2\F,2.6951104829,1.249654129,0.1008442748\F,2.6950061587,-
 0.7121335453,1.0318577292\C,2.2993870613,-0.0000051526,-0.0000158735\F
 ,2.6952012971,-0.5375307511,-1.1326308905\\Version=EM64M-G16RevA.03\St
 ate=2-A\HF=-337.5800153\S2=0.751966\S2-1=0.\S2A=0.750003\RMSD=3.138e-0
 9\RMSF=1.299e-05\Dipole=-0.1160278,-0.0000262,-0.0000059\Quadrupole=0.
 6218259,-0.3108714,-0.3109546,-0.0000152,0.0001085,-0.0000119\PG=C01 [
 X(C1F3)]\\@


 FROM WHENCE IT HAPPENS, THAT THEY WHICH TRUST TO BOOKS, DO AS THEY THAT CAST UP MANY LITTLE SUMMS INTO GREATER,
 WITHOUT CONSIDERING WETHER THOSE LITTLE SUMMES WERE RIGHTLY CAST UP OR NOT...
 AND AT LAST FINDING THE ERROUR VISIBLE, AND NOT MISTRUSTING THEIR FIRST GROUNDS,
 KNOW NOT WHICH WAY TO CLEERE THEMSELVES...
 BUT SPEND TIME IN FLUTTERING OVER THEIR BOOKES....
 AS BIRDS THAT ENTERING BY THE CHIMNEY, AND FINDING THEMSELVES INCLOSED IN A CHAMBER,
 FLUTTER AT THE FALSE LIGHT OF A GLASSE WINDOW,
 FOR WANT OF WIT TO CONSIDER WHICH WAY THEY CAME IN....
           LEVIATHAN
 Job cpu time:       0 days  0 hours  3 minutes  7.1 seconds.
 Elapsed time:       0 days  0 hours  0 minutes 25.8 seconds.
 File lengths (MBytes):  RWF=     14 Int=      0 D2E=      0 Chk=      2 Scr=      1
 Normal termination of Gaussian 16 at Fri Apr  1 08:44:53 2022.
 Link1:  Proceeding to internal job step number  2.
 ----------------------------------------------------------------------
 #N Geom=AllCheck Guess=TCheck SCRF=Check GenChk UwB97XD/6-311+G(2d,2p)
  Freq
 ----------------------------------------------------------------------
 1/10=4,29=7,30=1,38=1,40=1/1,3;
 2/12=2,40=1/2;
 3/5=4,6=6,7=212,11=2,14=-4,25=1,30=1,70=2,71=2,74=-58,116=2,140=1/1,2,3;
 4/5=101/1;
 5/5=2,38=6,98=1/2;
 8/6=4,10=90,11=11/1;
 11/6=1,8=1,9=11,15=111,16=1/1,2,10;
 10/6=1/2;
 6/7=2,8=2,9=2,10=2,28=1/1;
 7/8=1,10=1,25=1/1,2,3,16;
 1/10=4,30=1/3;
 99//99;
 Structure from the checkpoint file:  "cf3.chk"
 -------------------
 Title Card Required
 -------------------
 Charge =  0 Multiplicity = 2
 Redundant internal coordinates found in file.  (old form).
 F,0,2.6951104829,1.249654129,0.1008442748
 F,0,2.6950061587,-0.7121335453,1.0318577292
 C,0,2.2993870613,-0.0000051526,-0.0000158735
 F,0,2.6952012971,-0.5375307511,-1.1326308905
 Recover connectivity data from disk.

 GradGradGradGradGradGradGradGradGradGradGradGradGradGradGradGradGradGrad
 Berny optimization.
 Initialization pass.
                           ----------------------------
                           !    Initial Parameters    !
                           ! (Angstroms and Degrees)  !
 --------------------------                            --------------------------
 ! Name  Definition              Value          Derivative Info.                !
 --------------------------------------------------------------------------------
 ! R1    R(1,3)                  1.3147         calculate D2E/DX2 analytically  !
 ! R2    R(2,3)                  1.3147         calculate D2E/DX2 analytically  !
 ! R3    R(3,4)                  1.3147         calculate D2E/DX2 analytically  !
 ! A1    A(1,3,2)              111.3512         calculate D2E/DX2 analytically  !
 ! A2    A(1,3,4)              111.3525         calculate D2E/DX2 analytically  !
 ! A3    A(2,3,4)              111.353          calculate D2E/DX2 analytically  !
 ! D1    D(1,3,4,2)            124.9295         calculate D2E/DX2 analytically  !
 --------------------------------------------------------------------------------
 Trust Radius=3.00D-01 FncErr=1.00D-07 GrdErr=1.00D-07 EigMax=2.50D+02 EigMin=1.00D-04
 Number of steps in this run=      2 maximum allowed number of steps=      2.
 GradGradGradGradGradGradGradGradGradGradGradGradGradGradGradGradGradGrad

                          Input orientation:                          
 ---------------------------------------------------------------------
 Center     Atomic      Atomic             Coordinates (Angstroms)
 Number     Number       Type             X           Y           Z
 ---------------------------------------------------------------------
      1          9           0        2.695110    1.249654    0.100844
      2          9           0        2.695006   -0.712134    1.031858
      3          6           0        2.299387   -0.000005   -0.000016
      4          9           0        2.695201   -0.537531   -1.132631
 ---------------------------------------------------------------------
                    Distance matrix (angstroms):
                    1          2          3          4
     1  F    0.000000
     2  F    2.171496   0.000000
     3  C    1.314693   1.314688   0.000000
     4  F    2.171518   2.171520   1.314694   0.000000
 Stoichiometry    CF3(2)
 Framework group  C1[X(CF3)]
 Deg. of freedom     6
 Full point group                 C1      NOp   1
 Largest Abelian subgroup         C1      NOp   1
 Largest concise Abelian subgroup C1      NOp   1
                         Standard orientation:                         
 ---------------------------------------------------------------------
 Center     Atomic      Atomic             Coordinates (Angstroms)
 Number     Number       Type             X           Y           Z
 ---------------------------------------------------------------------
      1          9           0       -0.595782   -1.103112   -0.071948
      2          9           0       -0.657447    1.067509   -0.071949
      3          6           0        0.000005    0.000003    0.323770
      4          9           0        1.253224    0.035601   -0.071950
 ---------------------------------------------------------------------
 Rotational constants (GHZ):          10.9047618          10.9044722           5.6412570
 Standard basis: 6-311+G(2d,2p) (5D, 7F)
 There are   116 symmetry adapted cartesian basis functions of A   symmetry.
 There are   108 symmetry adapted basis functions of A   symmetry.
   108 basis functions,   168 primitive gaussians,   116 cartesian basis functions
    17 alpha electrons       16 beta electrons
       nuclear repulsion energy       124.4235551952 Hartrees.
 NAtoms=    4 NActive=    4 NUniq=    4 SFac= 1.00D+00 NAtFMM=   60 NAOKFM=F Big=F
 Integral buffers will be    131072 words long.
 Raffenetti 2 integral format.
 Two-electron integral symmetry is turned on.
 Nuclear repulsion after empirical dispersion term =      124.4233755829 Hartrees.
 One-electron integrals computed using PRISM.
 NBasis=   108 RedAO= T EigKep=  1.80D-03  NBF=   108
 NBsUse=   108 1.00D-06 EigRej= -1.00D+00 NBFU=   108
 Initial guess from the checkpoint file:  "cf3.chk"
 B after Tr=    -0.000000    0.000000    0.000000
         Rot=    1.000000    0.000000   -0.000000   -0.000000 Ang=   0.00 deg.
 Initial guess <Sx>= 0.0000 <Sy>= 0.0000 <Sz>= 0.5000 <S**2>= 0.7520 S= 0.5010
 Keep R1 and R2 ints in memory in canonical form, NReq=76835404.
 Requested convergence on RMS density matrix=1.00D-08 within 128 cycles.
 Requested convergence on MAX density matrix=1.00D-06.
 Requested convergence on             energy=1.00D-06.
 No special actions if energy rises.
 SCF Done:  E(UwB97XD) =  -337.580015312     A.U. after    1 cycles
            NFock=  1  Conv=0.13D-08     -V/T= 2.0024
 <Sx>= 0.0000 <Sy>= 0.0000 <Sz>= 0.5000 <S**2>= 0.7520 S= 0.5010
 <L.S>= 0.000000000000E+00
 Annihilation of the first spin contaminant:
 S**2 before annihilation     0.7520,   after     0.7500
 DoSCS=F DFT=T ScalE2(SS,OS)=  1.000000  1.000000
 Range of M.O.s used for correlation:     1   108
 NBasis=   108 NAE=    17 NBE=    16 NFC=     0 NFV=     0
 NROrb=    108 NOA=    17 NOB=    16 NVA=    91 NVB=    92

 **** Warning!!: The largest alpha MO coefficient is  0.12853416D+02


 **** Warning!!: The largest beta MO coefficient is  0.12505717D+02

 Symmetrizing basis deriv contribution to polar:
 IMax=3 JMax=2 DiffMx= 0.00D+00
 G2DrvN: will do     5 centers at a time, making    1 passes.
 Calling FoFCou, ICntrl=  3107 FMM=F I1Cent=   0 AccDes= 0.00D+00.
 End of G2Drv F.D. properties file   721 does not exist.
 End of G2Drv F.D. properties file   722 does not exist.
 End of G2Drv F.D. properties file   788 does not exist.
          IDoAtm=1111
          Differentiating once with respect to electric field.
                with respect to dipole field.
          Differentiating once with respect to nuclear coordinates.
 Keep R1 and R2 ints in memory in canonical form, NReq=76811433.
          There are    15 degrees of freedom in the 1st order CPHF.  IDoFFX=6 NUNeed=     3.
     12 vectors produced by pass  0 Test12= 2.01D-14 6.67D-09 XBig12= 9.73D+00 1.09D+00.
 AX will form    12 AO Fock derivatives at one time.
     12 vectors produced by pass  1 Test12= 2.01D-14 6.67D-09 XBig12= 1.71D+00 4.58D-01.
     12 vectors produced by pass  2 Test12= 2.01D-14 6.67D-09 XBig12= 1.05D-01 1.28D-01.
     12 vectors produced by pass  3 Test12= 2.01D-14 6.67D-09 XBig12= 3.11D-03 2.23D-02.
     12 vectors produced by pass  4 Test12= 2.01D-14 6.67D-09 XBig12= 8.03D-05 2.31D-03.
     12 vectors produced by pass  5 Test12= 2.01D-14 6.67D-09 XBig12= 1.62D-06 3.32D-04.
     12 vectors produced by pass  6 Test12= 2.01D-14 6.67D-09 XBig12= 1.90D-08 3.52D-05.
     12 vectors produced by pass  7 Test12= 2.01D-14 6.67D-09 XBig12= 1.28D-10 2.71D-06.
      3 vectors produced by pass  8 Test12= 2.01D-14 6.67D-09 XBig12= 8.37D-13 1.98D-07.
      3 vectors produced by pass  9 Test12= 2.01D-14 6.67D-09 XBig12= 8.09D-15 2.32D-08.
 InvSVY:  IOpt=1 It=  1 EMax= 1.33D-15
 Solved reduced A of dimension   102 with    12 vectors.
 Isotropic polarizability for W=    0.000000       15.99 Bohr**3.
 End of Minotr F.D. properties file   721 does not exist.
 End of Minotr F.D. properties file   722 does not exist.
 End of Minotr F.D. properties file   788 does not exist.

 **********************************************************************

            Population analysis using the SCF density.

 **********************************************************************

 Orbital symmetries:
 Alpha Orbitals:
       Occupied  (A) (A) (A) (A) (A) (A) (A) (A) (A) (A) (A) (A)
                 (A) (A) (A) (A) (A)
       Virtual   (A) (A) (A) (A) (A) (A) (A) (A) (A) (A) (A) (A)
                 (A) (A) (A) (A) (A) (A) (A) (A) (A) (A) (A) (A)
                 (A) (A) (A) (A) (A) (A) (A) (A) (A) (A) (A) (A)
                 (A) (A) (A) (A) (A) (A) (A) (A) (A) (A) (A) (A)
                 (A) (A) (A) (A) (A) (A) (A) (A) (A) (A) (A) (A)
                 (A) (A) (A) (A) (A) (A) (A) (A) (A) (A) (A) (A)
                 (A) (A) (A) (A) (A) (A) (A) (A) (A) (A) (A) (A)
                 (A) (A) (A) (A) (A) (A) (A)
 Beta  Orbitals:
       Occupied  (A) (A) (A) (A) (A) (A) (A) (A) (A) (A) (A) (A)
                 (A) (A) (A) (A)
       Virtual   (A) (A) (A) (A) (A) (A) (A) (A) (A) (A) (A) (A)
                 (A) (A) (A) (A) (A) (A) (A) (A) (A) (A) (A) (A)
                 (A) (A) (A) (A) (A) (A) (A) (A) (A) (A) (A) (A)
                 (A) (A) (A) (A) (A) (A) (A) (A) (A) (A) (A) (A)
                 (A) (A) (A) (A) (A) (A) (A) (A) (A) (A) (A) (A)
                 (A) (A) (A) (A) (A) (A) (A) (A) (A) (A) (A) (A)
                 (A) (A) (A) (A) (A) (A) (A) (A) (A) (A) (A) (A)
                 (A) (A) (A) (A) (A) (A) (A) (A)
 The electronic state is 2-A.
 Alpha  occ. eigenvalues --  -24.88025 -24.88025 -24.88025 -10.55441  -1.46497
 Alpha  occ. eigenvalues --   -1.37764  -1.37764  -0.83123  -0.72727  -0.72727
 Alpha  occ. eigenvalues --   -0.69199  -0.59880  -0.59880  -0.56517  -0.56517
 Alpha  occ. eigenvalues --   -0.53868  -0.36568
 Alpha virt. eigenvalues --    0.08101   0.10089   0.10302   0.10302   0.25213
 Alpha virt. eigenvalues --    0.25213   0.25615   0.29904   0.29904   0.31608
 Alpha virt. eigenvalues --    0.32183   0.32185   0.35395   0.39174   0.39174
 Alpha virt. eigenvalues --    0.39573   0.39856   0.47471   0.47472   0.59742
 Alpha virt. eigenvalues --    0.66802   0.66803   0.82212   0.90142   0.90142
 Alpha virt. eigenvalues --    1.03955   1.17880   1.17880   1.31771   1.31771
 Alpha virt. eigenvalues --    1.35649   1.36433   1.36433   1.43109   1.45270
 Alpha virt. eigenvalues --    1.51239   1.51240   1.88044   1.88045   2.02384
 Alpha virt. eigenvalues --    2.02679   2.02680   2.02959   2.07218   2.11261
 Alpha virt. eigenvalues --    2.11263   2.19724   2.35857   2.35858   2.45051
 Alpha virt. eigenvalues --    2.65218   2.65219   2.78525   2.78526   2.89077
 Alpha virt. eigenvalues --    3.12170   3.34509   3.34510   3.48912   3.48915
 Alpha virt. eigenvalues --    3.50723   4.20528   4.20529   6.33116   6.33117
 Alpha virt. eigenvalues --    6.34768   6.40557   6.40557   6.41957   6.46589
 Alpha virt. eigenvalues --    6.84590   6.84591   9.06532   9.08140   9.08141
 Alpha virt. eigenvalues --    9.08677   9.18165   9.18165   9.20207   9.24175
 Alpha virt. eigenvalues --    9.24176   9.43968   9.61110   9.61110   9.64740
 Alpha virt. eigenvalues --    9.81563   9.81563  23.99914  66.87386  66.87386
 Alpha virt. eigenvalues --   66.94244
  Beta  occ. eigenvalues --  -24.87706 -24.87705 -24.87705 -10.54007  -1.45481
  Beta  occ. eigenvalues --   -1.36894  -1.36893  -0.81339  -0.71686  -0.71685
  Beta  occ. eigenvalues --   -0.65344  -0.58839  -0.58839  -0.55560  -0.55560
  Beta  occ. eigenvalues --   -0.53543
  Beta virt. eigenvalues --   -0.03405   0.09634   0.10998   0.10998   0.12050
  Beta virt. eigenvalues --    0.26768   0.27258   0.27258   0.30952   0.30953
  Beta virt. eigenvalues --    0.31938   0.32797   0.32799   0.36113   0.39698
  Beta virt. eigenvalues --    0.39698   0.40000   0.40251   0.47603   0.47605
  Beta virt. eigenvalues --    0.62888   0.67266   0.67267   0.83717   0.91895
  Beta virt. eigenvalues --    0.91895   1.05956   1.18486   1.18487   1.32106
  Beta virt. eigenvalues --    1.32107   1.35985   1.37166   1.37167   1.43748
  Beta virt. eigenvalues --    1.45450   1.51436   1.51437   1.88276   1.88276
  Beta virt. eigenvalues --    2.02712   2.02978   2.02978   2.04269   2.07812
  Beta virt. eigenvalues --    2.11757   2.11758   2.19766   2.36807   2.36808
  Beta virt. eigenvalues --    2.47499   2.66296   2.66297   2.79708   2.79709
  Beta virt. eigenvalues --    2.92210   3.16489   3.39753   3.39755   3.50850
  Beta virt. eigenvalues --    3.50852   3.55514   4.22309   4.22310   6.33855
  Beta virt. eigenvalues --    6.33855   6.35568   6.41107   6.41108   6.42217
  Beta virt. eigenvalues --    6.47411   6.85412   6.85414   9.07642   9.08854
  Beta virt. eigenvalues --    9.08855   9.09913   9.19068   9.19068   9.20503
  Beta virt. eigenvalues --    9.25382   9.25382   9.44791   9.61830   9.61830
  Beta virt. eigenvalues --    9.65503   9.82262   9.82262  24.02378  66.87630
  Beta virt. eigenvalues --   66.87630  66.94489
          Condensed to atoms (all electrons):
               1          2          3          4
     1  F    9.094231   0.018563   0.120379   0.018566
     2  F    0.018563   9.094240   0.120373   0.018561
     3  C    0.120379   0.120373   4.883634   0.120376
     4  F    0.018566   0.018561   0.120376   9.094257
          Atomic-Atomic Spin Densities.
               1          2          3          4
     1  F    0.165932   0.019628  -0.172859   0.019624
     2  F    0.019628   0.165936  -0.172871   0.019625
     3  C   -0.172859  -0.172871   1.421597  -0.172840
     4  F    0.019624   0.019625  -0.172840   0.165922
 Mulliken charges and spin densities:
               1          2
     1  F   -0.251740   0.032325
     2  F   -0.251738   0.032318
     3  C    0.755238   0.903027
     4  F   -0.251761   0.032330
 Sum of Mulliken charges =  -0.00000   1.00000
 Mulliken charges and spin densities with hydrogens summed into heavy atoms:
               1          2
     1  F   -0.251740   0.032325
     2  F   -0.251738   0.032318
     3  C    0.755238   0.903027
     4  F   -0.251761   0.032330
 APT charges:
               1
     1  F   -0.502601
     2  F   -0.502532
     3  C    1.507646
     4  F   -0.502514
 Sum of APT charges =   0.00000
 APT charges with hydrogens summed into heavy atoms:
               1
     1  F   -0.502601
     2  F   -0.502532
     3  C    1.507646
     4  F   -0.502514
 Electronic spatial extent (au):  <R**2>=            200.0896
 Charge=              0.0000 electrons
 Dipole moment (field-independent basis, Debye):
    X=              0.0000    Y=              0.0001    Z=              0.2949  Tot=              0.2949
 Quadrupole moment (field-independent basis, Debye-Ang):
   XX=            -20.9486   YY=            -20.9485   ZZ=            -19.6940
   XY=              0.0000   XZ=              0.0000   YZ=             -0.0000
 Traceless Quadrupole moment (field-independent basis, Debye-Ang):
   XX=             -0.4182   YY=             -0.4181   ZZ=              0.8364
   XY=              0.0000   XZ=              0.0000   YZ=             -0.0000
 Octapole moment (field-independent basis, Debye-Ang**2):
  XXX=             -0.7566  YYY=              0.0648  ZZZ=             -2.8244  XYY=              0.7564
  XXY=             -0.0646  XXZ=             -0.6606  XZZ=             -0.0001  YZZ=              0.0000
  YYZ=             -0.6607  XYZ=             -0.0000
 Hexadecapole moment (field-independent basis, Debye-Ang**3):
 XXXX=            -82.2211 YYYY=            -82.2189 ZZZZ=            -19.7521 XXXY=              0.0001
 XXXZ=             -0.3501 YYYX=              0.0001 YYYZ=              0.0299 ZZZX=              0.0000
 ZZZY=             -0.0001 XXYY=            -27.4067 XXZZ=            -16.7068 YYZZ=            -16.7064
 XXYZ=             -0.0299 YYXZ=              0.3502 ZZXY=              0.0000
 N-N= 1.244233755829D+02 E-N=-1.052261478456D+03  KE= 3.367806113142D+02
  Exact polarizability:  17.264   0.000  17.263  -0.001   0.001  13.450
 Approx polarizability:  17.545   0.000  17.545   0.000   0.000  13.242
                          Isotropic Fermi Contact Couplings
        Atom                 a.u.       MegaHertz       Gauss      10(-4) cm-1
     1  F(19)              0.09099     382.83897     136.60646     127.70133
     2  F(19)              0.09099     382.84721     136.60941     127.70408
     3  C(13)              0.62993     708.15899     252.68874     236.21641
     4  F(19)              0.09100     382.86664     136.61634     127.71056
 --------------------------------------------------------
       Center         ----  Spin Dipole Couplings  ----
                      3XX-RR        3YY-RR        3ZZ-RR
 --------------------------------------------------------
     1   Atom       -0.355238     -0.328222      0.683461
     2   Atom       -0.352828     -0.330654      0.683482
     3   Atom       -0.488341     -0.488319      0.976660
     4   Atom       -0.317121     -0.366335      0.683456
 --------------------------------------------------------
                        XY            XZ            YZ
 --------------------------------------------------------
     1   Atom        0.020595      0.137159      0.253961
     2   Atom       -0.021994      0.151387     -0.245793
     3   Atom        0.000021      0.000025     -0.000015
     4   Atom        0.001419     -0.288566     -0.008207
 --------------------------------------------------------


 ---------------------------------------------------------------------------------
              Anisotropic Spin Dipole Couplings in Principal Axis System
 ---------------------------------------------------------------------------------

       Atom             a.u.   MegaHertz   Gauss  10(-4) cm-1        Axes

              Baa    -0.3944  -198.074   -70.678   -66.070  0.4591  0.8499 -0.2587
     1 F(19)  Bbb    -0.3664  -183.995   -65.654   -61.374  0.8798 -0.4753  0.0000
              Bcc     0.7608   382.069   136.332   127.445  0.1229  0.2276  0.9660
 
              Baa    -0.3944  -198.088   -70.683   -66.075 -0.5067  0.8224  0.2587
     2 F(19)  Bbb    -0.3664  -184.001   -65.656   -61.376  0.8514  0.5246  0.0000
              Bcc     0.7608   382.089   136.339   127.451  0.1357 -0.2203  0.9660
 
              Baa    -0.4884   -65.532   -23.384   -21.859  0.8585 -0.5128 -0.0000
     3 C(13)  Bbb    -0.4883   -65.526   -23.381   -21.857  0.5128  0.8585 -0.0000
              Bcc     0.9767   131.058    46.765    43.716  0.0000 -0.0000  1.0000
 
              Baa    -0.3944  -198.077   -70.679   -66.071  0.9656  0.0268  0.2587
     4 F(19)  Bbb    -0.3664  -184.003   -65.657   -61.377 -0.0278  0.9996  0.0002
              Bcc     0.7608   382.080   136.336   127.448 -0.2586 -0.0074  0.9660
 

 ---------------------------------------------------------------------------------

 Calling FoFJK, ICntrl=    100127 FMM=F ISym2X=0 I1Cent= 0 IOpClX= 1 NMat=1 NMatS=1 NMatT=0.
 Full mass-weighted force constant matrix:
 Low frequencies ---  -11.0364   -0.0008   -0.0001    0.0014    7.3115   10.8217
 Low frequencies ---  510.4143  510.4714  702.5138
 Diagonal vibrational polarizability:
        6.6294239       6.6203461       1.6452095
 Harmonic frequencies (cm**-1), IR intensities (KM/Mole), Raman scattering
 activities (A**4/AMU), depolarization ratios for plane and unpolarized
 incident light, reduced masses (AMU), force constants (mDyne/A),
 and normal coordinates:
                      1                      2                      3
                      A                      A                      A
 Frequencies --    510.4143               510.4713               702.5138
 Red. masses --     18.2753                18.2762                16.2741
 Frc consts  --      2.8052                 2.8059                 4.7321
 IR Inten    --      1.4412                 1.4354                13.0208
  Atom  AN      X      Y      Z        X      Y      Z        X      Y      Z
     1   9    -0.28  -0.39   0.04     0.51  -0.33   0.00     0.20   0.38  -0.13
     2   9     0.57   0.02  -0.02     0.10   0.51   0.03     0.23  -0.37  -0.13
     3   6    -0.12  -0.30  -0.00    -0.30   0.12   0.00     0.00  -0.00   0.62
     4   9    -0.21   0.55  -0.02    -0.42  -0.26  -0.04    -0.43  -0.01  -0.13
                      4                      5                      6
                      A                      A                      A
 Frequencies --   1090.8980              1258.9568              1259.4243
 Red. masses --     14.4544                13.3220                13.3220
 Frc consts  --     10.1349                12.4406                12.4498
 IR Inten    --     41.3566               381.7359               381.4117
  Atom  AN      X      Y      Z        X      Y      Z        X      Y      Z
     1   9    -0.14  -0.26  -0.17    -0.14  -0.19  -0.08    -0.08  -0.22  -0.09
     2   9    -0.16   0.25  -0.17    -0.09   0.05  -0.03     0.16  -0.28   0.12
     3   6    -0.00  -0.00   0.81     0.86   0.25   0.00    -0.25   0.86   0.00
     4   9     0.30   0.01  -0.17    -0.32  -0.02   0.12     0.09  -0.04  -0.03

 -------------------
 - Thermochemistry -
 -------------------
 Temperature   298.150 Kelvin.  Pressure   1.00000 Atm.
 Atom     1 has atomic number  9 and mass  18.99840
 Atom     2 has atomic number  9 and mass  18.99840
 Atom     3 has atomic number  6 and mass  12.00000
 Atom     4 has atomic number  9 and mass  18.99840
 Molecular mass:    68.99521 amu.
 Principal axes and moments of inertia in atomic units:
                           1         2         3
     Eigenvalues --   165.50029 165.50468 319.91828
           X            1.00000   0.00000   0.00000
           Y           -0.00000   1.00000   0.00000
           Z           -0.00000  -0.00000   1.00000
 This molecule is an asymmetric top.
 Rotational symmetry number  1.
 Rotational temperatures (Kelvin)      0.52335     0.52333     0.27074
 Rotational constants (GHZ):          10.90476    10.90447     5.64126
 Zero-point vibrational energy      31896.5 (Joules/Mol)
                                    7.62345 (Kcal/Mol)
 Warning -- explicit consideration of   2 degrees of freedom as
           vibrations may cause significant error
 Vibrational temperatures:    734.37   734.45  1010.76  1569.56  1811.36
          (Kelvin)           1812.03
 
 Zero-point correction=                           0.012149 (Hartree/Particle)
 Thermal correction to Energy=                    0.015578
 Thermal correction to Enthalpy=                  0.016522
 Thermal correction to Gibbs Free Energy=        -0.014539
 Sum of electronic and zero-point Energies=           -337.567867
 Sum of electronic and thermal Energies=              -337.564437
 Sum of electronic and thermal Enthalpies=            -337.563493
 Sum of electronic and thermal Free Energies=         -337.594554
 
                     E (Thermal)             CV                S
                      KCal/Mol        Cal/Mol-Kelvin    Cal/Mol-Kelvin
 Total                    9.775              9.866             65.373
 Electronic               0.000              0.000              1.377
 Translational            0.889              2.981             38.612
 Rotational               0.889              2.981             23.687
 Vibrational              7.998              3.905              1.698
 Vibration     1          0.866              1.227              0.633
 Vibration     2          0.866              1.227              0.632
                       Q            Log10(Q)             Ln(Q)
 Total Bot       0.486749D+07          6.687305         15.398089
 Total V=0       0.188508D+13         12.275330         28.264992
 Vib (Bot)       0.322421D-05         -5.491577        -12.644823
 Vib (Bot)    1  0.319011D+00         -0.496195         -1.142530
 Vib (Bot)    2  0.318959D+00         -0.496266         -1.142694
 Vib (V=0)       0.124867D+01          0.096448          0.222081
 Vib (V=0)    1  0.109310D+01          0.038660          0.089018
 Vib (V=0)    2  0.109307D+01          0.038649          0.088992
 Electronic      0.200000D+01          0.301030          0.693147
 Translational   0.225259D+08          7.352682         16.930177
 Rotational      0.335096D+05          4.525170         10.419588
 ***** Axes restored to original set *****
 -------------------------------------------------------------------
 Center     Atomic                   Forces (Hartrees/Bohr)
 Number     Number              X              Y              Z
 -------------------------------------------------------------------
      1        9          -0.000018436   -0.000018551    0.000001744
      2        9          -0.000015813    0.000009641   -0.000007051
      3        6           0.000026881    0.000004881   -0.000004821
      4        9           0.000007368    0.000004029    0.000010128
 -------------------------------------------------------------------
 Cartesian Forces:  Max     0.000026881 RMS     0.000012983
 FormGI is forming the generalized inverse of G from B-inverse, IUseBI=4.

 GradGradGradGradGradGradGradGradGradGradGradGradGradGradGradGradGradGrad
 Berny optimization.
 Internal  Forces:  Max     0.000021214 RMS     0.000011897
 Search for a local minimum.
 Step number   1 out of a maximum of    2
 All quantities printed in internal units (Hartrees-Bohrs-Radians)
 Second derivative matrix not updated -- analytic derivatives used.
 The second derivative matrix:
                          R1        R2        R3        A1        A2
           R1           0.42110
           R2           0.06386   0.42110
           R3           0.06390   0.06388   0.42081
           A1           0.01730   0.01723  -0.03043   0.13088
           A2           0.03211  -0.02675   0.03857  -0.09381   0.27179
           A3          -0.02674   0.03225   0.03868  -0.09376  -0.02708
           D1           0.02668   0.02669   0.01808   0.03074   0.06064
                          A3        D1
           A3           0.27185
           D1           0.06075   0.13129
 ITU=  0
     Eigenvalues ---    0.15295   0.26232   0.29781   0.39382   0.40188
     Eigenvalues ---    0.56005
 Angle between quadratic step and forces=  26.17 degrees.
 Linear search not attempted -- first point.
 Iteration  1 RMS(Cart)=  0.00002527 RMS(Int)=  0.00000000
 Iteration  2 RMS(Cart)=  0.00000000 RMS(Int)=  0.00000000
 Variable       Old X    -DE/DX   Delta X   Delta X   Delta X     New X
                                 (Linear)    (Quad)   (Total)
    R1        2.48441  -0.00002   0.00000  -0.00005  -0.00005   2.48436
    R2        2.48440  -0.00001   0.00000  -0.00003  -0.00003   2.48437
    R3        2.48441  -0.00001   0.00000  -0.00002  -0.00002   2.48439
    A1        1.94345  -0.00000   0.00000   0.00001   0.00001   1.94345
    A2        1.94347   0.00001   0.00000   0.00003   0.00003   1.94350
    A3        1.94348   0.00001   0.00000   0.00002   0.00002   1.94350
    D1        2.18043   0.00001   0.00000   0.00005   0.00005   2.18048
         Item               Value     Threshold  Converged?
 Maximum Force            0.000021     0.000450     YES
 RMS     Force            0.000012     0.000300     YES
 Maximum Displacement     0.000048     0.001800     YES
 RMS     Displacement     0.000025     0.001200     YES
 Predicted change in Energy=-1.250975D-09
 Optimization completed.
    -- Stationary point found.
                           ----------------------------
                           !   Optimized Parameters   !
                           ! (Angstroms and Degrees)  !
 --------------------------                            --------------------------
 ! Name  Definition              Value          Derivative Info.                !
 --------------------------------------------------------------------------------
 ! R1    R(1,3)                  1.3147         -DE/DX =    0.0                 !
 ! R2    R(2,3)                  1.3147         -DE/DX =    0.0                 !
 ! R3    R(3,4)                  1.3147         -DE/DX =    0.0                 !
 ! A1    A(1,3,2)              111.3512         -DE/DX =    0.0                 !
 ! A2    A(1,3,4)              111.3525         -DE/DX =    0.0                 !
 ! A3    A(2,3,4)              111.353          -DE/DX =    0.0                 !
 ! D1    D(1,3,4,2)            124.9295         -DE/DX =    0.0                 !
 --------------------------------------------------------------------------------
 GradGradGradGradGradGradGradGradGradGradGradGradGradGradGradGradGradGrad


 ----------------------------------------------------------------------

 Electric dipole moment (input orientation):
 (Debye = 10**-18 statcoulomb cm , SI units = C m)
                  (au)            (Debye)         (10**-30 SI)
   Tot        0.116028D+00      0.294914D+00      0.983726D+00
   x         -0.116028D+00     -0.294914D+00     -0.983726D+00
   y         -0.263614D-04     -0.670040D-04     -0.223501D-03
   z          0.000000D+00      0.000000D+00      0.000000D+00

 Dipole polarizability, Alpha (input orientation).
 (esu units = cm**3 , SI units = C**2 m**2 J**-1)
 Alpha(0;0):
               (au)            (10**-24 esu)      (10**-40 SI)
   iso        0.159925D+02      0.236985D+01      0.263681D+01
   aniso      0.381307D+01      0.565039D+00      0.628690D+00
   xx         0.134505D+02      0.199315D+01      0.221768D+01
   yx         0.273235D-03      0.404892D-04      0.450503D-04
   yy         0.172632D+02      0.255814D+01      0.284632D+01
   zx        -0.118824D-02     -0.176079D-03     -0.195914D-03
   zy         0.943432D-03      0.139802D-03      0.155551D-03
   zz         0.172639D+02      0.255824D+01      0.284643D+01

 ----------------------------------------------------------------------

 Dipole orientation:
     9          0.18977182          2.36039004         -5.09356681
     9          1.94997455         -1.34645142         -5.09261718
     6         -0.00025155         -0.00099702         -4.34521168
     9         -2.14039102         -1.01742936         -5.09285214

 Electric dipole moment (dipole orientation):
 (Debye = 10**-18 statcoulomb cm , SI units = C m)
                  (au)            (Debye)         (10**-30 SI)
   Tot        0.116028D+00      0.294914D+00      0.983726D+00
   x          0.000000D+00      0.000000D+00      0.000000D+00
   y          0.000000D+00      0.000000D+00      0.000000D+00
   z          0.116028D+00      0.294914D+00      0.983726D+00

 Dipole polarizability, Alpha (dipole orientation).
 (esu units = cm**3 , SI units = C**2 m**2 J**-1)
 Alpha(0;0):
               (au)            (10**-24 esu)      (10**-40 SI)
   iso        0.159925D+02      0.236985D+01      0.263681D+01
   aniso      0.381307D+01      0.565039D+00      0.628690D+00
   xx         0.172639D+02      0.255824D+01      0.284643D+01
   yx         0.943790D-03      0.139855D-03      0.155610D-03
   yy         0.172632D+02      0.255814D+01      0.284632D+01
   zx         0.993653D-03      0.147244D-03      0.163831D-03
   zy        -0.113931D-02     -0.168828D-03     -0.187847D-03
   zz         0.134505D+02      0.199315D+01      0.221768D+01

 ----------------------------------------------------------------------
 1\1\GINC-CCLEARNH3\Freq\UwB97XD\6-311+G(2d,2p)\C1F3(2)\RAPPE\01-Apr-20
 22\0\\#N Geom=AllCheck Guess=TCheck SCRF=Check GenChk UwB97XD/6-311+G(
 2d,2p) Freq\\Title Card Required\\0,2\F,2.6951104829,1.249654129,0.100
 8442748\F,2.6950061587,-0.7121335453,1.0318577292\C,2.2993870613,-0.00
 00051526,-0.0000158735\F,2.6952012971,-0.5375307511,-1.1326308905\\Ver
 sion=EM64M-G16RevA.03\State=2-A\HF=-337.5800153\S2=0.751966\S2-1=0.\S2
 A=0.750003\RMSD=1.252e-09\RMSF=1.298e-05\ZeroPoint=0.0121487\Thermal=0
 .0155782\Dipole=-0.1160279,-0.0000264,-0.0000059\DipoleDeriv=-0.246169
 5,-0.3643083,-0.0292768,-0.070341,-0.9923331,-0.0588723,-0.0055865,-0.
 0587044,-0.2692998,-0.2461133,0.2077088,-0.3007629,0.0401307,-0.500865
 5,0.3423589,-0.057933,0.3422808,-0.7606171,0.7383236,-0.0000064,-0.000
 0361,-0.0000683,1.8921436,0.0003936,-0.0004463,0.0004513,1.892472,-0.2
 460409,0.1566059,0.3300758,0.0302787,-0.398945,-0.2838801,0.0639658,-0
 .2840276,-0.8625551\Polar=13.4504672,0.0002732,17.2632147,-0.0011882,0
 .0009434,17.2638588\Quadrupole=0.6218261,-0.3108717,-0.3109544,-0.0000
 152,0.0001085,-0.0000119\PG=C01 [X(C1F3)]\NImag=0\\0.06316061,0.093262
 16,0.39562402,0.00756734,0.02573577,0.07825814,0.02768942,0.00195536,0
 .01278479,0.06320572,0.00865876,-0.06221433,0.04126094,-0.05316958,0.1
 7988072,0.00959180,0.03904111,0.00338021,0.07695320,-0.15032166,0.2939
 8469,-0.11855122,-0.09916493,-0.00801269,-0.11855912,0.05652432,-0.081
 80688,0.35564238,-0.11206087,-0.28561317,-0.01743452,0.06385254,-0.139
 36654,0.10186181,0.00001261,0.53408256,-0.00907769,-0.01736834,-0.0706
 0327,-0.09247652,0.10183573,-0.21673248,0.00000387,-0.00021519,0.53408
 035,0.02770118,0.00394741,-0.01233945,0.02766397,-0.01201350,-0.004738
 12,-0.11853204,0.04819572,0.10155034,0.06316689,0.01013995,-0.04779653
 ,-0.04956218,-0.01263832,0.02170014,0.00941874,0.04262800,-0.10910286,
 -0.08425220,-0.04012963,0.13519924,-0.00808146,-0.04740854,-0.01103507
 ,0.00273852,0.00722500,-0.08063242,0.08981570,-0.08421210,-0.24674460,
 -0.08447277,0.12439565,0.33841209\\0.00001844,0.00001855,-0.00000174,0
 .00001581,-0.00000964,0.00000705,-0.00002688,-0.00000488,0.00000482,-0
 .00000737,-0.00000403,-0.00001013\\\@


 YOU CANNOT THROW TO THE GROUND THE LETTERS OF
 THE GREEK ALPHABET AND PICK UP THE ILIAD.
        - RUFUS CHOATE, 1799-1859
 Job cpu time:       0 days  0 hours  4 minutes 28.0 seconds.
 Elapsed time:       0 days  0 hours  0 minutes 35.3 seconds.
 File lengths (MBytes):  RWF=     16 Int=      0 D2E=      0 Chk=      2 Scr=      1
 Normal termination of Gaussian 16 at Fri Apr  1 08:45:28 2022.
