Title Card Required                                                     
Freq      RwB97XD                                                     6-311+G(2d)         
Number of atoms                            I                8
Info1-9                                    I   N=           9
          26          26        1002           0           0         100
           6          18        -802
Full Title                                 C   N=           2
Title Card Required     
Route                                      C   N=           4
# opt freq wb97xd/6-311+g(2d) geom=connectivity 
Charge                                     I                0
Multiplicity                               I                1
Number of electrons                        I               18
Number of alpha electrons                  I                9
Number of beta electrons                   I                9
Number of basis functions                  I               72
Number of independent functions            I               72
Number of point charges in /Mol/           I                0
Number of translation vectors              I                0
Atomic numbers                             I   N=           8
           6           1           1           1           6           1
           1           1
Nuclear charges                            R   N=           8
  6.00000000E+00  1.00000000E+00  1.00000000E+00  1.00000000E+00  6.00000000E+00
  1.00000000E+00  1.00000000E+00  1.00000000E+00
Current cartesian coordinates              R   N=          24
 -1.99366542E-17  3.45354788E-17  1.43784962E+00  9.60207395E-01 -1.66332487E+00
  2.19219448E+00 -1.92058529E+00  9.84353579E-05  2.19219448E+00  9.60377890E-01
  1.66322643E+00  2.19219448E+00 -1.67638402E-16 -1.46336787E-17 -1.43784962E+00
 -9.60377890E-01  1.66322643E+00 -2.19219448E+00  1.92058529E+00  9.84353579E-05
 -2.19219448E+00 -9.60207395E-01 -1.66332487E+00 -2.19219448E+00
Number of symbols in /Mol/                 I                0
Int Atom Types                             I   N=           8
           0           0           0           0           0           0
           0           0
Force Field                                I                0
Atom Types                                 C   N=           8
                                                            
                                    
MM charges                                 R   N=           8
  0.00000000E+00  0.00000000E+00  0.00000000E+00  0.00000000E+00  0.00000000E+00
  0.00000000E+00  0.00000000E+00  0.00000000E+00
Integer atomic weights                     I   N=           8
          12           1           1           1          12           1
           1           1
Real atomic weights                        R   N=           8
  1.20000000E+01  1.00782504E+00  1.00782504E+00  1.00782504E+00  1.20000000E+01
  1.00782504E+00  1.00782504E+00  1.00782504E+00
Atom fragment info                         I   N=           8
           0           0           0           0           0           0
           0           0
Atom residue num                           I   N=           8
           0           0           0           0           0           0
           0           0
Nuclear spins                              I   N=           8
           0           1           1           1           0           1
           1           1
Nuclear ZEff                               R   N=           8
 -3.60000000E+00 -1.00000000E+00 -1.00000000E+00 -1.00000000E+00 -3.60000000E+00
 -1.00000000E+00 -1.00000000E+00 -1.00000000E+00
Nuclear ZNuc                               R   N=           8
  6.00000000E+00  1.00000000E+00  1.00000000E+00  1.00000000E+00  6.00000000E+00
  1.00000000E+00  1.00000000E+00  1.00000000E+00
Nuclear QMom                               R   N=           8
  0.00000000E+00  0.00000000E+00  0.00000000E+00  0.00000000E+00  0.00000000E+00
  0.00000000E+00  0.00000000E+00  0.00000000E+00
Nuclear GFac                               R   N=           8
  0.00000000E+00  2.79284600E+00  2.79284600E+00  2.79284600E+00  0.00000000E+00
  2.79284600E+00  2.79284600E+00  2.79284600E+00
MicOpt                                     I   N=           8
          -1          -1          -1          -1          -1          -1
          -1          -1
Number of residues                         I                0
Number of secondary structures             I                0
Redundant internal dimensions              I   N=           4
          28           7          12           9
Redundant internal coordinate indices      I   N=         112
           1           2           0           0           1           3
           0           0           1           4           0           0
           1           5           0           0           5           6
           0           0           5           7           0           0
           5           8           0           0           2           1
           3           0           2           1           4           0
           2           1           5           0           3           1
           4           0           3           1           5           0
           4           1           5           0           1           5
           6           0           1           5           7           0
           1           5           8           0           6           5
           7           0           6           5           8           0
           7           5           8           0           2           1
           5           6           2           1           5           7
           2           1           5           8           3           1
           5           6           3           1           5           7
           3           1           5           8           4           1
           5           6           4           1           5           7
           4           1           5           8
Redundant internal coordinates             R   N=          28
  2.06341562E+00  2.06341562E+00  2.06341562E+00  2.87569924E+00  2.06341562E+00
  2.06341562E+00  2.06341562E+00  1.87499230E+00  1.87499230E+00  1.94505290E+00
  1.87499230E+00  1.94505290E+00  1.94505290E+00  1.94505290E+00  1.94505290E+00
  1.94505290E+00  1.87499230E+00  1.87499230E+00  1.87499230E+00  3.14149015E+00
 -1.04730006E+00  1.04709505E+00  1.04709505E+00  3.14149015E+00 -1.04730006E+00
 -1.04730006E+00  1.04709505E+00  3.14149015E+00
ZRed-IntVec                                I   N=          28
           0           0           0           0           0           0
           0           0           0           0           0           0
           0           0           0           0           0           0
           0           0           0           0           0           0
           0           0           0           0
ZRed-FPVec                                 R   N=          28
  0.00000000E+00  0.00000000E+00  0.00000000E+00  0.00000000E+00  0.00000000E+00
  0.00000000E+00  0.00000000E+00  0.00000000E+00  0.00000000E+00  0.00000000E+00
  0.00000000E+00  0.00000000E+00  0.00000000E+00  0.00000000E+00  0.00000000E+00
  0.00000000E+00  0.00000000E+00  0.00000000E+00  0.00000000E+00  0.00000000E+00
  0.00000000E+00  0.00000000E+00  0.00000000E+00  0.00000000E+00  0.00000000E+00
  0.00000000E+00  0.00000000E+00  0.00000000E+00
ZRed-Constraint1                           R   N=          28
  2.06341562E+00  2.06341562E+00  2.06341562E+00  2.87569924E+00  2.06341562E+00
  2.06341562E+00  2.06341562E+00  1.87499230E+00  1.87499230E+00  1.94505290E+00
  1.87499230E+00  1.94505290E+00  1.94505290E+00  1.94505290E+00  1.94505290E+00
  1.94505290E+00  1.87499230E+00  1.87499230E+00  1.87499230E+00  3.14149015E+00
 -1.04730006E+00  1.04709505E+00  1.04709505E+00  3.14149015E+00 -1.04730006E+00
 -1.04730006E+00  1.04709505E+00  3.14149015E+00
ZRed-Constraint2                           R   N=          28
  2.02200695E+00  2.02200695E+00  2.02200695E+00  2.91017823E+00  2.02200697E+00
  2.02200695E+00  2.02200695E+00  1.91063292E+00  1.91063292E+00  1.91063342E+00
  1.91063376E+00  1.91063320E+00  1.91063320E+00  1.91063292E+00  1.91063292E+00
  1.91063342E+00  1.91063376E+00  1.91063319E+00  1.91063321E+00  3.14139879E+00
 -1.04739116E+00  1.04700382E+00  1.04700398E+00  3.14139934E+00 -1.04739098E+00
 -1.04739171E+00  1.04700364E+00  3.14139863E+00
SymInf integers                            I   N=          26
           2           2           1           1           1          -1
           1          -1           0           0           0           0
           0           0           0           0           0           0
           0           0           0           0           0           0
           0           0
RotTr to input orientation                 R   N=          12
 -6.21382920E-06 -4.99915966E-01 -8.66073916E-01  1.06816719E-05  8.66073916E-01
 -4.99915966E-01  1.00000000E+00 -1.23575099E-05 -4.16970551E-08  5.83224361E-01
 -7.23869134E-01  4.19939135E-09
Number of contracted shells                I               32
Number of primitive shells                 I               58
Pure/Cartesian d shells                    I                0
Pure/Cartesian f shells                    I                0
Highest angular momentum                   I                2
Largest degree of contraction              I                6
Shell types                                I   N=          32
           0          -1          -1          -1          -1          -2
          -2           0           0           0           0           0
           0           0           0           0           0          -1
          -1          -1          -1          -2          -2           0
           0           0           0           0           0           0
           0           0
Number of primitives per shell             I   N=          32
           6           3           1           1           1           1
           1           3           1           1           3           1
           1           3           1           1           6           3
           1           1           1           1           1           3
           1           1           3           1           1           3
           1           1
Shell to atom map                          I   N=          32
           1           1           1           1           1           1
           1           2           2           2           3           3
           3           4           4           4           5           5
           5           5           5           5           5           6
           6           6           7           7           7           8
           8           8
Primitive exponents                        R   N=          58
  4.56324000E+03  6.82024000E+02  1.54973000E+02  4.44553000E+01  1.30290000E+01
  1.82773000E+00  2.09642000E+01  4.80331000E+00  1.45933000E+00  4.83456000E-01
  1.45585000E-01  4.38000000E-02  1.25200000E+00  3.13000000E-01  3.38650000E+01
  5.09479000E+00  1.15879000E+00  3.25840000E-01  1.02741000E-01  3.38650000E+01
  5.09479000E+00  1.15879000E+00  3.25840000E-01  1.02741000E-01  3.38650000E+01
  5.09479000E+00  1.15879000E+00  3.25840000E-01  1.02741000E-01  4.56324000E+03
  6.82024000E+02  1.54973000E+02  4.44553000E+01  1.30290000E+01  1.82773000E+00
  2.09642000E+01  4.80331000E+00  1.45933000E+00  4.83456000E-01  1.45585000E-01
  4.38000000E-02  1.25200000E+00  3.13000000E-01  3.38650000E+01  5.09479000E+00
  1.15879000E+00  3.25840000E-01  1.02741000E-01  3.38650000E+01  5.09479000E+00
  1.15879000E+00  3.25840000E-01  1.02741000E-01  3.38650000E+01  5.09479000E+00
  1.15879000E+00  3.25840000E-01  1.02741000E-01
Contraction coefficients                   R   N=          58
  1.96665025E-03  1.52306019E-02  7.61269097E-02  2.60801033E-01  6.16462078E-01
  2.21006028E-01  1.14660081E-01  9.19999648E-01 -3.03068213E-03  1.00000000E+00
  1.00000000E+00  1.00000000E+00  1.00000000E+00  1.00000000E+00  2.54938145E-02
  1.90373109E-01  8.52161486E-01  1.00000000E+00  1.00000000E+00  2.54938145E-02
  1.90373109E-01  8.52161486E-01  1.00000000E+00  1.00000000E+00  2.54938145E-02
  1.90373109E-01  8.52161486E-01  1.00000000E+00  1.00000000E+00  1.96665025E-03
  1.52306019E-02  7.61269097E-02  2.60801033E-01  6.16462078E-01  2.21006028E-01
  1.14660081E-01  9.19999648E-01 -3.03068213E-03  1.00000000E+00  1.00000000E+00
  1.00000000E+00  1.00000000E+00  1.00000000E+00  2.54938145E-02  1.90373109E-01
  8.52161486E-01  1.00000000E+00  1.00000000E+00  2.54938145E-02  1.90373109E-01
  8.52161486E-01  1.00000000E+00  1.00000000E+00  2.54938145E-02  1.90373109E-01
  8.52161486E-01  1.00000000E+00  1.00000000E+00
P(S=P) Contraction coefficients            R   N=          58
  0.00000000E+00  0.00000000E+00  0.00000000E+00  0.00000000E+00  0.00000000E+00
  0.00000000E+00  4.02486927E-02  2.37593957E-01  8.15853851E-01  1.00000000E+00
  1.00000000E+00  1.00000000E+00  0.00000000E+00  0.00000000E+00  0.00000000E+00
  0.00000000E+00  0.00000000E+00  0.00000000E+00  0.00000000E+00  0.00000000E+00
  0.00000000E+00  0.00000000E+00  0.00000000E+00  0.00000000E+00  0.00000000E+00
  0.00000000E+00  0.00000000E+00  0.00000000E+00  0.00000000E+00  0.00000000E+00
  0.00000000E+00  0.00000000E+00  0.00000000E+00  0.00000000E+00  0.00000000E+00
  4.02486927E-02  2.37593957E-01  8.15853851E-01  1.00000000E+00  1.00000000E+00
  1.00000000E+00  0.00000000E+00  0.00000000E+00  0.00000000E+00  0.00000000E+00
  0.00000000E+00  0.00000000E+00  0.00000000E+00  0.00000000E+00  0.00000000E+00
  0.00000000E+00  0.00000000E+00  0.00000000E+00  0.00000000E+00  0.00000000E+00
  0.00000000E+00  0.00000000E+00  0.00000000E+00
Coordinates of each shell                  R   N=          96
 -1.99369851E-17  3.45352869E-17  1.43784962E+00 -1.99369851E-17  3.45352869E-17
  1.43784962E+00 -1.99369851E-17  3.45352869E-17  1.43784962E+00 -1.99369851E-17
  3.45352869E-17  1.43784962E+00 -1.99369851E-17  3.45352869E-17  1.43784962E+00
 -1.99369851E-17  3.45352869E-17  1.43784962E+00 -1.99369851E-17  3.45352869E-17
  1.43784962E+00  9.60207395E-01 -1.66332487E+00  2.19219448E+00  9.60207395E-01
 -1.66332487E+00  2.19219448E+00  9.60207395E-01 -1.66332487E+00  2.19219448E+00
 -1.92058529E+00  9.84353579E-05  2.19219448E+00 -1.92058529E+00  9.84353579E-05
  2.19219448E+00 -1.92058529E+00  9.84353579E-05  2.19219448E+00  9.60377890E-01
  1.66322643E+00  2.19219448E+00  9.60377890E-01  1.66322643E+00  2.19219448E+00
  9.60377890E-01  1.66322643E+00  2.19219448E+00 -1.67638587E-16 -1.46337846E-17
 -1.43784962E+00 -1.67638587E-16 -1.46337846E-17 -1.43784962E+00 -1.67638587E-16
 -1.46337846E-17 -1.43784962E+00 -1.67638587E-16 -1.46337846E-17 -1.43784962E+00
 -1.67638587E-16 -1.46337846E-17 -1.43784962E+00 -1.67638587E-16 -1.46337846E-17
 -1.43784962E+00 -1.67638587E-16 -1.46337846E-17 -1.43784962E+00 -9.60377890E-01
  1.66322643E+00 -2.19219448E+00 -9.60377890E-01  1.66322643E+00 -2.19219448E+00
 -9.60377890E-01  1.66322643E+00 -2.19219448E+00  1.92058529E+00  9.84353579E-05
 -2.19219448E+00  1.92058529E+00  9.84353579E-05 -2.19219448E+00  1.92058529E+00
  9.84353579E-05 -2.19219448E+00 -9.60207395E-01 -1.66332487E+00 -2.19219448E+00
 -9.60207395E-01 -1.66332487E+00 -2.19219448E+00 -9.60207395E-01 -1.66332487E+00
 -2.19219448E+00
Num ILSW                                   I              100
ILSW                                       I   N=         100
           0           0           0           0           2           0
           0           0           0           0        4639          -1
           5           0           0           0           2           0
           0           0           1           0           1           0
           1           0           0           0           0           0
           0           0      100000           0          -1           0
           0           0           0           0           0           0
           0           0           0           1           0           0
           0 -2000000000           1           0           0           0
           0           0         121          52           0           0
           0           0          58           0           0           0
           0           0           0           0           0           1
           0           0           0           0           0           0
           0           0           0           0           0           0
           0           0           0           0           0           0
           0           0           0           0           0           0
           0           0           0           0
Num RLSW                                   I               52
RLSW                                       R   N=          52
  1.00000000E+00  1.00000000E+00  1.00000000E+00  1.00000000E+00  1.00000000E+00
  0.00000000E+00  2.00000000E-01  2.22036000E-01  0.00000000E+00  7.77964000E-01
  0.00000000E+00  2.00000000E-01  0.00000000E+00  0.00000000E+00  1.00000000E+00
  0.00000000E+00  0.00000000E+00  1.00000000E+00  0.00000000E+00  0.00000000E+00
  0.00000000E+00  0.00000000E+00  1.00000000E+00  0.00000000E+00  0.00000000E+00
  0.00000000E+00  0.00000000E+00  1.00000000E+00  0.00000000E+00  0.00000000E+00
  0.00000000E+00  0.00000000E+00  1.00000000E+00  0.00000000E+00  0.00000000E+00
  0.00000000E+00  0.00000000E+00  0.00000000E+00  1.00000000E+00  1.00000000E+00
  0.00000000E+00  1.00000000E+00  0.00000000E+00  0.00000000E+00  0.00000000E+00
  0.00000000E+00  0.00000000E+00  0.00000000E+00  0.00000000E+00  0.00000000E+00
  0.00000000E+00  0.00000000E+00
MxBond                                     I                4
NBond                                      I   N=           8
           4           1           1           1           4           1
           1           1
IBond                                      I   N=          32
           2           3           4           5           1           0
           0           0           1           0           0           0
           1           0           0           0           1           6
           7           8           5           0           0           0
           5           0           0           0           5           0
           0           0
RBond                                      R   N=          32
  1.00000000E+00  1.00000000E+00  1.00000000E+00  1.00000000E+00  1.00000000E+00
  0.00000000E+00  0.00000000E+00  0.00000000E+00  1.00000000E+00  0.00000000E+00
  0.00000000E+00  0.00000000E+00  1.00000000E+00  0.00000000E+00  0.00000000E+00
  0.00000000E+00  1.00000000E+00  1.00000000E+00  1.00000000E+00  1.00000000E+00
  1.00000000E+00  0.00000000E+00  0.00000000E+00  0.00000000E+00  1.00000000E+00
  0.00000000E+00  0.00000000E+00  0.00000000E+00  1.00000000E+00  0.00000000E+00
  0.00000000E+00  0.00000000E+00
Virial Ratio                               R      2.004633679123427E+00
SCF Energy                                 R     -7.981770993655908E+01
Total Energy                               R     -7.981770993655908E+01
RMS Force                                  R      4.579964866472193E-05
RMS Density                                R      3.965441097380647E-10
NImag                                      I                0
Job Status                                 I                1
Nuclear derivative order                   I                2
External E-field                           R   N=          35
  0.00000000E+00  0.00000000E+00  0.00000000E+00  0.00000000E+00  0.00000000E+00
  0.00000000E+00  0.00000000E+00  0.00000000E+00  0.00000000E+00  0.00000000E+00
  0.00000000E+00  0.00000000E+00  0.00000000E+00  0.00000000E+00  0.00000000E+00
  0.00000000E+00  0.00000000E+00  0.00000000E+00  0.00000000E+00  0.00000000E+00
  0.00000000E+00  0.00000000E+00  0.00000000E+00  0.00000000E+00  0.00000000E+00
  0.00000000E+00  0.00000000E+00  0.00000000E+00  0.00000000E+00  0.00000000E+00
  0.00000000E+00  0.00000000E+00  0.00000000E+00  0.00000000E+00  0.00000000E+00
IOpCl                                      I                0
IROHF                                      I                0
Alpha Orbital Energies                     R   N=          72
 -1.02666401E+01 -1.02664179E+01 -8.54116866E-01 -7.11574931E-01 -5.23229927E-01
 -5.23229927E-01 -4.53104965E-01 -4.25306347E-01 -4.25306347E-01  7.22217476E-02
  8.88537690E-02  1.06173655E-01  1.06173655E-01  1.38189711E-01  1.38189711E-01
  1.40776433E-01  1.87205992E-01  2.30327403E-01  2.30327403E-01  2.47333697E-01
  2.47333697E-01  2.83983011E-01  3.11603764E-01  3.27926202E-01  4.75474684E-01
  4.75474684E-01  5.23785697E-01  5.28436588E-01  5.28436588E-01  6.29388817E-01
  6.65560605E-01  6.65560605E-01  6.74006619E-01  6.74006619E-01  7.29851514E-01
  7.55945298E-01  7.55945298E-01  8.05771831E-01  9.11421504E-01  1.01666976E+00
  1.01666976E+00  1.02839283E+00  1.13947863E+00  1.13947863E+00  1.29032133E+00
  1.29032133E+00  1.33834648E+00  1.36683791E+00  2.39105638E+00  2.39105638E+00
  2.48737553E+00  2.48737553E+00  2.51141050E+00  2.54477140E+00  2.99578756E+00
  3.10060194E+00  3.10060194E+00  3.19507090E+00  3.19507090E+00  3.34295784E+00
  3.37585829E+00  3.37585829E+00  3.52372004E+00  3.52372004E+00  3.59625405E+00
  3.65478791E+00  3.65478791E+00  3.69200096E+00  3.69200096E+00  4.23936898E+00
  2.36022963E+01  2.37268590E+01
Alpha MO coefficients                      R   N=        5184
  3.98426475E-01  3.27727316E-01 -1.03049229E-16  8.64599778E-18 -2.73532092E-04
  1.14395053E-02 -1.33737554E-16 -3.87032622E-16  4.53645645E-05 -8.06657404E-03
 -9.10322657E-16  3.27135148E-15 -4.54337099E-05 -2.66159762E-03  1.30779163E-15
  1.73761827E-15 -4.82880492E-04  1.35001275E-04  5.37079286E-16 -2.95559422E-16
  2.22423272E-16 -1.56197350E-16 -1.20636055E-03 -4.39254551E-16  6.17060017E-16
  1.02277733E-16  1.06823484E-15 -1.39101578E-04 -4.49875293E-04  3.08810709E-03
 -1.39101578E-04 -4.49875293E-04  3.08810709E-03 -1.39101578E-04 -4.49875293E-04
  3.08810709E-03  3.98426475E-01  3.27727316E-01 -3.27121442E-16  6.56105686E-17
  2.73532092E-04  1.14395053E-02  6.40150063E-16 -3.15013646E-16 -4.53645646E-05
 -8.06657404E-03  7.48841602E-16  3.24639991E-15  4.54337099E-05 -2.66159762E-03
 -1.24934215E-15  1.82009090E-15  4.82880492E-04  1.35001275E-04 -5.20262205E-16
  2.58952683E-16 -4.20513616E-16  3.12690732E-16 -1.20636055E-03 -8.21372997E-17
 -6.22358712E-16  7.73771789E-16 -1.11048270E-15 -1.39101578E-04 -4.49875293E-04
  3.08810709E-03 -1.39101578E-04 -4.49875293E-04  3.08810709E-03 -1.39101578E-04
 -4.49875293E-04  3.08810709E-03  3.98460008E-01  3.27669872E-01  2.57123368E-17
 -3.68604793E-18  4.45927358E-04  1.12311902E-02 -2.47640355E-16 -1.31312823E-16
 -1.50702510E-03 -1.17320930E-02  1.39635394E-16 -1.13722605E-15  6.51328959E-04
 -8.82503380E-03  3.17040548E-16  1.35913736E-16  1.47181054E-03  1.59310653E-04
 -4.54969629E-17  6.97220805E-17 -1.52578620E-17  2.14374155E-16  1.00783410E-03
 -9.06248579E-17 -2.06605021E-16  1.64268688E-16 -5.67375088E-16  2.55856606E-05
  4.78884379E-04  2.61279142E-03  2.55856606E-05  4.78884379E-04  2.61279142E-03
  2.55856606E-05  4.78884379E-04  2.61279142E-03 -3.98460008E-01 -3.27669872E-01
  8.52855488E-17 -6.39196026E-17  4.45927358E-04 -1.12311902E-02 -2.30045589E-16
 -2.55228866E-18 -1.50702510E-03  1.17320930E-02  5.13656404E-16  5.46844456E-16
  6.51328959E-04  8.82503380E-03  3.65914715E-16 -1.87362615E-16  1.47181054E-03
 -1.59310653E-04  5.75720759E-17 -7.79930333E-17 -3.10754266E-17 -1.27381663E-16
 -1.00783410E-03  3.05353621E-17  6.04330760E-17 -5.67247747E-17  2.23603661E-17
 -2.55856606E-05 -4.78884379E-04 -2.61279142E-03 -2.55856606E-05 -4.78884379E-04
 -2.61279142E-03 -2.55856606E-05 -4.78884379E-04 -2.61279142E-03 -8.13304327E-02
 -1.28492226E-01  1.51470312E-16 -1.51887194E-15 -2.64302281E-02  3.35060821E-01
 -7.29499437E-16  8.33765886E-15 -3.69432945E-02  2.36399408E-01  5.56764510E-15
 -4.65538914E-14 -3.47867441E-03  2.20380935E-02  5.99748010E-15 -3.59312006E-14
  3.28832972E-03  3.00668704E-03 -7.56201090E-17  1.12503285E-15 -3.28871260E-16
  1.42153362E-15  8.14636760E-04  4.48258339E-16 -6.05513909E-15 -1.66948968E-15
 -7.91853645E-15  5.49871353E-02  4.61356756E-02 -1.60757857E-02  5.49871353E-02
  4.61356756E-02 -1.60757857E-02  5.49871353E-02  4.61356756E-02 -1.60757857E-02
 -8.13304327E-02 -1.28492226E-01 -5.43657099E-16 -8.93162950E-16  2.64302281E-02
  3.35060821E-01  5.35320782E-16  9.58947711E-15  3.69432945E-02  2.36399408E-01
 -4.77457223E-15 -5.07964712E-14  3.47867441E-03  2.20380935E-02 -6.55242734E-15
 -3.47354429E-14 -3.28832972E-03  3.00668704E-03  1.44941095E-16 -1.14736720E-15
 -2.69110189E-16 -1.33978352E-15  8.14636760E-04 -2.63987436E-16  6.74005500E-15
 -5.55905542E-16  1.03364047E-14  5.49871353E-02  4.61356756E-02 -1.60757857E-02
  5.49871353E-02  4.61356756E-02 -1.60757857E-02  5.49871353E-02  4.61356756E-02
 -1.60757857E-02 -7.07675204E-02 -1.12534285E-01  4.74295585E-16  3.95569490E-16
  5.63078953E-02  2.96548852E-01 -2.18968168E-15 -2.86678784E-15  1.01135308E-01
  2.58316410E-01  4.06143682E-15  3.85119737E-15  5.80553595E-02  1.77894713E-01
  7.29348603E-15  2.13213426E-14 -4.20064203E-02 -7.34488044E-03  3.31480238E-16
 -3.41124089E-17 -7.15348596E-16 -3.08750539E-16 -1.47970517E-02 -1.65535792E-15
 -1.77618176E-15  2.02415045E-15  2.59988529E-16  7.53102892E-02  7.08533930E-02
 -6.53112233E-03  7.53102892E-02  7.08533930E-02 -6.53112233E-03  7.53102892E-02
  7.08533930E-02 -6.53112233E-03  7.07675204E-02  1.12534285E-01  6.47261053E-16
 -8.79784947E-16  5.63078953E-02 -2.96548852E-01 -2.32777430E-15  3.33869689E-15
  1.01135308E-01 -2.58316410E-01 -1.68699523E-15 -1.83502318E-15  5.80553595E-02
 -1.77894713E-01  2.64622416E-15 -2.25602474E-14 -4.20064203E-02  7.34488044E-03
  2.17050167E-16  5.17212320E-17  4.91459137E-16 -5.41506115E-16  1.47970517E-02
  1.00765718E-15 -3.02064558E-15 -2.87414696E-15 -2.76794162E-15 -7.53102892E-02
 -7.08533930E-02  6.53112233E-03 -7.53102892E-02 -7.08533930E-02  6.53112233E-03
 -7.53102892E-02 -7.08533930E-02  6.53112233E-03  1.66989670E-16  5.28444364E-16
  1.39989035E-01  2.24343753E-02 -4.76441141E-16 -1.16874401E-14  2.24173718E-01
  3.59259797E-02 -6.83550125E-15  1.11179494E-13  1.49350608E-01  2.39344954E-02
 -5.07980374E-14 -1.94443027E-13  7.32511927E-03  1.17215368E-03  5.57679319E-14
 -6.52992787E-16  2.34929289E-03  3.76528898E-04 -8.80367235E-03  1.41201306E-03
  1.12972936E-14  2.28472162E-03  3.66371371E-04 -8.18999845E-03  1.31441791E-03
  3.96231464E-02  4.77433129E-02  1.39791428E-02 -1.09708799E-01 -1.32190153E-01
 -3.87103849E-02  7.00856525E-02  8.44468396E-02  2.47312422E-02 -2.23993994E-16
 -4.61722435E-16  1.39989099E-01  2.24339806E-02  1.49010261E-15  9.12066056E-15
  2.24173922E-01  3.59247080E-02 -5.05731487E-15 -9.94818116E-14  1.49350630E-01
  2.39343623E-02 -5.19514002E-14  1.96137407E-13  7.32457388E-03  1.17555696E-03
  5.61220797E-14  2.72036655E-16 -2.34930511E-03 -3.76452644E-04  8.80403674E-03
 -1.40973929E-03 -1.10432963E-14 -2.28479335E-03 -3.65923759E-04  8.19059725E-03
 -1.31068137E-03 -3.96341648E-02 -4.77551960E-02 -1.39867644E-02  1.09710665E-01
  1.32192165E-01  3.87116759E-02 -7.00765003E-02 -8.44369693E-02 -2.47249115E-02
  1.61926715E-16  8.18133125E-16 -2.24343753E-02  1.39989035E-01 -1.60748787E-15
 -1.11067410E-14 -3.59259797E-02  2.24173718E-01 -6.65980540E-15  7.59898804E-14
 -2.39344954E-02  1.49350608E-01  2.55459464E-14  3.25902043E-14 -1.17215368E-03
  7.32511927E-03 -4.98240899E-15  1.11901495E-15 -3.76528898E-04  2.34929289E-03
  1.41201306E-03  8.80367235E-03 -7.70713219E-15 -3.66371371E-04  2.28472162E-03
  1.31441791E-03  8.18999845E-03 -1.03804375E-01 -1.25075426E-01 -3.66280405E-02
  1.75875361E-02  2.11907910E-02  6.20772749E-03  8.62168388E-02  1.03884635E-01
  3.04203130E-02  3.27681056E-16  1.02686218E-15 -2.24339806E-02  1.39989099E-01
  1.43943398E-15 -1.19192300E-14 -3.59247080E-02  2.24173922E-01  6.39046274E-15
  7.52691585E-14 -2.39343623E-02  1.49350630E-01 -2.62866257E-14  2.77481945E-14
 -1.17555696E-03  7.32457388E-03  6.67695943E-15  1.13139272E-15  3.76452644E-04
 -2.34930511E-03 -1.40973929E-03 -8.80403674E-03 -7.83473193E-15  3.65923759E-04
 -2.28479335E-03 -1.31068137E-03 -8.19059725E-03  1.03800168E-01  1.25070889E-01
  3.66251308E-02 -1.75758906E-02 -2.11782317E-02 -6.19967208E-03 -8.62242778E-02
 -1.03892657E-01 -3.04254587E-02  9.53293475E-03  1.52168427E-02  7.01060298E-16
  9.74772301E-16  1.85512210E-01 -4.92278005E-02 -4.96631613E-16  2.19511744E-15
  2.86602666E-01  1.26927021E-02 -7.79125523E-15  1.56740164E-14  1.99990449E-01
  2.13513968E-02 -3.34086046E-15  5.25751263E-15 -3.33478584E-05 -1.31884793E-02
 -1.09980148E-16 -4.06755701E-16  1.21922103E-17 -5.21664167E-16 -7.28592800E-03
  2.77623197E-15  3.73936734E-15  2.00881187E-15  5.78593467E-15  5.17846904E-02
  6.77560327E-02  1.90014970E-02  5.17846904E-02  6.77560327E-02  1.90014970E-02
  5.17846904E-02  6.77560327E-02  1.90014970E-02  9.53293475E-03  1.52168427E-02
 -4.15854446E-17  2.69831106E-15 -1.85512210E-01 -4.92278005E-02  9.49594772E-16
  4.60518632E-15 -2.86602666E-01  1.26927021E-02  1.02758643E-14  1.49220885E-14
 -1.99990449E-01  2.13513968E-02  3.50513282E-15  3.93970722E-15  3.33478584E-05
 -1.31884793E-02 -1.81084452E-17  3.37831851E-16 -9.66684826E-17  4.48369114E-16
 -7.28592800E-03  2.11934239E-15 -2.60227053E-15  2.11890093E-15 -3.73429159E-15
  5.17846904E-02  6.77560327E-02  1.90014970E-02  5.17846904E-02  6.77560327E-02
  1.90014970E-02  5.17846904E-02  6.77560327E-02  1.90014970E-02  1.04846532E-16
  1.73029340E-16  1.40935083E-01  7.49282502E-04 -1.60321482E-16 -6.03496594E-16
  2.21542135E-01  1.17768330E-03  1.98252728E-15 -7.89253008E-15  1.83834296E-01
  9.77596338E-04 -1.42410810E-14 -6.67714615E-14  9.22623839E-03  4.98325513E-05
  1.85266606E-14 -5.60043525E-16  1.30211066E-02  6.92026380E-05 -1.10175992E-02
  5.99374291E-05  5.13800667E-15  2.65087582E-02  1.40784374E-04 -1.55014275E-02
  8.36864482E-05  6.58429156E-02  8.24298863E-02  4.89480240E-02 -1.32920849E-01
 -1.66407074E-01 -9.88107418E-02  6.70779332E-02  8.39771873E-02  4.98627178E-02
 -3.94341893E-17  1.27311179E-16 -1.40935089E-01 -7.48197949E-04 -1.85551397E-18
 -2.14751412E-15 -2.21542143E-01 -1.17627291E-03 -3.72666777E-15 -3.52591579E-15
 -1.83834306E-01 -9.75702011E-04 -1.48029537E-15  6.21484908E-14 -9.22624707E-03
 -4.81992341E-05  1.22970156E-14 -3.58037486E-16  1.30211068E-02  6.91507931E-05
 -1.10176141E-02  5.71281719E-05  1.03057202E-15  2.65087577E-02  1.40879673E-04
 -1.55014417E-02  8.10212614E-05  6.58548586E-02  8.24459920E-02  4.89534980E-02
 -1.32920922E-01 -1.66407172E-01 -9.88107753E-02  6.70660632E-02  8.39611802E-02
  4.98572773E-02 -2.10671947E-16 -8.87814976E-16 -7.49282502E-04  1.40935083E-01
 -1.01599384E-15  1.75493980E-14 -1.17768330E-03  2.21542135E-01  1.78380301E-14
 -1.78968441E-13 -9.77596338E-04  1.83834296E-01  3.77076769E-14 -2.41589948E-12
 -4.98325513E-05  9.22623839E-03  6.59973010E-13  8.09513484E-16 -6.92026380E-05
  1.30211066E-02  5.99374291E-05  1.10175992E-02 -2.06921020E-14 -1.40784374E-04
  2.65087582E-02  8.36864482E-05  1.55014275E-02 -1.15469351E-01 -1.44559420E-01
 -8.58366619E-02  7.13037734E-04  8.93334671E-04  5.28098714E-04  1.14756313E-01
  1.43666086E-01  8.53085632E-02  4.35822478E-17  6.77230979E-16  7.48197949E-04
 -1.40935089E-01 -4.21918845E-15 -1.77478312E-14  1.17627291E-03 -2.21542143E-01
  1.51928300E-14  1.87978468E-13  9.75702011E-04 -1.83834306E-01  3.05340732E-14
  2.41704052E-12  4.81992340E-05 -9.22624707E-03  6.61567259E-13 -5.28165228E-16
 -6.91507931E-05  1.30211068E-02  5.71281719E-05  1.10176141E-02  1.85170343E-14
 -1.40879673E-04  2.65087577E-02  8.10212614E-05  1.55014417E-02 -1.15462540E-01
 -1.44550236E-01 -8.58335402E-02  6.99289263E-04  8.74794331E-04  5.21797257E-04
  1.14763250E-01  1.43675441E-01  8.53117430E-02  2.34703595E-02  4.10287384E-02
  5.71270317E-15  8.97060499E-15 -3.76499781E-02 -1.43365780E-01 -1.91885789E-14
 -2.61406183E-15 -8.01756428E-02 -1.55420523E-01 -3.21805659E-14  2.09959070E-13
 -4.77727228E-02  1.57706130E+00  5.50621289E-13  1.08293766E-13  2.44790596E-01
 -6.55525257E-04  1.74538432E-16 -3.72315145E-15 -2.70034573E-16 -4.35837087E-15
  2.08739542E-04 -2.13673906E-14  2.48601803E-14  3.25401735E-14  3.45181266E-14
 -1.38409695E-02  9.29348410E-02 -5.35404159E-01 -1.38409695E-02  9.29348410E-02
 -5.35404159E-01 -1.38409695E-02  9.29348410E-02 -5.35404159E-01  2.34703595E-02
  4.10287384E-02 -5.37545984E-15  8.91008201E-15  3.76499781E-02 -1.43365780E-01
  2.13473416E-14 -1.72526184E-15  8.01756428E-02 -1.55420523E-01  3.15599111E-14
  1.94260762E-13  4.77727228E-02  1.57706130E+00 -5.71137038E-13  5.78968211E-14
 -2.44790596E-01 -6.55525257E-04  3.92113222E-16  3.91256071E-15 -2.24489149E-16
  3.92523446E-15  2.08739542E-04 -2.16813556E-14 -2.37375995E-14  3.58778082E-14
 -3.34129075E-14 -1.38409695E-02  9.29348410E-02 -5.35404159E-01 -1.38409695E-02
  9.29348410E-02 -5.35404159E-01 -1.38409695E-02  9.29348410E-02 -5.35404159E-01
 -2.38060653E-02 -4.06439412E-02 -8.21747936E-15  7.87686601E-15 -1.38488635E-03
  1.54198233E-01 -6.36451289E-14  1.24258204E-14  4.51745814E-02 -2.80806687E-01
  1.08284467E-13  2.36012813E-13  3.54029082E-01  4.77356719E+00  6.02916982E-13
  6.63622641E-14 -2.37506179E+00 -1.74376792E-03 -1.35924526E-15  6.45594244E-16
  8.80953357E-16 -2.59696379E-15 -9.88882765E-02 -9.93152580E-15  1.77962747E-14
  2.75651162E-14  3.49973031E-14  8.70770877E-03 -5.82333767E-02  1.84062785E-01
  8.70770877E-03 -5.82333767E-02  1.84062785E-01  8.70770877E-03 -5.82333767E-02
  1.84062785E-01  2.38060653E-02  4.06439412E-02 -6.84773245E-15 -7.55633552E-15
 -1.38488635E-03 -1.54198233E-01 -6.14714891E-14 -6.56436038E-15  4.51745814E-02
  2.80806687E-01  9.30319226E-14 -2.48462296E-13  3.54029082E-01 -4.77356719E+00
  5.42886212E-13 -1.08294956E-13 -2.37506179E+00  1.74376792E-03  1.07781934E-15
 -6.84338513E-16 -1.21669926E-15 -3.46155555E-15  9.88882765E-02  1.34296075E-14
  1.60624523E-14 -3.74872863E-14  3.44272251E-14 -8.70770877E-03  5.82333767E-02
 -1.84062785E-01 -8.70770877E-03  5.82333767E-02 -1.84062785E-01 -8.70770877E-03
  5.82333767E-02 -1.84062785E-01  1.67857198E-14  2.75011316E-14 -5.21229941E-02
 -1.22968642E-02 -8.13066044E-15 -3.79885024E-14 -1.06899620E-01 -2.52184762E-02
  1.55772243E-14 -9.07181337E-13 -2.02106386E-01 -4.76783470E-02  5.20714953E-13
  1.41801652E-11  8.23600765E-01  1.94285771E-01 -3.60335023E-12  6.18329741E-15
  2.20818783E-03  5.20931120E-04  1.87658749E-04 -4.47077921E-05 -6.71941281E-14
 -2.61654185E-02 -6.17117274E-03  5.42675329E-02 -1.28079991E-02 -6.32920156E-03
  4.79351323E-02 -1.53685271E-01  2.14088531E-02 -1.62121302E-01  5.19803943E-01
 -1.50796516E-02  1.14186170E-01 -3.66118672E-01 -1.43308259E-14 -2.51668520E-14
 -5.21228130E-02 -1.22976314E-02 -3.53950137E-17  6.26011043E-14 -1.06898669E-01
 -2.52225076E-02  4.55231326E-15  4.98612229E-13 -2.02104513E-01 -4.76862864E-02
  6.75207084E-13 -1.45058333E-11  8.23589753E-01  1.94332448E-01 -3.69012394E-12
 -9.48090095E-15 -2.20816904E-03 -5.21010734E-04 -1.87852672E-04  4.38858335E-05
  9.30904177E-14  2.61645335E-02  6.17492356E-03 -5.42696665E-02  1.27989558E-02
  6.33130561E-03 -4.79372091E-02  1.53708056E-01 -2.14093576E-02  1.62121800E-01
 -5.19809406E-01  1.50780520E-02 -1.14184591E-01  3.66101349E-01  6.87192188E-16
 -3.01667489E-15  1.22968642E-02 -5.21229941E-02 -1.18971146E-14  7.37274171E-14
  2.52184762E-02 -1.06899620E-01  2.20089811E-14 -7.00493481E-13  4.76783470E-02
 -2.02106386E-01 -3.92523045E-13 -4.62699058E-12 -1.94285771E-01  8.23600765E-01
  1.10225967E-12 -9.45301975E-15 -5.20931120E-04  2.20818783E-03 -4.47077921E-05
 -1.87658749E-04  5.59945175E-14  6.17117274E-03 -2.61654185E-02 -1.28079991E-02
 -5.42675329E-02  2.10666480E-02 -1.59526193E-01  5.11487660E-01 -5.05207466E-03
  3.82500542E-02 -1.22648481E-01 -1.60145733E-02  1.21276139E-01 -3.88839179E-01
  9.76728068E-15  1.21645424E-14  1.22976314E-02 -5.21228130E-02  1.74911111E-14
  3.73173612E-14  2.52225076E-02 -1.06898669E-01 -1.47330863E-14 -9.75457538E-13
  4.76862864E-02 -2.02104513E-01  2.03772608E-13  3.16693310E-12 -1.94332448E-01
  8.23589753E-01  8.93910770E-13 -6.87284355E-15  5.21010734E-04 -2.20816904E-03
  4.38858335E-05  1.87852672E-04  2.95873299E-14 -6.17492356E-03  2.61645335E-02
  1.27989558E-02  5.42696665E-02 -2.10660157E-02  1.59525569E-01 -5.11480813E-01
  5.04993638E-03 -3.82479436E-02  1.22625325E-01  1.60160794E-02 -1.21277625E-01
  3.88855488E-01  6.22611673E-15  1.40711132E-14  1.50619910E-03 -3.01291784E-02
 -5.75017623E-15 -1.16031772E-13  3.45552450E-03 -6.91160732E-02 -9.63956629E-14
  8.71470626E-13  3.60210394E-03 -7.18868742E-02 -1.91143528E-13  3.22935481E-11
 -1.23961821E-01  2.48188301E+00 -8.90976151E-12 -2.23315827E-15  1.61828665E-04
 -3.24636290E-03 -2.65458685E-04 -5.31267367E-03  8.17744152E-14 -2.15895189E-04
  4.35399853E-03 -1.70761615E-03 -3.40413814E-02  2.79502554E-02 -8.55082031E-02
  6.76186655E-01 -1.56705821E-03  4.80597801E-03 -3.79318884E-02 -2.63831971E-02
  8.07022251E-02 -6.38254766E-01 -9.03945578E-15 -1.87696387E-14 -1.50363333E-03
  3.01293065E-02 -2.56209077E-15  1.30617568E-13 -3.44900649E-03  6.91163987E-02
 -1.00633748E-13 -8.54565436E-13 -3.57926354E-03  7.18880150E-02 -1.50733842E-13
 -3.23016275E-11  1.23971767E-01 -2.48188251E+00 -9.13672047E-12  2.10171580E-15
  1.62472881E-04 -3.24633072E-03 -2.65263988E-04 -5.31268339E-03 -6.91203881E-14
 -2.19049992E-04  4.35384095E-03 -1.69306501E-03 -3.40421082E-02  2.79500767E-02
 -8.54965214E-02  6.76162807E-01 -1.56666703E-03  4.78040190E-03 -3.78796762E-02
 -2.63834097E-02  8.07161195E-02 -6.38283131E-01  1.25006361E-14  1.92368785E-14
 -3.01291784E-02 -1.50619910E-03  5.66591848E-14 -5.92905659E-14 -6.91160732E-02
 -3.45552450E-03 -2.74114796E-14  2.98915625E-13 -7.18868742E-02 -3.60210394E-03
  4.80804403E-13 -5.06398544E-12  2.48188301E+00  1.23961821E-01 -6.49517716E-13
  1.16321766E-18 -3.24636290E-03 -1.61828665E-04  5.31267367E-03 -2.65458685E-04
 -1.19765554E-13  4.35399853E-03  2.15895189E-04  3.40413814E-02 -1.70761615E-03
 -1.43276045E-02  4.38187187E-02 -3.46596575E-01  3.13694334E-02 -9.59616355E-02
  7.58893108E-01 -1.70418289E-02  5.21429168E-02 -4.12296533E-01  1.17388511E-14
  1.93921485E-14  3.01293065E-02  1.50363333E-03 -5.87612723E-14 -8.20574590E-14
  6.91163987E-02  3.44900649E-03  4.02592662E-14  5.01906629E-13  7.18880150E-02
  3.57926354E-03 -6.60392507E-13  6.08627908E-12 -2.48188251E+00 -1.23971767E-01
  3.72968194E-12  1.19539594E-15 -3.24633072E-03 -1.62472881E-04  5.31268339E-03
 -2.65263988E-04 -1.32793131E-13  4.35384095E-03  2.19049992E-04  3.40421082E-02
 -1.69306501E-03 -1.43279530E-02  4.38415070E-02 -3.46643096E-01  3.13694530E-02
 -9.59629129E-02  7.58895716E-01 -1.70414999E-02  5.21214060E-02 -4.12252620E-01
 -1.43057935E-02 -2.24285136E-02 -5.08267593E-14 -3.98856468E-15 -2.63992619E-02
  3.93345121E-02 -1.00974704E-13 -7.02622337E-15  6.06866434E-03  3.39081851E-01
 -2.01484508E-13 -7.39718321E-14 -1.41036503E-01 -4.28482711E-02  3.49787337E-12
 -4.78393192E-14  1.39586897E+00  5.96409351E-03 -4.81490206E-15  1.73050410E-15
  6.83665230E-15  1.84585917E-15  4.15898650E-02  9.03354178E-15 -1.07979348E-14
  5.04191693E-14 -1.52095130E-14 -1.13799635E-02 -2.51619636E-02  5.18135864E-02
 -1.13799635E-02 -2.51619636E-02  5.18135864E-02 -1.13799635E-02 -2.51619636E-02
  5.18135864E-02 -1.43057935E-02 -2.24285136E-02  5.22783012E-14 -5.48294352E-15
  2.63992619E-02  3.93345121E-02  1.03656707E-13 -7.45530452E-15 -6.06866434E-03
  3.39081851E-01  2.19165426E-13 -9.24457953E-14  1.41036503E-01 -4.28482711E-02
 -3.50960451E-12 -1.40972090E-14 -1.39586897E+00  5.96409351E-03 -4.68537678E-15
 -1.81705172E-15  6.60307406E-15 -1.76052645E-15  4.15898650E-02  6.05969031E-15
  1.10823952E-14  5.55629200E-14  1.60788902E-14 -1.13799635E-02 -2.51619636E-02
  5.18135864E-02 -1.13799635E-02 -2.51619636E-02  5.18135864E-02 -1.13799635E-02
 -2.51619636E-02  5.18135864E-02  1.67729466E-02  2.86455042E-02  1.55677657E-13
  3.65110696E-13 -2.63065900E-02 -7.30725935E-02  7.76347933E-14  3.88267160E-13
 -5.70736212E-02 -3.64915074E-01  1.34683170E-12  5.30222519E-12  6.51796370E-02
  3.66011394E+01  1.28611875E-12  4.56571507E-13 -1.05885573E+01  2.65332785E-04
 -2.17625203E-14  1.76986878E-14  7.64503130E-15 -4.38727615E-14 -2.30162400E-02
  1.16716535E-14  1.58575944E-13  1.79815449E-14  2.73036978E-13 -3.36192807E-03
  1.41307510E-01 -9.28150723E-01 -3.36192807E-03  1.41307510E-01 -9.28150723E-01
 -3.36192807E-03  1.41307510E-01 -9.28150723E-01 -1.67729466E-02 -2.86455042E-02
  2.04899620E-13 -3.88390928E-13 -2.63065900E-02  7.30725935E-02  1.33844093E-13
 -3.88016708E-13 -5.70736212E-02  3.64915074E-01  1.82958700E-12 -5.54425319E-12
  6.51796370E-02 -3.66011394E+01  8.56388020E-13 -5.92754169E-13 -1.05885573E+01
 -2.65332785E-04  1.75700645E-14  1.17878378E-14 -1.45060623E-14 -5.34234655E-14
  2.30162400E-02  2.64426827E-14  1.47068874E-13 -7.83685449E-14  2.84443264E-13
  3.36192807E-03 -1.41307510E-01  9.28150723E-01  3.36192807E-03 -1.41307510E-01
  9.28150723E-01  3.36192807E-03 -1.41307510E-01  9.28150723E-01 -1.04329118E-13
 -1.65836521E-13 -7.15592181E-04  1.09916249E-01  1.75277047E-13  1.59801782E-13
 -7.25159508E-04  1.13836546E-01  9.11647873E-14  6.07723820E-12 -8.91096593E-03
  1.33933056E+00 -1.66834371E-13 -8.68381213E-11 -4.86116506E-03  7.40546957E-01
  2.70583918E-11 -3.37996865E-15 -3.52008127E-05  3.87788883E-03 -7.60913103E-05
 -1.14477812E-02  3.09853873E-13 -1.64446169E-04  2.35047782E-02 -4.79185582E-05
 -7.39089624E-03  1.93389840E-02  1.74836868E-01  1.56689265E+00 -1.20215334E-04
 -1.30928942E-03 -1.17220017E-02 -1.92187687E-02 -1.73527578E-01 -1.55517065E+00
  1.02274867E-13  1.61842238E-13  8.18627399E-04 -1.09915529E-01  1.72165410E-13
 -1.45764235E-13  8.63778341E-04 -1.13835579E-01  8.71626791E-14 -5.98918445E-12
  9.78353322E-03 -1.33932447E+00 -2.00008261E-13  8.69327096E-11  5.47545108E-03
 -7.40542670E-01  2.70873468E-11  4.29591742E-15 -1.89280322E-05  3.87800240E-03
 -8.36978653E-05 -1.14477281E-02 -3.16537427E-13 -1.63636473E-04  2.35047838E-02
 -5.52441293E-05 -7.39084511E-03  1.93737053E-02  1.74930119E-01  1.56774016E+00
 -1.90507625E-04 -1.49807518E-03 -1.34377690E-02 -1.91831977E-02 -1.73432044E-01
 -1.55430240E+00 -3.24819580E-14 -5.20823561E-14  1.09916249E-01  7.15592181E-04
  6.05264992E-14  3.57451956E-14  1.13836546E-01  7.25159508E-04 -4.18878461E-14
  2.75027962E-12  1.33933056E+00  8.91096593E-03  1.25481432E-12  6.04451589E-12
  7.40546957E-01  4.86116506E-03 -1.56683711E-12  2.90597828E-14  3.87788883E-03
  3.52008126E-05  1.14477812E-02 -7.60913104E-05 -1.78090696E-13  2.35047782E-02
  1.64446169E-04  7.39089624E-03 -4.79185581E-05 -1.10265549E-02 -9.94302753E-02
 -8.91110492E-01  2.22613289E-02  2.01128306E-01  1.80252409E+00 -1.12347740E-02
 -1.01698031E-01 -9.11413595E-01 -4.60920984E-14 -7.31545648E-14 -1.09915529E-01
 -8.18627399E-04 -8.11201886E-14  4.08131338E-14 -1.13835579E-01 -8.63778341E-04
  3.89004772E-14  3.65605167E-12 -1.33932447E+00 -9.78353322E-03 -1.26368004E-12
 -6.91270453E-13 -7.40542670E-01 -5.47545108E-03 -6.66214730E-13  2.85322287E-14
  3.87800240E-03  1.89280322E-05  1.14477281E-02 -8.36978652E-05 -1.41174323E-13
  2.35047838E-02  1.63636473E-04  7.39084511E-03 -5.52441293E-05 -1.09654347E-02
 -9.92661233E-02 -8.89618607E-01  2.22608383E-02  2.01126989E-01  1.80251211E+00
 -1.12954036E-02 -1.01860866E-01 -9.12893506E-01 -1.24680730E-13 -1.87898547E-13
  3.27187622E-03 -1.03710840E-01  2.23854025E-13  9.01287562E-14  4.59959788E-03
 -1.45162077E-01  5.37142556E-15  9.56882448E-12  2.73487070E-02 -8.74096314E-01
  3.00214386E-12  2.05179982E-12  2.04279395E-02 -6.51834970E-01  8.46465125E-13
  4.82771024E-14 -5.33045738E-04  1.65427299E-02  3.50345569E-04  1.10371599E-02
 -2.76530333E-13 -3.27556454E-04  9.85903522E-03 -2.06693321E-04 -6.38715497E-03
 -6.57620174E-02 -1.92043288E-01 -1.72507585E+00  2.38421754E-03  6.89904768E-03
  6.18842307E-02  6.33777998E-02  1.85144241E-01  1.66319162E+00 -1.16412974E-13
 -1.73533520E-13  3.38699506E-03 -1.03707144E-01 -2.45597701E-13  6.56627247E-14
  4.72073800E-03 -1.45158188E-01 -5.57018968E-14  9.04670128E-12  2.87731633E-02
 -8.74050584E-01 -3.62696685E-12  1.77733251E-11  2.14235785E-02 -6.51803007E-01
  3.72462655E-12  5.62800166E-14  5.29121838E-04 -1.65428559E-02 -3.58312131E-04
 -1.10369042E-02 -3.21905986E-13  3.05488030E-04 -9.85974370E-03  2.03411846E-04
  6.38726032E-03  6.57708803E-02  1.92130214E-01  1.72594140E+00 -2.40298709E-03
 -7.08313627E-03 -6.37172429E-02 -6.33678932E-02 -1.85047078E-01 -1.66222416E+00
 -1.13693784E-14 -2.44689590E-14  1.03710840E-01  3.27187622E-03  1.45459845E-13
  3.84713675E-13  1.45162077E-01  4.59959788E-03  5.05053806E-13 -5.04404407E-12
  8.74096314E-01  2.73487070E-02  5.20704298E-12 -2.79004450E-11  6.51834970E-01
  2.04279395E-02  8.58010337E-12  5.04949902E-14 -1.65427299E-02 -5.33045738E-04
  1.10371599E-02 -3.50345569E-04 -5.98638185E-13 -9.85903522E-03 -3.27556454E-04
 -6.38715497E-03  2.06693321E-04 -3.52146612E-02 -1.02909910E-01 -9.24515254E-01
  7.45589082E-02  2.17769321E-01  1.95621714E+00 -3.93442471E-02 -1.14859411E-01
 -1.03170189E+00  2.19979402E-14  4.05756547E-14  1.03707144E-01  3.38699506E-03
  1.65808860E-13 -3.89473464E-13  1.45158188E-01  4.72073800E-03  5.11313353E-13
  4.24224111E-12  8.74050584E-01  2.87731633E-02  5.48624773E-12  2.70563368E-11
  6.51803007E-01  2.14235785E-02  8.46562025E-12 -5.42394270E-14  1.65428559E-02
  5.29121838E-04 -1.10369042E-02  3.58312131E-04  6.16817938E-13  9.85974370E-03
  3.05488030E-04  6.38726031E-03 -2.03411846E-04  3.51981050E-02  1.02747530E-01
  9.22898396E-01 -7.45583057E-02 -2.17763411E-01 -1.95615829E+00  3.93602007E-02
  1.15015882E-01  1.03325990E+00 -3.97849393E-02 -6.47112782E-02 -1.15871496E-13
  3.69081081E-13  6.77488938E-02  1.36571836E-01 -1.85377771E-13  6.46063241E-13
  5.82958973E-02  2.06232668E+00 -2.07362810E-12  3.03623166E-12  6.90448264E-01
  2.53518763E+00 -5.16055418E-13  2.06835505E-12 -3.20145371E-01  7.52076734E-03
 -1.63242501E-15 -6.97970769E-14 -2.19322743E-14 -4.77383169E-14 -1.35339095E-02
 -1.56610452E-13 -6.07348559E-14  4.86655229E-14  1.70570237E-14 -2.50441785E-02
 -3.17740082E-02 -1.95419605E+00 -2.50441785E-02 -3.17740082E-02 -1.95419605E+00
 -2.50441785E-02 -3.17740082E-02 -1.95419605E+00 -3.97849393E-02 -6.47112782E-02
  1.25701939E-13  3.75705677E-13 -6.77488938E-02  1.36571836E-01  2.03455026E-13
  6.51876394E-13 -5.82958973E-02  2.06232668E+00  2.12833044E-12  3.12065255E-12
 -6.90448264E-01  2.53518763E+00  5.79963954E-13  2.17640325E-12  3.20145371E-01
  7.52076734E-03 -5.15396509E-16  6.95354307E-14 -2.26687239E-14  4.82193920E-14
 -1.35339095E-02 -1.48786072E-13  6.29478371E-14  5.88031411E-14 -1.76138667E-14
 -2.50441785E-02 -3.17740082E-02 -1.95419605E+00 -2.50441785E-02 -3.17740082E-02
 -1.95419605E+00 -2.50441785E-02 -3.17740082E-02 -1.95419605E+00 -5.50256873E-02
 -8.86106120E-02  5.34617664E-14 -1.10989390E-13 -6.19260121E-02  1.25434705E-01
  5.08699838E-14 -1.51166220E-13 -1.53757019E-01  3.60730182E+00  1.72283914E-13
 -1.09912568E-12 -1.46290139E+00  1.27142587E+01  4.99928872E-13 -8.27084215E-13
 -2.54593320E+00 -2.10552937E-02  1.81466345E-16 -3.86816187E-15 -5.29092613E-15
  9.43763477E-15  8.80607828E-02 -5.54321903E-14 -2.85469967E-14  1.11515704E-13
  1.24005888E-13 -1.37570402E-02  3.78574703E-02 -1.50971595E+00 -1.37570402E-02
  3.78574703E-02 -1.50971595E+00 -1.37570402E-02  3.78574703E-02 -1.50971595E+00
  5.50256873E-02  8.86106120E-02  3.50868702E-14  1.23648016E-13 -6.19260121E-02
 -1.25434705E-01  2.53507058E-14  1.83804543E-13 -1.53757019E-01 -3.60730182E+00
 -6.33617714E-15  1.18026570E-12 -1.46290139E+00 -1.27142587E+01  1.11377568E-13
  8.86829310E-13 -2.54593320E+00  2.10552937E-02 -1.44307457E-15 -2.73783129E-15
  5.68658679E-15  8.38689857E-15 -8.80607828E-02  9.19387427E-14 -3.06731985E-14
 -1.23553335E-13  1.26755411E-13  1.37570402E-02 -3.78574703E-02  1.50971595E+00
  1.37570402E-02 -3.78574703E-02  1.50971595E+00  1.37570402E-02 -3.78574703E-02
  1.50971595E+00 -4.81620997E-03 -7.22034322E-03 -1.07889032E-13 -1.34690489E-13
  1.37010074E-01  2.51235355E-02 -3.55030306E-13 -1.83072066E-13  2.34094367E-01
 -1.87219800E-01 -9.67202886E-13 -9.55381097E-13  2.09586407E+00  2.43785306E+01
  6.99161613E-15 -9.95144928E-13 -6.45388613E+00  2.34361159E-02  3.66813033E-14
 -9.42204506E-16 -3.15446001E-14  9.20966077E-15 -6.39516771E-02  1.61504490E-14
  1.00674027E-14  1.09399469E-13  1.91220961E-13 -4.03245904E-02 -1.02602852E-01
 -1.84721790E+00 -4.03245904E-02 -1.02602852E-01 -1.84721790E+00 -4.03245904E-02
 -1.02602852E-01 -1.84721790E+00  4.81620997E-03  7.22034322E-03 -1.28859322E-13
  1.07347973E-13  1.37010074E-01 -2.51235355E-02 -3.90191306E-13  1.70599109E-13
  2.34094367E-01  1.87219800E-01 -1.12588388E-12  7.14184613E-13  2.09586407E+00
 -2.43785306E+01 -4.47552714E-13  7.71089939E-13 -6.45388613E+00 -2.34361159E-02
 -3.97223844E-14 -6.40398397E-15  2.98782710E-14  2.34096738E-15  6.39516771E-02
  4.23835799E-14 -1.39381096E-14 -1.35622401E-13  1.86368244E-13  4.03245904E-02
  1.02602852E-01  1.84721790E+00  4.03245904E-02  1.02602852E-01  1.84721790E+00
  4.03245904E-02  1.02602852E-01  1.84721790E+00  2.14693935E-14  4.07429963E-14
  3.71178549E-02 -2.10928007E-02 -2.33594385E-13 -8.48650048E-14  7.26292245E-02
 -4.12711533E-02 -4.10217308E-13 -2.74252179E-12 -4.70329459E-01  2.67285555E-01
  1.87074614E-12 -2.11213631E-11  6.28981341E-01 -3.57434167E-01  5.38970175E-12
  1.50376351E-14  2.01695681E-02 -1.14610146E-02 -1.91728398E-02 -1.08919809E-02
 -6.03164528E-13 -3.05362309E-02  1.73579448E-02  3.84298470E-02  2.18500459E-02
  6.48620002E-02  8.39184331E-01 -1.35892681E+00 -6.53817663E-02 -8.45894148E-01
  1.36980943E+00  5.19766090E-04  6.70981731E-03 -1.08826190E-02  2.07793086E-14
  4.04201757E-14  3.71192300E-02 -2.10903808E-02 -1.45855646E-13 -3.47379720E-13
  7.26305941E-02 -4.12687430E-02 -1.44927065E-14  3.54913413E-12 -4.70358476E-01
  2.67234489E-01  9.86239418E-13  2.00129278E-11  6.29009537E-01 -3.57384546E-01
  5.76005876E-12  1.58377615E-14 -2.01697505E-02  1.14606936E-02  1.91707283E-02
  1.08956970E-02  3.92224997E-13  3.05418763E-02 -1.73480096E-02 -3.84413090E-02
 -2.18298741E-02 -6.48649774E-02 -8.39207819E-01  1.35898210E+00  6.53788591E-02
  8.45871213E-01 -1.36975543E+00 -5.13881679E-04 -6.66339413E-03  1.07733275E-02
  3.80846095E-14  7.29708586E-14 -2.10928007E-02 -3.71178549E-02  3.73657518E-14
 -4.71834013E-13 -4.12711533E-02 -7.26292245E-02 -2.05696745E-13  2.52042180E-12
  2.67285555E-01  4.70329459E-01 -1.25134051E-13  1.02249352E-11 -3.57434167E-01
 -6.28981341E-01 -3.29665254E-12  2.48011958E-14 -1.14610146E-02 -2.01695681E-02
  1.08919809E-02 -1.91728398E-02  1.01872619E-13  1.73579448E-02  3.05362309E-02
 -2.18500459E-02  3.84298470E-02  3.80482675E-02  4.92251129E-01 -7.97142925E-01
  3.71480062E-02  4.80629384E-01 -7.78293676E-01 -7.51962736E-02 -9.72880513E-01
  1.57543660E+00  3.63051844E-14  7.02791704E-14 -2.10903808E-02 -3.71192300E-02
  1.81426888E-13 -3.04627144E-13 -4.12687430E-02 -7.26305941E-02  4.43649146E-13
 -1.10998579E-12  2.67234489E-01  4.70358476E-01 -1.55882126E-12 -1.20862446E-11
 -3.57384546E-01 -6.29009537E-01 -2.73953106E-12  2.58083987E-14  1.14606936E-02
  2.01697505E-02 -1.08956970E-02  1.91707283E-02 -4.79091111E-13 -1.73480096E-02
 -3.05418763E-02  2.18298741E-02 -3.84413090E-02 -3.80431916E-02 -4.92211085E-01
  7.97048651E-01 -3.71531224E-02 -4.80669748E-01  7.78388700E-01  7.51963141E-02
  9.72880832E-01 -1.57543735E+00 -1.09402603E-02 -2.38615385E-02  3.12454917E-13
  9.96895553E-14 -6.82399114E-02  1.52990526E-01  1.47349926E-12  3.42048228E-13
 -3.91345100E-01  7.07529456E-01 -1.23646421E-11 -1.29552650E-12  1.29053774E+00
 -1.78807762E-01  1.46138604E-11  1.23621075E-12 -8.93789238E-01  3.13810805E-02
  3.07896344E-14  1.28890220E-14 -1.50905250E-13  2.20044563E-14  6.18320376E-02
 -1.00564618E-12 -1.57375825E-13 -1.40669634E-12 -2.15664761E-15 -2.80753280E-02
 -4.56048336E-01  6.23070690E-02 -2.80753280E-02 -4.56048336E-01  6.23070690E-02
 -2.80753280E-02 -4.56048336E-01  6.23070690E-02 -1.09402603E-02 -2.38615385E-02
 -3.14558144E-13  5.71053702E-14  6.82399114E-02  1.52990526E-01 -1.47835584E-12
  1.53856371E-13  3.91345100E-01  7.07529456E-01  1.23930849E-11  1.02982047E-13
 -1.29053774E+00 -1.78807762E-01 -1.46492127E-11 -3.77513368E-13  8.93789238E-01
  3.13810805E-02  3.20159983E-14 -9.28704698E-15 -1.52378562E-13 -5.16450116E-15
  6.18320376E-02 -9.99632490E-13  5.20529055E-14 -1.39979975E-12  1.40038619E-13
 -2.80753280E-02 -4.56048336E-01  6.23070690E-02 -2.80753280E-02 -4.56048336E-01
  6.23070690E-02 -2.80753280E-02 -4.56048336E-01  6.23070690E-02  1.41885033E-13
  2.97759284E-13  4.16945643E-02  7.85947020E-03  5.77394237E-13 -1.87968417E-12
  1.83016561E-01  3.44961538E-02  3.35885992E-12 -5.82344312E-12 -1.37310223E+00
 -2.58893697E-01 -1.14551927E-11 -3.66810821E-13  1.59438607E+00  3.00597772E-01
  8.54303064E-12 -2.73008943E-13  3.21933867E-03  6.07782084E-04 -1.65630256E-02
  3.12650419E-03 -7.60756032E-13 -1.03005595E-01 -1.94165152E-02 -1.38024047E-01
  2.60129601E-02  8.65644005E-03  3.04448297E-01 -4.15041536E-01 -2.57181256E-02
 -9.04342792E-01  1.23274902E+00  1.70616855E-02  5.99894495E-01 -8.17707486E-01
  1.33065433E-13  2.80693313E-13 -4.16939788E-02 -7.86257564E-03 -5.87081704E-13
 -1.78246448E-12 -1.83013021E-01 -3.45149315E-02 -3.40149138E-12 -5.79169034E-12
  1.37310569E+00  2.58875353E-01  1.14837851E-11  2.41342003E-12 -1.59438345E+00
 -3.00611683E-01 -7.81087155E-12 -2.74300834E-13  3.21963330E-03  6.06219370E-04
 -1.65643792E-02  3.11932478E-03 -7.60969833E-13 -1.03004094E-01 -1.94244773E-02
 -1.38020389E-01  2.60323583E-02  8.66364471E-03  3.04580865E-01 -4.15147694E-01
 -2.57195401E-02 -9.04368819E-01  1.23276987E+00  1.70558954E-02  5.99787955E-01
 -8.17622171E-01  1.19098253E-15  6.05373063E-17 -7.85947020E-03  4.16945643E-02
 -5.92526073E-14  1.33094577E-14 -3.44961538E-02  1.83016561E-01 -5.44782058E-13
  1.37616154E-12  2.58893697E-01 -1.37310223E+00  1.13817969E-12 -3.59120230E-13
 -3.00597772E-01  1.59438607E+00 -1.05915012E-12  3.53724564E-14 -6.07782084E-04
  3.21933867E-03  3.12650419E-03  1.65630256E-02  2.48837686E-13  1.94165152E-02
 -1.03005595E-01  2.60129601E-02  1.38024047E-01 -2.46989355E-02 -8.68471802E-01
  1.18383162E+00  4.85277074E-03  1.70575942E-01 -2.32479295E-01  1.98461647E-02
  6.97895860E-01 -9.51352323E-01 -4.09085796E-14 -8.32707300E-14  7.86257564E-03
 -4.16939788E-02  9.52462665E-14  5.16551795E-13  3.45149315E-02 -1.83013021E-01
  3.56807450E-13  1.18744871E-13 -2.58875353E-01  1.37310569E+00 -1.90880521E-12
  2.00202120E-13  3.00611683E-01 -1.59438345E+00  1.12689689E-12  3.59780088E-14
 -6.06219370E-04  3.21963330E-03  3.11932478E-03  1.65643792E-02 -3.00647271E-14
  1.94244773E-02 -1.03004094E-01  2.60323583E-02  1.38020389E-01 -2.46964092E-02
 -8.68425319E-01  1.18379439E+00  4.84526820E-03  1.70437893E-01 -2.32368748E-01
  1.98511410E-02  6.97987426E-01 -9.51425647E-01 -3.68518212E-02 -6.40584463E-02
 -3.31117628E-13  1.95364064E-14 -2.35523921E-01  3.24531358E-01 -1.31350853E-12
  7.41226199E-14 -2.83938031E-01 -2.87525374E+00  3.32964598E-12 -1.83534007E-13
  3.30088363E+00  4.25507038E+00 -8.97292681E-15  1.87934415E-13 -1.57256526E+00
  4.88655494E-03 -6.30649805E-15  3.68712070E-16  2.28892195E-14  2.41532422E-15
 -6.64148299E-01  7.80576012E-13  3.88009354E-14 -1.70487384E-13 -1.04264410E-14
 -3.13604608E-02 -4.52187714E-01 -1.41379389E-01 -3.13604608E-02 -4.52187714E-01
 -1.41379389E-01 -3.13604608E-02 -4.52187714E-01 -1.41379389E-01  3.68518212E-02
  6.40584463E-02 -3.40187079E-13 -4.41850699E-14 -2.35523921E-01 -3.24531358E-01
 -1.34147024E-12 -1.54155953E-13 -2.83938031E-01  2.87525374E+00  3.36371850E-12
  4.36866929E-13  3.30088363E+00 -4.25507038E+00  6.25330541E-14 -1.83783099E-13
 -1.57256526E+00 -4.88655494E-03  5.17124818E-15  1.51782312E-16 -2.34170135E-14
  2.65590262E-15  6.64148299E-01 -7.54620701E-13 -4.95532299E-14  1.88929740E-13
 -3.52365086E-14  3.13604608E-02  4.52187714E-01  1.41379389E-01  3.13604608E-02
  4.52187714E-01  1.41379389E-01  3.13604608E-02  4.52187714E-01  1.41379389E-01
 -4.59772407E-14 -1.01402641E-13  1.31257619E-03 -1.28953738E-01 -4.75137198E-14
  9.26676279E-13  5.09957582E-03 -5.05260907E-01 -1.88675384E-13 -2.67756577E-12
 -1.45913165E-02  1.49324363E+00 -5.06028146E-13  5.04600684E-13 -2.24248975E-03
  2.24490050E-01 -3.79010166E-13 -8.23640245E-15 -3.57542879E-05  3.74069090E-03
 -4.82467931E-05 -5.37694090E-03  5.30721345E-13 -4.02733721E-03  4.48386468E-01
  2.74457515E-04  1.38106535E-02 -4.83139730E-02  5.02626586E-02  1.46908082E+00
  5.57289849E-04 -2.67260158E-04 -1.64240042E-02  4.77566831E-02 -4.99953985E-02
 -1.45265682E+00 -5.00091577E-14 -1.08828824E-13  1.02255691E-03 -1.28956363E-01
  7.79930144E-14  9.57842011E-13  4.04983367E-03 -5.05270411E-01  2.45889010E-13
 -2.95560543E-12 -1.24486891E-02  1.49326303E+00  1.33120208E-13 -9.05691579E-14
 -1.82263668E-03  2.24493852E-01  2.53851305E-13 -9.24418212E-15  3.19828884E-05
 -3.74072505E-03  4.91194082E-05  5.37693299E-03  4.71573169E-13  4.09209193E-03
 -4.48385881E-01  2.43480963E-05 -1.38133589E-02  4.82597477E-02 -5.05154355E-02
 -1.46794794E+00 -4.47111570E-04  7.80868257E-04  1.41221509E-02 -4.78126362E-02
  4.97345672E-02  1.45382579E+00 -9.35493309E-14 -1.58165332E-13  1.28953738E-01
  1.31257619E-03 -3.79404538E-13  3.28388044E-13  5.05260907E-01  5.09957582E-03
 -5.35752703E-13  3.71056907E-13 -1.49324363E+00 -1.45913165E-02  3.36621446E-12
  5.54908495E-12 -2.24490050E-01 -2.24248975E-03 -2.78683955E-12 -3.32248992E-15
 -3.74069090E-03 -3.57542879E-05 -5.37694090E-03  4.82467931E-05 -7.19643109E-13
 -4.48386468E-01 -4.02733721E-03  1.38106535E-02 -2.74457516E-04 -2.72505824E-02
  2.87105540E-02  8.29209400E-01  5.54664192E-02 -5.78840163E-02 -1.68686601E+00
 -2.82158367E-02  2.91734622E-02  8.57656610E-01  9.65082584E-14  1.64353391E-13
  1.28956363E-01  1.02255691E-03 -3.85424719E-13 -3.90472139E-13  5.05270411E-01
  4.04983366E-03 -5.61110164E-13 -2.06861461E-13 -1.49326303E+00 -1.24486890E-02
  3.36347757E-12 -5.60267323E-12 -2.24493852E-01 -1.82263668E-03 -2.81511416E-12
  2.98437394E-15  3.74072505E-03  3.19828883E-05  5.37693299E-03 -4.91194082E-05
  6.95946639E-13  4.48385881E-01  4.09209193E-03 -1.38133589E-02 -2.43480975E-05
  2.73464984E-02 -2.82634313E-02 -8.31213284E-01 -5.54674167E-02  5.78793660E-02
  1.68688685E+00  2.81209183E-02 -2.96159348E-02 -8.55673567E-01 -2.26150384E-14
 -4.72995400E-14 -1.45427457E-02  1.95193899E-01  5.97897396E-14  3.45724817E-13
 -5.32626843E-02  7.14570782E-01  3.10811485E-13 -6.32172172E-13  1.23182094E-01
 -1.64891142E+00 -1.70560609E-13  6.72836477E-12  2.57803086E-02 -3.45684015E-01
 -1.91954192E-12  2.37092953E-15  1.80874442E-04 -2.39872209E-03 -9.76160814E-06
 -1.85944357E-04 -9.27912275E-14 -2.08574172E-03  3.27726659E-02 -1.64103381E-02
 -2.21184145E-01  6.21570427E-02  2.47949068E-01 -1.42227001E+00 -5.13895176E-03
 -2.02989657E-02  1.17921692E-01 -5.70180910E-02 -2.27650102E-01  1.30434832E+00
  2.65563801E-14  5.61135605E-14  1.43589245E-02 -1.95207507E-01  4.91613367E-14
 -4.29962284E-13  5.25415484E-02 -7.14624168E-01  2.72603640E-13  8.52389401E-13
 -1.20970001E-01  1.64907518E+00 -1.51334417E-13 -6.78781830E-12 -2.54041783E-02
  3.45711861E-01 -1.98128697E-12 -2.82133169E-15  1.74319400E-04 -2.39920737E-03
 -1.77259069E-05 -1.85354755E-04  4.67122365E-14 -2.76291061E-03  3.27225346E-02
 -1.63388661E-02 -2.21189436E-01  6.21178412E-02  2.47974135E-01 -1.42107212E+00
 -5.04901682E-03 -2.03564736E-02  1.15173519E-01 -5.70688244E-02 -2.27617661E-01
  1.30589860E+00 -3.68574414E-14 -7.58010343E-14  1.95193899E-01  1.45427457E-02
 -5.16581655E-14  6.89257043E-13  7.14570782E-01  5.32626843E-02 -1.61240917E-13
 -2.00502220E-12 -1.64891142E+00 -1.23182094E-01 -3.46807490E-13  8.12099329E-13
 -3.45684015E-01 -2.57803086E-02 -4.86870990E-13 -5.26695932E-15 -2.39872209E-03
 -1.80874442E-04  1.85944357E-04 -9.76160816E-06  4.85844734E-13  3.27726659E-02
  2.08574172E-03  2.21184145E-01 -1.64103381E-02 -2.99524350E-02 -1.19714234E-01
  6.84983734E-01  6.88057955E-02  2.74587309E-01 -1.57421383E+00 -3.88533605E-02
 -1.54873074E-01  8.89230096E-01 -3.82337959E-14 -7.82988399E-14 -1.95207507E-01
 -1.43589245E-02  6.98212869E-14  7.12454900E-13 -7.14624168E-01 -5.25415484E-02
  1.79824048E-13 -2.35987209E-12  1.64907518E+00  1.20970001E-01  3.50764575E-14
 -3.09180672E-13  3.45711861E-01  2.54041783E-02  1.88466292E-13 -3.99884195E-15
 -2.39920737E-03 -1.74319400E-04  1.85354755E-04 -1.77259068E-05  4.26312146E-13
  3.27225346E-02  2.76291061E-03  2.21189436E-01 -1.63388661E-02 -3.00336499E-02
 -1.19662302E-01  6.87465446E-01  6.88124535E-02  2.74583051E-01 -1.57441728E+00
 -3.87788036E-02 -1.54920749E-01  8.86951833E-01  1.25409828E-02  1.96052690E-02
 -1.26525269E-13  4.36395912E-14 -1.12722186E-01  1.04830012E-01 -5.37032312E-13
  1.63462861E-13 -4.81076656E-01 -7.46604663E-01  5.45645120E-13 -9.03860303E-13
  2.50270476E-01  9.14115854E-01  5.04000363E-13 -2.24421927E-13 -1.87053781E-01
  2.61122068E-03 -1.06522174E-15 -1.05376650E-14 -6.72150930E-15 -3.01944383E-15
  9.98349855E-02 -5.15906174E-14 -5.16199196E-13  9.58182458E-14  2.77566849E-13
  6.79663105E-02  8.79122520E-01 -7.46910330E-01  6.79663105E-02  8.79122520E-01
 -7.46910330E-01  6.79663105E-02  8.79122520E-01 -7.46910330E-01  1.25409828E-02
  1.96052690E-02  1.13388009E-13  4.44571722E-14  1.12722186E-01  1.04830012E-01
  4.76894788E-13  1.71999258E-13  4.81076656E-01 -7.46604663E-01 -5.20051536E-13
 -9.29665443E-13 -2.50270476E-01  9.14115854E-01 -4.80368436E-13 -1.75390794E-13
  1.87053781E-01  2.61122068E-03  7.20887881E-16  1.00501144E-14 -6.29076288E-15
  1.95344767E-15  9.98349855E-02  4.07316461E-14  5.23326016E-13  1.69960798E-13
 -2.92568953E-13  6.79663105E-02  8.79122520E-01 -7.46910330E-01  6.79663105E-02
  8.79122520E-01 -7.46910330E-01  6.79663105E-02  8.79122520E-01 -7.46910330E-01
  6.45472187E-14  1.27916088E-13 -2.19331731E-02  1.07738330E-01 -8.92198409E-14
 -7.14494865E-13 -9.82432765E-02  4.82538140E-01 -4.50430296E-13  9.63538662E-13
  1.25903290E-01 -6.17715389E-01  1.28995596E-12  3.14400079E-12  4.16883170E-02
 -2.05010852E-01 -5.08206601E-13  1.39682203E-14 -1.51498578E-03  7.43748002E-03
  6.19792725E-04  3.03945327E-03 -3.54694240E-13 -7.65558808E-02  3.75971566E-01
 -9.01417605E-02 -4.42151496E-01  2.65150949E-02  2.20016648E-01 -9.70437830E-01
 -5.57503793E-03 -4.62041303E-02  2.04181869E-01 -2.09400570E-02 -1.73812518E-01
  7.66255961E-01  4.00463604E-14  8.45767307E-14 -2.19472428E-02  1.07735464E-01
  7.96393507E-14 -6.34619566E-13 -9.82889315E-02  4.82528843E-01  3.96747996E-13
  2.64296071E-12  1.25696067E-01 -6.17757589E-01 -2.69096309E-13 -1.08757560E-12
  4.18061513E-02 -2.04986855E-01 -3.48501842E-13  1.07576791E-14  1.51427264E-03
 -7.43762525E-03 -6.18218671E-04 -3.03977382E-03 -2.40240218E-13  7.65737281E-02
 -3.75967931E-01  8.99510773E-02  4.42190328E-01 -2.65178979E-02 -2.20079050E-01
  9.70444178E-01  5.58369885E-03  4.63969429E-02 -2.04201484E-01  2.09341991E-02
  1.73682107E-01 -7.66242694E-01  4.58078273E-14  7.91767965E-14 -1.07738330E-01
 -2.19331731E-02  7.70085315E-15 -2.62711392E-14 -4.82538140E-01 -9.82432765E-02
  3.54230157E-14 -4.65328454E-12  6.17715389E-01  1.25903290E-01  2.57799486E-12
  1.55372397E-11  2.05010852E-01  4.16883170E-02 -3.58890713E-12  9.17655265E-15
 -7.43748002E-03 -1.51498578E-03  3.03945327E-03 -6.19792725E-04 -2.95435825E-13
 -3.75971566E-01 -7.65558808E-02 -4.42151496E-01  9.01417605E-02  8.87099789E-03
  7.36747371E-02 -3.24513628E-01 -2.73982447E-02 -2.27377375E-01  1.00268063E+00
  1.85272468E-02  1.53702638E-01 -6.78166999E-01 -6.70135234E-14 -1.21172761E-13
 -1.07735464E-01 -2.19472428E-02 -4.54875437E-14  2.49881068E-13 -4.82528843E-01
 -9.82889315E-02 -2.10372772E-13  4.15671998E-12  6.17757589E-01  1.25696067E-01
  2.90635907E-12 -1.60995062E-11  2.04986855E-01  4.18061513E-02 -3.65768147E-12
 -1.35791505E-14  7.43762525E-03  1.51427264E-03 -3.03977382E-03  6.18218671E-04
  3.72141454E-13  3.75967931E-01  7.65737281E-02  4.42190328E-01 -8.99510773E-02
 -8.86261543E-03 -7.34881236E-02  3.24494644E-01  2.73964810E-02  2.27338110E-01
 -1.00267663E+00 -1.85338655E-02 -1.53849986E-01  6.78181989E-01  4.77158332E-02
  8.95746173E-02  2.16262346E-13  4.07423096E-14 -9.13706848E-02 -2.93082358E-01
  8.43448593E-13  1.70360887E-13 -3.19512650E-01 -2.88212025E+00 -1.99967825E-12
 -3.29365262E-13  2.92105398E+00  1.87334268E+01 -7.71986523E-13 -3.64766645E-13
 -4.59270313E+00  6.25023791E-03 -9.03505228E-16 -2.23891262E-16 -3.21807630E-15
 -1.39843921E-15 -2.69376929E-01  3.85298217E-14  9.75172726E-15  6.12942458E-13
 -2.22037846E-14  5.86353272E-02  9.98556180E-01 -2.18147907E+00  5.86353272E-02
  9.98556180E-01 -2.18147907E+00  5.86353272E-02  9.98556180E-01 -2.18147907E+00
 -4.77158332E-02 -8.95746173E-02  2.17337907E-13 -4.10208753E-14 -9.13706848E-02
  2.93082358E-01  8.48401588E-13 -1.51356045E-13 -3.19512650E-01  2.88212025E+00
 -2.16684896E-12  3.43723767E-13  2.92105398E+00 -1.87334268E+01 -7.86559737E-13
  3.49373351E-13 -4.59270313E+00 -6.25023791E-03 -1.94857519E-15 -1.97558315E-15
 -1.02425421E-16 -4.93892617E-15  2.69376929E-01  5.00399767E-14 -4.62386730E-15
 -6.82720366E-13 -6.24617896E-14 -5.86353272E-02 -9.98556180E-01  2.18147907E+00
 -5.86353272E-02 -9.98556180E-01  2.18147907E+00 -5.86353272E-02 -9.98556180E-01
  2.18147907E+00  7.53638753E-02  1.57265395E-01  7.34747334E-14 -1.10911395E-13
 -5.78821555E-02 -1.29352421E+00  1.56219562E-13 -3.58162307E-13 -3.40098594E-01
  4.18337654E+00 -1.99121671E-12  1.65341198E-12  1.35912805E+00  1.41509367E+00
 -6.20398280E-13  7.29689166E-13 -1.51808632E-01  1.02003539E-02  4.06407553E-15
  8.95896911E-15  1.00481128E-14  4.69468308E-15 -4.96363659E-01 -3.13344906E-13
  2.11715505E-13  8.21023409E-13  5.89503421E-13  2.21645137E-02 -3.28604871E-01
 -1.64601224E+00  2.21645137E-02 -3.28604871E-01 -1.64601224E+00  2.21645137E-02
 -3.28604871E-01 -1.64601224E+00  7.53638753E-02  1.57265395E-01 -7.24738982E-14
 -1.16603798E-13  5.78821555E-02 -1.29352421E+00 -1.45311095E-13 -3.81427738E-13
  3.40098594E-01  4.18337654E+00  2.03367034E-12  1.56572386E-12 -1.35912805E+00
  1.41509367E+00  6.23811954E-13  7.77215537E-13  1.51808632E-01  1.02003539E-02
  3.88840340E-15 -9.43116645E-15  9.09999193E-15 -5.97975438E-15 -4.96363659E-01
 -3.47849407E-13 -2.09401993E-13  8.29351077E-13 -5.49827034E-13  2.21645137E-02
 -3.28604871E-01 -1.64601224E+00  2.21645137E-02 -3.28604871E-01 -1.64601224E+00
  2.21645137E-02 -3.28604871E-01 -1.64601224E+00 -2.45867828E-14 -6.45836925E-14
  6.42196769E-02  1.72855703E-02 -6.72524554E-14  9.07931829E-13  1.82484315E-01
  4.90881922E-02 -2.56920791E-13 -3.52883878E-12  2.52763148E+00  6.80663769E-01
  2.30697316E-12 -1.32399768E-12 -5.29815607E-01 -1.42667088E-01  2.89381179E-13
 -1.32004496E-15 -6.14576737E-04 -1.65440899E-04  4.97012250E-03 -1.33958073E-03
 -5.09638379E-13 -2.10238045E-01 -5.67284875E-02 -9.51602763E-01  2.56387922E-01
 -8.00004393E-03 -4.50979122E-01  2.32913686E-02  2.99841692E-02  1.69026353E+00
 -8.71174169E-02 -2.19841253E-02 -1.23928441E+00  6.38260483E-02  8.02952191E-14
  1.69113117E-13 -6.42140650E-02 -1.73064061E-02  3.13074696E-14 -1.59649312E-12
 -1.82453372E-01 -4.92030797E-02  4.41487937E-13  7.66622068E-12 -2.52757057E+00
 -6.80889881E-01  3.67605130E-13  3.63268113E-12  5.29799570E-01  1.42726631E-01
  6.32091072E-13  8.87397396E-15 -6.14532821E-04 -1.65603951E-04  4.97059569E-03
 -1.33782385E-03 -3.59173293E-13 -2.10290064E-01 -5.65353497E-02 -9.51645935E-01
  2.56227635E-01 -7.99605591E-03 -4.50750585E-01  2.31770795E-02  2.99830958E-02
  1.69020202E+00 -8.70866560E-02 -2.19870399E-02 -1.23945143E+00  6.39095765E-02
  1.05732403E-13  2.37996195E-13 -1.72855703E-02  6.42196769E-02  3.53198587E-14
 -2.75976496E-12 -4.90881922E-02  1.82484315E-01 -3.02175472E-13  1.37247435E-11
 -6.80663769E-01  2.52763148E+00 -4.69042622E-12 -1.57086446E-11  1.42667088E-01
 -5.29815607E-01  4.88640855E-12 -3.79301555E-15  1.65440899E-04 -6.14576737E-04
 -1.33958073E-03 -4.97012250E-03  6.61644838E-13  5.67284875E-02 -2.10238045E-01
  2.56387922E-01  9.51602763E-01  3.00039088E-02  1.69137529E+00 -8.71472503E-02
 -8.07371313E-03 -4.55128268E-01  2.34027082E-02 -2.19301957E-02 -1.23624702E+00
  6.37445420E-02 -1.24520382E-13 -2.74370769E-13  1.73064061E-02 -6.42140650E-02
  8.28865232E-15  3.01764702E-12  4.92030797E-02 -1.82453372E-01 -4.96681702E-13
 -1.50294895E-11  6.80889881E-01 -2.52757057E+00 -4.12273766E-12  1.50345756E-11
 -1.42726631E-01  5.29799570E-01  4.79488971E-12  7.71368461E-16  1.65603951E-04
 -6.14532821E-04 -1.33782385E-03 -4.97059569E-03 -4.13676177E-13  5.65353497E-02
 -2.10290064E-01  2.56227635E-01  9.51645935E-01  3.00049719E-02  1.69143621E+00
 -8.71777154E-02 -8.07769838E-03 -4.55356646E-01  2.35169181E-02 -2.19272735E-02
 -1.23607956E+00  6.36607973E-02  7.72171432E-02  1.72445571E-01 -4.42482035E-15
 -5.30629604E-14  2.55082750E-02 -1.89299554E+00 -1.68086175E-13 -1.79816574E-13
 -1.67445080E-01  8.83461281E+00  2.89906823E-12 -3.69796189E-12 -2.37717956E+00
 -2.88268100E+00 -1.67179785E-13  3.99199586E-13  1.14739094E+00  3.54062266E-03
  4.75862798E-15 -2.52922581E-15 -2.81350972E-15 -3.44528347E-15  1.87761035E-01
 -4.22875779E-13  2.22665434E-13 -5.81253686E-13 -1.36520868E-12  1.58129420E-02
 -7.66306650E-01 -5.64717713E-01  1.58129420E-02 -7.66306650E-01 -5.64717713E-01
  1.58129420E-02 -7.66306650E-01 -5.64717713E-01 -7.72171432E-02 -1.72445571E-01
 -1.38017404E-13  4.87002159E-14  2.55082750E-02  1.89299554E+00 -5.38407864E-13
  1.60855372E-13 -1.67445080E-01 -8.83461281E+00 -2.57922022E-12  3.69069032E-12
 -2.37717956E+00  2.88268100E+00  9.15121969E-13 -3.77207084E-13  1.14739094E+00
 -3.54062266E-03 -8.12951043E-15 -1.68686527E-15  1.70936278E-14 -8.06862784E-16
 -1.87761035E-01  9.89190228E-15  2.40606704E-13 -1.46631330E-12 -1.33785585E-12
 -1.58129420E-02  7.66306650E-01  5.64717713E-01 -1.58129420E-02  7.66306650E-01
  5.64717713E-01 -1.58129420E-02  7.66306650E-01  5.64717713E-01  7.81506201E-15
  1.58323245E-14 -3.00091697E-03 -1.58477015E-02 -1.14011746E-14 -1.67394550E-13
  1.32022656E-02  6.94094450E-02 -4.86205967E-14  8.27533244E-13 -4.05124672E-02
 -2.14047004E-01 -1.83621360E-13 -4.07786554E-12 -3.53468761E-02 -1.86213871E-01
  1.19523988E-12 -2.81844314E-15 -4.73577742E-03 -2.49630825E-02  3.47854612E-04
 -1.83767976E-03  2.82072975E-14  2.85680967E-01  1.50540121E+00 -7.98207163E-02
  4.20682606E-01 -3.29849704E-03  7.94726115E-01 -3.41328676E-01 -8.12592399E-04
  1.95635773E-01 -8.39777133E-02  4.11108943E-03 -9.90361888E-01  4.25306389E-01
  5.31307415E-16  2.14025892E-15  3.01221943E-03  1.58455571E-02 -5.26404703E-16
  1.12399453E-14 -1.31380422E-02 -6.94216301E-02 -1.02919150E-14 -2.90207965E-13
  4.07026187E-02  2.14010927E-01 -3.59068749E-13  4.32886755E-12  3.53146973E-02
  1.86219976E-01  1.22490803E-12  1.44279863E-15 -4.73664245E-03 -2.49629184E-02
  3.49412311E-04 -1.83738422E-03 -7.52107449E-14  2.85560482E-01  1.50542406E+00
 -7.98111701E-02  4.20684417E-01 -3.29970871E-03  7.94850353E-01 -3.41329130E-01
 -8.10768436E-04  1.95448755E-01 -8.39770290E-02  4.11047715E-03 -9.90299108E-01
  4.25306159E-01  1.95968012E-14  4.10922002E-14 -1.58477015E-02  3.00091697E-03
 -2.04233178E-14 -3.43366916E-13  6.94094450E-02 -1.32022656E-02 -1.03874638E-13
  1.32296052E-12 -2.14047004E-01  4.05124672E-02  5.17245442E-13 -4.20886898E-13
 -1.86213871E-01  3.53468761E-02  1.77153746E-13 -2.24746103E-15 -2.49630825E-02
  4.73577742E-03  1.83767976E-03  3.47854612E-04 -1.87470238E-13  1.50540121E+00
 -2.85680967E-01 -4.20682606E-01 -7.98207163E-02  2.84268903E-03 -6.84736069E-01
  2.94035314E-01 -4.27792674E-03  1.03062104E+00 -4.42616961E-01  1.43523771E-03
 -3.45884970E-01  1.48581647E-01  2.42722116E-14  5.03613300E-14  1.58455571E-02
 -3.01221943E-03  3.26828380E-14 -4.35758814E-13 -6.94216301E-02  1.31380422E-02
  1.53277231E-13  1.70359956E-12  2.14010927E-01 -4.07026187E-02 -5.57643560E-13
  1.81602920E-12  1.86219976E-01 -3.53146973E-02  3.66994426E-13 -1.75767823E-15
 -2.49629184E-02  4.73664245E-03  1.83738422E-03  3.49412311E-04 -1.59240619E-13
  1.50542406E+00 -2.85560482E-01 -4.20684417E-01 -7.98111701E-02  2.84128246E-03
 -6.84591848E-01  2.94034786E-01 -4.27827280E-03  1.03065652E+00 -4.42617091E-01
  1.43699034E-03 -3.46064674E-01  1.48582305E-01 -3.86333747E-14 -8.26553885E-14
 -8.65402275E-02  7.79036434E-03 -5.76228511E-14  6.53520910E-13 -4.41936116E-01
  3.97759024E-02 -3.89975141E-13  2.15028715E-13 -1.23991530E+00  1.11804561E-01
 -1.79285571E-12 -9.08606725E-12  3.40886869E-01 -3.07682923E-02  2.42668314E-12
 -7.56772084E-15 -1.35576472E-02  1.21728174E-03  9.00196564E-03  8.09118351E-04
  8.50648065E-13 -7.39270059E-01  6.65848816E-02  1.37945598E+00  1.24056329E-01
 -5.32874983E-02  1.29405372E+00 -4.08651139E-01  9.22064027E-02 -2.23897653E+00
  7.07069447E-01 -3.89189044E-02  9.44922819E-01 -2.98418308E-01  3.49514125E-14
  7.54587650E-14 -8.65416232E-02  7.77484529E-03 -6.17837858E-14 -5.85423102E-13
 -4.41941949E-01  3.97110415E-02 -4.13813604E-13 -4.78683699E-13 -1.23996870E+00
  1.11210817E-01 -1.69526409E-12  8.94503507E-12  3.40906926E-01 -3.05452614E-02
  2.40125593E-12  8.93447582E-15  1.35572986E-02 -1.22115889E-03 -9.00188958E-03
 -8.09964064E-04 -8.25530350E-13  7.39288347E-01 -6.63815239E-02 -1.37945637E+00
 -1.24052002E-01  5.32816150E-02 -1.29369504E+00  4.08559319E-01 -9.22070471E-02
  2.23901582E+00 -7.07079504E-01  3.89254321E-02 -9.45320783E-01  2.98520185E-01
  6.83710711E-14  1.61850678E-13 -7.79036434E-03 -8.65402275E-02 -9.83287693E-14
 -1.67886551E-12 -3.97759024E-02 -4.41936116E-01  3.06273248E-13  2.23042858E-12
 -1.11804561E-01 -1.23991530E+00 -1.27568598E-12  6.95345964E-13  3.07682923E-02
  3.40886869E-01  3.69378680E-13 -2.55959484E-14 -1.21728174E-03 -1.35576472E-02
  8.09118351E-04 -9.00196564E-03  1.27764860E-12 -6.65848816E-02 -7.39270059E-01
  1.24056329E-01 -1.37945598E+00  7.57052313E-02 -1.83822515E+00  5.80518626E-01
  8.29571160E-03 -2.01570817E-01  6.36429546E-02 -8.40009429E-02  2.03979597E+00
 -6.44161581E-01  8.15454207E-14  1.87283374E-13 -7.77484529E-03 -8.65416232E-02
  4.35784573E-14 -1.80135445E-12 -3.97110415E-02 -4.41941949E-01 -6.32483091E-13
  8.29420625E-13 -1.11210817E-01 -1.23996870E+00  1.38270660E-13  1.50551246E-12
  3.05452614E-02  3.40906926E-01 -7.70141463E-14 -2.15775008E-14  1.22115889E-03
  1.35572986E-02 -8.09964064E-04  9.00188958E-03  7.12683238E-13  6.63815239E-02
  7.39288347E-01 -1.24052002E-01  1.37945637E+00 -7.57093722E-02  1.83847759E+00
 -5.80583251E-01 -8.28854605E-03  2.01133969E-01 -6.35311240E-02  8.39979182E-02
 -2.03961156E+00  6.44114375E-01 -5.07483047E-02 -1.26002306E-01 -1.13901437E-14
 -1.05276649E-13  3.97819628E-02  1.29235752E+00 -1.47869839E-14 -4.58395281E-13
 -6.20433950E-01  3.14530212E-01 -8.23985702E-13 -1.18246404E-12  1.38072682E+00
 -1.87559533E-01 -1.33842094E-14  4.11416272E-13 -3.69121716E-01  8.32179914E-03
  7.14617298E-16 -1.49227626E-14  7.76391444E-15 -1.19315053E-14 -1.19049217E+00
 -4.49870021E-14 -7.29697701E-13  3.47370770E-13 -1.37782753E-12  4.23497560E-02
 -6.11957884E-01  1.22288002E-01  4.23497560E-02 -6.11957884E-01  1.22288002E-01
  4.23497560E-02 -6.11957884E-01  1.22288002E-01 -5.07483047E-02 -1.26002306E-01
 -3.29741631E-15 -1.06031403E-13 -3.97819628E-02  1.29235752E+00 -5.71637747E-14
 -4.60305215E-13  6.20433950E-01  3.14530212E-01  5.94638922E-13 -1.14368572E-12
 -1.38072682E+00 -1.87559533E-01  7.03827334E-14  4.18565473E-13  3.69121716E-01
  8.32179914E-03  3.59917337E-15  1.42938139E-14  5.12000919E-15  1.16114651E-14
 -1.19049217E+00  8.13694162E-14  7.51388545E-13  1.03057375E-13  1.37235957E-12
  4.23497560E-02 -6.11957884E-01  1.22288002E-01  4.23497560E-02 -6.11957884E-01
  1.22288002E-01  4.23497560E-02 -6.11957884E-01  1.22288002E-01 -2.06475594E-02
 -3.75011082E-02 -1.02311103E-14  1.99242410E-14 -1.93166822E-01 -1.51917819E-01
  8.83539421E-14  4.65024335E-14 -1.05802329E+00  7.50248741E+00  9.70326903E-13
 -3.08008417E-13 -4.71334642E+00 -4.16136294E+00  1.00367350E-13 -1.67236524E-13
  1.49114311E+00 -1.37396695E-02  1.90561545E-14 -2.28278817E-15 -1.89600089E-14
 -1.04831439E-14  1.94480146E+00  3.41718907E-13  9.74618197E-14 -6.40601689E-13
  2.05910284E-14 -5.20795368E-02  2.58038463E-01  1.48901653E-02 -5.20795368E-02
  2.58038463E-01  1.48901653E-02 -5.20795368E-02  2.58038463E-01  1.48901653E-02
  2.06475594E-02  3.75011082E-02 -7.44081147E-15 -6.46508913E-16 -1.93166822E-01
  1.51917819E-01  8.71991665E-14  3.95832815E-14 -1.05802329E+00 -7.50248741E+00
  8.70707979E-13  6.21609353E-13 -4.71334642E+00  4.16136294E+00  8.85829837E-14
  1.06218703E-13  1.49114311E+00  1.37396695E-02 -1.76430685E-14 -6.24813323E-15
  2.24161059E-14 -1.35448951E-14 -1.94480146E+00 -3.25839289E-13 -6.98250196E-14
  6.02324611E-13 -2.89286725E-13  5.20795368E-02 -2.58038463E-01 -1.48901653E-02
  5.20795368E-02 -2.58038463E-01 -1.48901653E-02  5.20795368E-02 -2.58038463E-01
 -1.48901653E-02  1.45762816E-14  1.96016568E-14 -3.44707356E-01 -4.37389927E-02
 -1.84445181E-13 -1.35677428E-13  5.26702204E-01  6.68429539E-02  2.80779315E-13
  5.86436397E-13  3.41036001E-01  4.33465596E-02 -8.30428861E-14 -3.88412072E-13
 -6.97394631E-01 -8.85511265E-02  2.55307922E-14 -7.16801416E-14  1.19633728E-01
  1.51852467E-02 -1.84049860E-01  2.33852500E-02  1.41801886E-13 -2.92795728E-01
 -3.71836325E-02  4.31127360E-02 -5.46679103E-03  3.09309882E-01 -5.57702562E-01
  4.62285746E-01 -7.92978799E-01  1.42983006E+00 -1.18516989E+00  4.83668917E-01
 -8.72127503E-01  7.22884142E-01  1.32550208E-14  1.71680112E-14  3.44695188E-01
  4.38347867E-02  1.75565394E-13 -1.05288308E-13 -5.26686392E-01 -6.69674319E-02
 -2.78076912E-13  3.39098586E-13 -3.41042318E-01 -4.32968343E-02 -2.01664044E-14
 -2.01735447E-14  6.97385161E-01  8.86256750E-02  8.55297747E-14 -6.89961763E-14
  1.19630815E-01  1.52081722E-02 -1.84051278E-01  2.33740899E-02  1.21498783E-13
 -2.92793284E-01 -3.72028683E-02  4.31102968E-02 -5.48599252E-03  3.09191544E-01
 -5.57527178E-01  4.62114109E-01 -7.92962628E-01  1.42980610E+00 -1.18514643E+00
  4.83771083E-01 -8.72278919E-01  7.23032323E-01  4.46337118E-15  5.51145103E-15
  4.37389927E-02 -3.44707356E-01 -7.15136508E-14 -9.06482736E-14 -6.68429539E-02
  5.26702204E-01  5.07435718E-14  1.07197272E-12 -4.33465596E-02  3.41036001E-01
 -5.87516414E-13 -2.23607322E-12  8.85511265E-02 -6.97394631E-01  6.39310242E-13
  1.29478102E-14 -1.51852467E-02  1.19633728E-01  2.33852500E-02  1.84049860E-01
  9.29367597E-14  3.71836325E-02 -2.92795728E-01 -5.46679103E-03 -4.31127360E-02
 -7.37072903E-01  1.32903582E+00 -1.10161551E+00  1.00666236E-01 -1.81533324E-01
  1.50456554E-01  6.36406667E-01 -1.14750250E+00  9.51158954E-01 -7.80507529E-15
 -9.96508942E-15 -4.38347867E-02  3.44695188E-01 -1.15008631E-13  1.21941949E-13
  6.69674319E-02 -5.26686392E-01  1.15357735E-13 -1.19903184E-12  4.32968343E-02
 -3.41042318E-01 -5.87510218E-13  2.27223277E-12 -8.86256750E-02  6.97385161E-01
  6.31098153E-13  1.85040383E-15 -1.52081722E-02  1.19630815E-01  2.33740899E-02
  1.84051278E-01 -1.19543508E-13  3.72028683E-02 -2.92793284E-01 -5.48599252E-03
 -4.31102968E-02 -7.37122551E-01  1.32910940E+00 -1.10168752E+00  1.00793544E-01
 -1.81722002E-01  1.50641201E-01  6.36329008E-01 -1.14738740E+00  9.51046317E-01
 -5.07197039E-15 -6.87479222E-15 -9.80253203E-03 -5.09441435E-01  2.90863157E-14
  1.07659927E-13  1.21226609E-02  6.29326206E-01  1.14876253E-14 -4.85335432E-13
 -1.03360740E-02 -5.37674213E-01 -2.22919066E-13 -8.07015561E-13 -5.79071179E-03
 -2.97771376E-01  1.95452497E-13  4.69522193E-14  9.03526216E-04  4.63414727E-02
 -2.15054217E-03  1.12531094E-01  4.62185175E-14 -2.49555859E-03 -1.27833649E-01
  5.21846095E-03 -2.72864218E-01 -6.34501704E-01  8.60190633E-01 -1.14512084E+00
 -1.42351043E-02  1.92938193E-02 -2.56945601E-02  6.48736808E-01 -8.79484453E-01
  1.17081540E+00 -5.50194724E-15 -6.23988593E-15 -9.68580961E-03 -5.09443668E-01
 -3.00375562E-14  1.06896660E-13  1.19518023E-02  6.29329474E-01 -1.11681971E-14
 -5.79990321E-13 -1.02322866E-02 -5.37676198E-01  1.46025701E-13  3.10885473E-13
 -5.60037787E-03 -2.97775017E-01  1.03238316E-13  5.26412416E-14 -8.69244508E-04
 -4.63421284E-02  2.15424883E-03 -1.12531023E-01  3.17294432E-14  2.39465842E-03
  1.27835579E-01 -5.21975400E-03  2.72864193E-01  6.34568045E-01 -8.60275835E-01
  1.14524432E+00  1.41066772E-02 -1.91288794E-02  2.54555276E-02 -6.48674722E-01
  8.79404715E-01 -1.17069985E+00  7.47502665E-15  3.36894382E-15 -5.09441435E-01
  9.80253203E-03 -1.03299399E-13  4.80062143E-14  6.29326206E-01 -1.21226609E-02
  1.88623692E-13  3.36213557E-13 -5.37674213E-01  1.03360740E-02 -1.39350414E-13
 -1.52455707E-12 -2.97771376E-01  5.79071179E-03  2.15611446E-13 -4.94295032E-14
  4.63414727E-02 -9.03526216E-04 -1.12531094E-01 -2.15054217E-03  2.70763984E-14
 -1.27833649E-01  2.49555859E-03  2.72864218E-01  5.21846095E-03  3.82767012E-01
 -5.18909877E-01  6.90805350E-01 -7.40878100E-01  1.00440188E+00 -1.33710642E+00
  3.58111088E-01 -4.85492002E-01  6.46301066E-01 -2.41009509E-15  2.42461664E-16
 -5.09443668E-01  9.68580961E-03 -1.75120722E-14 -5.22047733E-14  6.29329474E-01
 -1.19518023E-02  3.18411743E-14 -3.10030427E-13 -5.37676198E-01  1.02322866E-02
 -5.49177834E-14  1.26489333E-12 -2.97775017E-01  5.60037787E-03  2.14958510E-13
  2.26914298E-14 -4.63421284E-02  8.69244508E-04  1.12531023E-01  2.15424883E-03
  4.86682721E-14  1.27835579E-01 -2.39465842E-03 -2.72864193E-01 -5.21975400E-03
 -3.82657019E-01  5.18768613E-01 -6.90600628E-01  7.40880557E-01 -1.00440503E+00
  1.33711099E+00 -3.58223538E-01  4.85636421E-01 -6.46510360E-01 -1.49900593E-02
 -1.06019649E-02 -2.64616983E-13 -1.54543550E-14  2.67440200E-01  3.00202952E-03
  3.95533037E-13  2.59754097E-14 -5.06036219E-01  1.61789922E-02  2.88845873E-13
 -9.40406682E-15  3.12786227E-01  8.71345051E-01 -5.06023052E-13  2.37576497E-15
 -8.55054310E-03  9.38413736E-02  8.20134724E-14 -1.49983031E-16 -1.66101694E-13
 -3.26057683E-15 -2.68638174E-01 -1.90936014E-13  1.19865079E-16  3.59650803E-14
  7.48673031E-15 -6.31967551E-01  1.10547533E+00 -8.65330707E-01 -6.31967551E-01
  1.10547533E+00 -8.65330707E-01 -6.31967551E-01  1.10547533E+00 -8.65330707E-01
 -1.49900593E-02 -1.06019649E-02  1.04070596E-13 -1.17244488E-14 -2.67440200E-01
  3.00202952E-03 -1.98868227E-13  2.00189550E-14  5.06036219E-01  1.61789922E-02
 -4.62784732E-13 -3.47831683E-14 -3.12786227E-01  8.71345051E-01  4.15508265E-13
  2.24335278E-14  8.55054310E-03  9.38413736E-02  6.79187987E-14  2.90190535E-15
 -1.32109982E-13  5.19720257E-15 -2.68638174E-01 -1.48870324E-13 -7.00399041E-15
 -5.28633513E-14 -3.62321993E-15 -6.31967551E-01  1.10547533E+00 -8.65330707E-01
 -6.31967551E-01  1.10547533E+00 -8.65330707E-01 -6.31967551E-01  1.10547533E+00
 -8.65330707E-01 -1.53807944E-02 -9.06070764E-03 -1.60340171E-13 -6.76720111E-14
  3.00739439E-01  1.18012883E-02  2.16780582E-13  1.06290602E-13 -4.03675892E-01
 -2.71322046E+00 -2.99184072E-13  1.14200236E-13  1.72760128E+00  1.04675648E+01
 -1.50721112E-13 -1.45118978E-13 -2.50168093E+00  3.80860507E-02  1.82272755E-14
  2.44138756E-14 -3.72695560E-14  4.35424590E-14 -2.47502890E-01 -7.01729421E-14
 -3.57121793E-14  1.27392398E-13  1.76140940E-14 -6.33261358E-01  1.33834743E+00
 -1.33825584E+00 -6.33261358E-01  1.33834743E+00 -1.33825584E+00 -6.33261358E-01
  1.33834743E+00 -1.33825584E+00  1.53807944E-02  9.06070764E-03 -1.70823966E-13
  6.81836794E-14  3.00739439E-01 -1.18012883E-02  2.32797741E-13 -1.06064934E-13
 -4.03675892E-01  2.71322046E+00 -2.79739969E-13 -1.17062351E-13  1.72760128E+00
 -1.04675648E+01 -1.74382553E-13  1.39353049E-13 -2.50168093E+00 -3.80860507E-02
 -2.09887976E-14  2.36862967E-14  3.27972254E-14  3.84170003E-14  2.47502890E-01
  7.38712890E-14 -3.43736322E-14 -1.18997706E-13  2.16487794E-14  6.33261358E-01
 -1.33834743E+00  1.33825584E+00  6.33261358E-01 -1.33834743E+00  1.33825584E+00
  6.33261358E-01 -1.33834743E+00  1.33825584E+00 -2.08008732E-02 -2.56510314E-02
  3.83198749E-14 -1.77164908E-14 -8.33966004E-01  4.61885079E-02 -6.31197654E-14
  3.97059769E-14  9.10128958E-01 -7.03932137E-01  6.25294130E-14 -1.82942038E-14
 -7.70830412E-01 -1.04596667E-01  5.31086473E-14 -5.45371434E-14  2.51601598E-01
 -2.85624832E-01 -2.11105875E-14  3.72061310E-14 -2.11650651E-14  5.49826875E-14
  2.65798387E-01  4.46458706E-15 -7.82733876E-15  6.41522702E-15 -9.22456342E-15
 -2.27265160E-01  3.21578927E-01  1.53161775E-01 -2.27265160E-01  3.21578927E-01
  1.53161775E-01 -2.27265160E-01  3.21578927E-01  1.53161775E-01 -2.08008732E-02
 -2.56510314E-02 -3.46299745E-14  8.59641290E-15  8.33966004E-01  4.61885079E-02
  5.81937790E-14  4.92519230E-15 -9.10128958E-01 -7.03932137E-01 -6.14160718E-14
  4.43149912E-15  7.70830412E-01 -1.04596667E-01 -5.42399221E-14 -6.19466543E-14
 -2.51601598E-01 -2.85624832E-01 -1.32967022E-14 -4.00293346E-14 -1.60753054E-14
 -5.49572499E-14  2.65798387E-01  2.50189806E-15  9.96875569E-15  1.66142254E-15
  1.13823863E-14 -2.27265160E-01  3.21578927E-01  1.53161775E-01 -2.27265160E-01
  3.21578927E-01  1.53161775E-01 -2.27265160E-01  3.21578927E-01  1.53161775E-01
 -8.34403879E-16 -1.77726387E-15 -6.74578214E-01 -5.54904491E-01  3.01839859E-15
  1.15153792E-14  8.86396719E-01  7.29125231E-01 -2.78198279E-14  3.15617507E-15
 -3.60664739E-01 -2.96805453E-01  8.43319077E-15  3.65306872E-13  1.74598664E-01
  1.43673117E-01 -8.83395108E-14 -9.08674076E-16 -1.23085385E-02 -1.00658089E-02
  2.15474019E-01 -1.77371707E-01  3.08035712E-15  4.69371346E-02  3.84786274E-02
 -2.02793629E-01  1.66793942E-01  5.46118891E-02 -8.05265554E-04 -1.97269745E-03
  2.57362409E-01 -3.63317767E-03 -9.14356289E-03 -3.11974298E-01  4.43844322E-03
  1.11162603E-02 -2.22694432E-16  2.27488510E-16  6.74271581E-01  5.55277044E-01
  3.43954678E-14 -6.13554238E-15 -8.85974129E-01 -7.29638670E-01 -4.32625535E-14
 -2.25111164E-14  3.60623008E-01  2.96856155E-01  2.08617454E-14 -3.05730512E-13
 -1.74567556E-01 -1.43710912E-01 -1.01945000E-13  1.96894928E-14 -1.22449171E-02
 -1.01431077E-02  2.15497673E-01 -1.77342967E-01 -2.42893105E-14  4.67866429E-02
  3.86614720E-02 -2.02678847E-01  1.66933400E-01  5.48792786E-02 -7.48691234E-04
 -1.92512496E-03  2.57190145E-01 -3.66962539E-03 -9.17421122E-03 -3.12069424E-01
  4.41831662E-03  1.10993362E-02  6.34756999E-16  8.20421921E-17  5.54904491E-01
 -6.74578214E-01  4.71442476E-14  7.32954346E-15 -7.29125231E-01  8.86396719E-01
 -5.90954349E-14  5.09894434E-14  2.96805453E-01 -3.60664739E-01  2.00876328E-14
  1.86728063E-13 -1.43673117E-01  1.74598664E-01 -7.54642489E-14 -1.40200428E-14
  1.00658089E-02 -1.23085385E-02 -1.77371707E-01 -2.15474019E-01  1.93609724E-14
 -3.84786274E-02  4.69371346E-02  1.66793942E-01  2.02793629E-01  3.28706702E-01
 -4.66015250E-03 -1.16970144E-02 -2.11648634E-01  3.02745667E-03  7.55691330E-03
 -1.17058067E-01  1.63269582E-03  4.14010110E-03  1.02232046E-15  1.94140246E-15
 -5.55277044E-01  6.74271581E-01 -9.25904040E-15 -1.05471247E-14  7.29638670E-01
 -8.85974129E-01 -1.21502627E-14 -1.37229719E-14 -2.96856155E-01  3.60623008E-01
 -1.91229420E-14 -2.35231258E-13  1.43710912E-01 -1.74567556E-01 -5.47383234E-14
  1.02760149E-14  1.01431077E-02 -1.22449171E-02 -1.77342967E-01 -2.15497673E-01
 -1.39894877E-14 -3.86614720E-02  4.67866429E-02  1.66933400E-01  2.02678847E-01
  3.28662165E-01 -4.66957550E-03 -1.17049381E-02 -2.11857932E-01  2.98317338E-03
  7.51967615E-03 -1.16804233E-01  1.68640212E-03  4.18526190E-03  1.64126426E-16
 -1.97759625E-16 -5.54182778E-01 -5.43103646E-01 -6.68960974E-14  1.32724757E-14
  7.95316265E-01  7.79449870E-01  9.85358625E-14 -1.64163800E-13 -3.76174684E-02
 -3.67431223E-02  6.89244554E-14  9.45480943E-13  3.96086485E-02  3.87670245E-02
 -2.46479449E-13  4.55661664E-14 -1.85425390E-01 -1.81810016E-01 -5.82152019E-02
  5.71832391E-02 -6.34016835E-14  3.43139334E-01  3.36424225E-01 -3.51351066E-01
  3.44489495E-01  1.48097092E-01  2.71606488E-02  1.36306888E-02  4.24372241E-01
  7.77962841E-02  3.90144878E-02 -5.72469333E-01 -1.04956933E-01 -5.26451767E-02
 -1.66893220E-15 -4.68070390E-15 -5.53836829E-01 -5.43456427E-01  1.10433670E-14
  4.22916366E-14  7.94853221E-01  7.79922059E-01  1.19736441E-14  1.00939984E-13
 -3.74717053E-02 -3.68917642E-02  1.14507768E-13 -1.03792786E-12  3.95341580E-02
  3.88429862E-02 -2.72326635E-13  1.75663711E-14  1.85401241E-01  1.81834642E-01
  5.83107019E-02 -5.70858530E-02  1.51331010E-14 -3.43069978E-01 -3.36494950E-01
  3.51294287E-01 -3.44547396E-01 -1.48282404E-01 -2.71764767E-02 -1.36230654E-02
 -4.24238261E-01 -7.77848406E-02 -3.90199996E-02  5.72520664E-01  1.04961317E-01
  5.26430650E-02 -1.47682650E-15 -4.01741866E-15  5.43103646E-01 -5.54182778E-01
 -9.06493201E-15  3.65194400E-14 -7.79449870E-01  7.95316265E-01 -8.33857896E-15
  6.06604141E-14  3.67431223E-02 -3.76174684E-02 -9.67842157E-14 -9.35892123E-13
 -3.87670245E-02  3.96086485E-02  2.45773602E-13  1.10291251E-14  1.81810016E-01
 -1.85425390E-01  5.71832391E-02  5.82152019E-02  1.64112477E-14 -3.36424225E-01
  3.43139334E-01  3.44489495E-01  3.51351066E-01  5.75526751E-01  1.05512619E-01
  5.29197320E-02 -4.16019219E-01 -7.62781214E-02 -3.82643888E-02 -1.59507531E-01
 -2.92344977E-02 -1.46553432E-02  2.26047377E-16  1.44118833E-16  5.43456427E-01
 -5.53836829E-01  5.59089849E-14  6.58598263E-15 -7.79922059E-01  7.94853221E-01
 -8.29317588E-14 -1.24799306E-13  3.68917642E-02 -3.74717053E-02 -4.95340578E-14
  8.57823991E-13 -3.88429862E-02  3.95341580E-02  2.21340168E-13  3.27145438E-14
 -1.81834642E-01  1.85401241E-01 -5.70858530E-02 -5.83107019E-02 -4.64514518E-14
  3.36494950E-01 -3.43069978E-01 -3.44547396E-01 -3.51294287E-01 -5.75479034E-01
 -1.05508543E-01 -5.29216950E-02  4.16155845E-01  7.62897909E-02  3.82587682E-02
  1.59323188E-01  2.92187526E-02  1.46629268E-02  6.12990529E-03  2.81103017E-02
 -2.66545457E-14 -3.24245577E-14  4.03309009E-01 -4.21354351E-01  2.78560661E-14
  5.83034442E-14 -2.26836946E-01 -6.05765000E-01 -1.90316475E-14 -5.80505198E-14
 -3.99780813E-01 -3.84105468E-02  4.97354235E-14 -5.22190163E-14 -5.26434462E-02
 -7.93179622E-01 -4.79636853E-14 -3.61137273E-14 -3.55633759E-14  1.51770601E-13
  8.45826315E-01  3.06386915E-14  2.56598839E-14  1.12878028E-14 -7.22501446E-14
  1.91085283E-02  2.78827163E-01  1.01570559E-01  1.91085283E-02  2.78827163E-01
  1.01570559E-01  1.91085283E-02  2.78827163E-01  1.01570559E-01  6.12990529E-03
  2.81103017E-02  2.24985922E-14 -3.01783672E-14 -4.03309009E-01 -4.21354351E-01
 -2.18708346E-14  5.63684566E-14  2.26836946E-01 -6.05765000E-01  1.92073732E-14
 -5.00932689E-14  3.99780813E-01 -3.84105468E-02 -4.98821220E-14 -5.05157187E-14
  5.26434462E-02 -7.93179622E-01 -1.62157548E-14  2.45701135E-14 -7.83178362E-15
 -1.47359741E-13  8.45826315E-01  1.52071018E-14 -1.52785608E-14 -3.03724346E-15
  6.95868673E-14  1.91085283E-02  2.78827163E-01  1.01570559E-01  1.91085283E-02
  2.78827163E-01  1.01570559E-01  1.91085283E-02  2.78827163E-01  1.01570559E-01
 -4.32689602E-16 -2.85477396E-15 -5.24880342E-02  2.84026507E-01 -4.79163918E-14
  4.32501304E-14  6.78595432E-02 -3.67241830E-01  3.14852797E-14  6.37566544E-14
 -2.80477377E-02  1.51875091E-01  6.88346621E-14 -1.63929668E-13  1.98162807E-03
 -1.06795713E-02  5.43407922E-14  9.20982679E-14  1.16613687E-01 -6.30230046E-01
  7.64413186E-02  4.12761088E-01 -1.09804599E-13 -3.86867179E-02  2.08971601E-01
 -6.82589837E-02 -3.68780952E-01 -1.68820891E-01 -3.19762390E-02  1.01418194E-01
  3.25561948E-02  6.17593278E-03 -1.95552070E-02  1.36264696E-01  2.58003062E-02
 -8.18629873E-02 -6.06331599E-16 -3.30731843E-15 -5.26071961E-02  2.84004460E-01
  3.43727257E-14  4.36363930E-14  6.80265043E-02 -3.67210939E-01 -1.96201797E-15
  1.23402194E-13 -2.81477047E-02  1.51856595E-01 -4.93108727E-14  2.16679204E-13
  1.97054981E-03 -1.06816210E-02  4.78078776E-14  8.60307316E-14 -1.16593215E-01
  6.30233834E-01 -7.62989653E-02 -4.12787426E-01 -9.11992190E-14  3.86413194E-02
 -2.08980000E-01  6.82041816E-02  3.68791091E-01  1.68842496E-01  3.19734311E-02
 -1.01433168E-01 -3.26197820E-02 -6.16766852E-03  1.95992771E-02 -1.36222714E-01
 -2.58057626E-02  8.18338910E-02 -3.09715289E-16 -1.39767121E-15  2.84026507E-01
  5.24880342E-02  6.28122506E-15  1.53544003E-14 -3.67241830E-01 -6.78595432E-02
 -3.81519023E-14  1.32746512E-13  1.51875091E-01  2.80477377E-02  9.86377436E-16
  5.07206323E-13 -1.06795713E-02 -1.98162807E-03 -1.34271124E-13  2.80006062E-14
 -6.30230046E-01 -1.16613687E-01 -4.12761088E-01  7.64413186E-02 -1.63937062E-14
  2.08971601E-01  3.86867179E-02  3.68780952E-01 -6.82589837E-02  5.98761310E-02
  1.13301373E-02 -3.59734138E-02 -1.76141246E-01 -3.33573040E-02  1.05817440E-01
  1.16265115E-01  2.20271667E-02 -6.98440258E-02 -3.24755839E-16 -8.57932483E-16
  2.84004460E-01  5.26071961E-02  2.96643109E-14  1.99867581E-14 -3.67210939E-01
 -6.80265043E-02 -4.16541286E-14 -5.31608550E-14  1.51856595E-01  2.81477047E-02
 -5.41087852E-14 -4.90476606E-13 -1.06816210E-02 -1.97054981E-03 -1.34069613E-13
  4.73743847E-14  6.30233834E-01  1.16593215E-01  4.12787426E-01 -7.62989653E-02
 -6.73208584E-14 -2.08980000E-01 -3.86413194E-02 -3.68791091E-01  6.82041816E-02
 -5.98151806E-02 -1.13380589E-02  3.59311711E-02  1.76129481E-01  3.33588330E-02
 -1.05809286E-01 -1.16314300E-01 -2.20207741E-02  6.98781148E-02  7.23410551E-16
 -5.80964250E-17 -1.59184159E-01  2.58835708E-02 -1.81152251E-14  1.80781181E-14
  1.90264726E-01 -3.09426289E-02  2.09881973E-14  2.81718192E-14 -8.30715136E-01
  1.34936144E-01  8.96857270E-14 -2.39784046E-13  3.49810801E-02 -5.68656459E-03
  5.23513953E-14  5.59624630E-14 -6.90590329E-01  1.12143222E-01 -3.99419254E-01
 -6.48217648E-02 -8.14344378E-14  5.77215195E-01 -9.37534184E-02  2.35020800E-01
  3.81128168E-02 -5.72815684E-02  1.30627647E-01  1.18688494E-01  8.93687658E-02
 -2.03887959E-01 -1.85283664E-01 -3.20871974E-02  7.32603120E-02  6.65951700E-02
  6.31729702E-16 -7.32618620E-16  1.59193239E-01 -2.58276653E-02 -1.04600248E-14
  1.58493108E-14 -1.90277261E-01  3.08654539E-02  4.14931195E-14  1.86096766E-13
  8.30718428E-01 -1.34915874E-01 -4.14043504E-14  2.47421467E-13 -3.49826297E-02
  5.67702448E-03  7.53877658E-14  3.77382409E-14 -6.90582960E-01  1.12188589E-01
 -3.99402674E-01 -6.49238442E-02 -3.98771750E-14  5.77215650E-01 -9.37506144E-02
  2.35001956E-01  3.82288390E-02 -5.72347791E-02  1.30619510E-01  1.18715866E-01
  8.93784491E-02 -2.03889643E-01 -1.85277999E-01 -3.21436699E-02  7.32701338E-02
  6.65621328E-02  9.93605061E-16  1.32672588E-15 -2.58835708E-02 -1.59184159E-01
 -3.81786183E-14  8.94014091E-15  3.09426289E-02  1.90264726E-01  8.71191331E-14
 -2.71599275E-13 -1.34936144E-01 -8.30715136E-01  1.81079414E-13  8.18381897E-13
  5.68656459E-03  3.49810801E-02 -2.36305424E-13  3.33424907E-14 -1.12143222E-01
 -6.90590329E-01 -6.48217648E-02  3.99419254E-01 -9.14045024E-14  9.37534184E-02
  5.77215195E-01  3.81128168E-02 -2.35020800E-01  7.01226331E-02 -1.60011629E-01
 -1.45422313E-01  1.45459769E-02 -3.31210464E-02 -3.00760946E-02 -8.46686100E-02
  1.93132675E-01  1.75498407E-01 -6.30459313E-16 -1.60925293E-15  2.58276653E-02
  1.59193239E-01 -3.92099292E-14  1.95354646E-15 -3.08654539E-02 -1.90277261E-01
  9.68941844E-14  3.25204268E-13  1.34915874E-01  8.30718428E-01  1.44444763E-13
 -8.12319296E-13 -5.67702448E-03 -3.49826297E-02 -2.30705433E-13 -3.29954888E-15
 -1.12188589E-01 -6.90582960E-01 -6.49238442E-02  3.99402674E-01  5.52163303E-14
  9.37506144E-02  5.77215650E-01  3.82288390E-02 -2.35001956E-01  7.01608281E-02
 -1.60018272E-01 -1.45399968E-01  1.44863586E-02 -3.31106775E-02 -3.01109721E-02
 -8.46471868E-02  1.93128949E-01  1.75510940E-01 -9.23417757E-03 -2.72257481E-02
  1.49594771E-14  1.81399712E-14  7.77308107E-01 -6.81690670E-02 -8.93017303E-14
 -1.84594621E-14 -1.91208184E+00  6.25773892E+00 -8.90087130E-14 -6.84667394E-14
 -3.13868956E+00 -3.77588622E+00  1.05257821E-13 -9.73214546E-14  1.16361568E+00
 -5.32592127E-01  1.30334853E-13 -3.05516502E-14 -2.26712277E-13  2.38364269E-14
  1.60006771E+00 -1.06222286E-13  1.56763471E-14  2.17227343E-13 -4.02916494E-14
  2.11165241E-01 -2.45087917E-01  1.39477546E-01  2.11165241E-01 -2.45087917E-01
  1.39477546E-01  2.11165241E-01 -2.45087917E-01  1.39477546E-01  9.23417757E-03
  2.72257481E-02 -7.50233205E-15 -1.81564710E-14  7.77308107E-01  6.81690670E-02
 -5.80958785E-14  1.35248755E-14 -1.91208184E+00 -6.25773892E+00 -1.50464503E-13
  6.35854022E-14 -3.13868956E+00  3.77588622E+00  1.11821739E-13  1.06906880E-13
  1.16361568E+00  5.32592127E-01 -2.18270196E-13 -3.85056862E-14  2.89680068E-13
 -7.99991889E-16 -1.60006771E+00  1.78090374E-13  2.25202504E-14 -2.61145837E-13
 -2.18743812E-14 -2.11165241E-01  2.45087917E-01 -1.39477546E-01 -2.11165241E-01
  2.45087917E-01 -1.39477546E-01 -2.11165241E-01  2.45087917E-01 -1.39477546E-01
  2.11134391E-16  4.21783273E-15  1.74858534E-01  7.66683365E-02 -4.25851015E-14
 -2.14242072E-14 -2.13232863E-01 -9.35091867E-02  1.12559244E-13 -4.25949113E-13
  6.81304394E-01  2.98705088E-01  2.52084502E-13  1.29826839E-13 -1.91109471E-01
 -8.38052874E-02 -1.08718721E-14  3.33649771E-14 -3.79569934E-01 -1.66388501E-01
  5.75754598E-01 -2.52518833E-01 -1.08615226E-13  3.10234567E-01  1.35999192E-01
 -3.88279345E-01  1.70283265E-01  4.83249319E-02 -1.03815913E-01  1.56607432E-02
 -4.01887736E-01  8.63169122E-01 -1.30343603E-01  3.53562804E-01 -7.59353209E-01
  1.14682860E-01 -4.42639039E-16  9.62143093E-16 -1.74842026E-01 -7.67059764E-02
 -5.60062038E-14 -3.22045545E-14  2.13223967E-01  9.35294704E-02  1.39917761E-13
  5.21388707E-13 -6.81226018E-01 -2.98883790E-01  2.31655575E-13  5.53900844E-14
  1.91099946E-01  8.38270054E-02 -9.76607657E-15 -5.28561460E-14 -3.79506559E-01
 -1.66533000E-01  5.75754622E-01 -2.52518777E-01  1.27411548E-13  3.10186140E-01
  1.36109607E-01 -3.88271089E-01  1.70302089E-01  4.82634173E-02 -1.03632779E-01
  1.56668669E-02 -4.01862877E-01  8.63095116E-01 -1.30346077E-01  3.53599460E-01
 -7.59462337E-01  1.14679211E-01 -7.31636645E-16 -6.44308888E-16 -7.66683365E-02
  1.74858534E-01 -9.97172291E-16  4.51974345E-15  9.35091867E-02 -2.13232863E-01
  1.85084719E-16 -1.65329050E-15 -2.98705088E-01  6.81304394E-01 -3.25689152E-14
 -9.58266670E-13  8.38052874E-02 -1.91109471E-01  2.71954406E-13  1.02747105E-14
  1.66388501E-01 -3.79569934E-01 -2.52518833E-01 -5.75754598E-01 -3.36497884E-16
 -1.35999192E-01  3.10234567E-01  1.70283265E-01  3.88279345E-01 -4.36159572E-01
  9.36763705E-01 -1.41466094E-01  1.76229167E-01 -3.78474635E-01  5.71704455E-02
  2.59930405E-01 -5.58289070E-01  8.42956485E-02 -2.48649859E-16 -4.04150728E-16
  7.67059764E-02 -1.74842026E-01  1.18720950E-14  1.97187322E-14 -9.35294704E-02
  2.13223967E-01 -2.09218358E-14 -5.20168127E-14  2.98883790E-01 -6.81226018E-01
 -1.34977773E-14  8.71357411E-13 -8.38270054E-02  1.91099946E-01  2.68617646E-13
 -3.24144145E-15  1.66533000E-01 -3.79506559E-01 -2.52518777E-01 -5.75754622E-01
 -4.17805975E-15 -1.36109607E-01  3.10186140E-01  1.70302089E-01  3.88271089E-01
 -4.36166383E-01  9.36783983E-01 -1.41465416E-01  1.76285846E-01 -3.78643372E-01
  5.71648032E-02  2.59880537E-01 -5.58140610E-01  8.43006128E-02  4.62051700E-15
  3.66157752E-15 -4.44097284E-03  5.07537136E-02  2.61074596E-14 -1.58357375E-14
  1.96374635E-02 -2.24588617E-01 -1.26035311E-13  7.38870699E-13  6.00663860E-02
 -6.88697126E-01  2.57745154E-13  1.33514628E-13 -7.17869183E-03  8.25045566E-02
 -2.53656043E-14  1.25853318E-13 -4.03792582E-02  4.62157806E-01  6.27792008E-02
  7.17922701E-01 -1.81232648E-13  4.39467128E-02 -5.03057572E-01 -7.45591718E-02
 -8.52517117E-01  1.36044624E-01 -9.33363894E-01  3.92181911E-02 -1.30490665E-02
  8.96113881E-02 -3.75749895E-03 -1.22995558E-01  8.43752505E-01 -3.54606921E-02
  4.52373909E-15  3.68013947E-15 -4.43758368E-03  5.07540101E-02 -2.88166054E-15
 -4.46021615E-15  1.96505352E-02 -2.24587474E-01  6.57252677E-14  4.66932392E-13
  6.04072837E-02 -6.88667309E-01 -3.87437903E-13  3.99224200E-13 -7.25355576E-03
  8.24980085E-02  1.05629336E-13  1.46731845E-13  4.04670061E-02 -4.62150131E-01
 -6.28093816E-02 -7.17920061E-01 -2.38756196E-13 -4.40541448E-02  5.03048175E-01
  7.45746112E-02  8.52515767E-01 -1.36071738E-01  9.33474360E-01 -3.92297347E-02
  1.31129770E-02 -8.98717680E-02  3.78470846E-03  1.22958761E-01 -8.43602592E-01
  3.54450263E-02 -1.00983223E-15 -6.53541161E-15 -5.07537136E-02 -4.44097284E-03
  2.58622681E-13 -7.21193109E-14  2.24588617E-01  1.96374635E-02 -6.61725991E-13
  2.49709999E-12  6.88697126E-01  6.00663860E-02 -1.24816700E-12  2.20631057E-13
 -8.25045566E-02 -7.17869183E-03  8.29862730E-15 -2.45347159E-13 -4.62157806E-01
 -4.03792582E-02  7.17922701E-01 -6.27792008E-02  6.34067254E-13  5.03057572E-01
  4.39467128E-02 -8.52517117E-01  7.45591718E-02  6.34776363E-02 -4.35403577E-01
  1.83038471E-02 -1.49556919E-01  1.02601863E+00 -4.31158733E-02  8.60792825E-02
 -5.90615054E-01  2.48120262E-02  5.22967102E-16  6.06175402E-15 -5.07540101E-02
 -4.43758368E-03  2.57636958E-13  7.01134513E-14  2.24587474E-01  1.96505352E-02
 -6.77030509E-13 -2.61076268E-12  6.88667309E-01  6.04072837E-02 -1.18677068E-12
 -2.68937230E-13 -8.24980085E-02 -7.25355576E-03 -2.63994571E-15  2.15683247E-13
  4.62150131E-01  4.04670061E-02 -7.17920061E-01  6.28093816E-02 -5.89323204E-13
 -5.03048175E-01 -4.40541448E-02  8.52515767E-01 -7.45746112E-02 -6.34194932E-02
  4.35166694E-01 -1.82790930E-02  1.49551329E-01 -1.02599586E+00  4.31134934E-02
 -8.61318356E-02  5.90829163E-01 -2.48344004E-02 -3.04294463E-02 -3.30627918E-02
 -7.26943524E-15 -4.03997848E-15  6.90341570E-01  3.92385221E-02  2.10676280E-14
  1.05537203E-14 -1.56190489E+00  2.50390846E+00  8.29359598E-14 -4.73803616E-14
 -5.09101945E-01  1.68023484E-02  1.02734667E-14 -3.33184578E-14  3.54859444E-02
  6.84190492E-01 -2.27794180E-14 -2.82107338E-16  3.11677160E-14  9.65389264E-15
  3.79913811E-01  4.29342267E-14  4.62615859E-17 -7.10068014E-14 -1.43669647E-14
  2.14455809E-01 -2.52782105E-01 -1.51477263E-01  2.14455809E-01 -2.52782105E-01
 -1.51477263E-01  2.14455809E-01 -2.52782105E-01 -1.51477263E-01  3.04294463E-02
  3.30627918E-02 -6.82600448E-15  3.34393091E-15  6.90341570E-01 -3.92385221E-02
  2.10469969E-14 -8.12824491E-15 -1.56190489E+00 -2.50390846E+00  7.97405217E-14
  5.29624788E-14 -5.09101945E-01 -1.68023484E-02  5.17161311E-15  3.19722634E-14
  3.54859444E-02 -6.84190492E-01  2.40298523E-14  2.11354259E-15 -3.60263383E-14
  1.17340916E-14 -3.79913811E-01 -4.45252671E-14 -3.64921871E-15  7.20865725E-14
 -1.99584945E-14 -2.14455809E-01  2.52782105E-01  1.51477263E-01 -2.14455809E-01
  2.52782105E-01  1.51477263E-01 -2.14455809E-01  2.52782105E-01  1.51477263E-01
 -1.43426678E+00  1.54413800E+00 -8.15126017E-16  2.81617053E-15  2.12945025E-02
 -4.12649645E-01  8.32895683E-16 -1.32838547E-14 -7.49357918E-03  4.10651638E-01
 -1.59908269E-14 -1.19398108E-14 -6.15494143E-03  1.44050284E-01  7.21324452E-15
  2.02048788E-14  2.46856134E-02 -1.09479375E-02 -6.34901722E-17  2.70592672E-15
 -9.96518741E-16  4.35479295E-15  8.15606610E-02 -8.36117929E-16 -1.21690303E-14
  4.15572518E-15 -2.09546217E-14  1.84037574E-02  2.42938808E-02 -1.63224972E-01
  1.84037574E-02  2.42938808E-02 -1.63224972E-01  1.84037574E-02  2.42938808E-02
 -1.63224972E-01 -1.43426678E+00  1.54413800E+00  8.01819683E-16  3.07379055E-15
 -2.12945025E-02 -4.12649645E-01 -8.12322969E-16 -1.35321242E-14  7.49357918E-03
  4.10651638E-01  1.57594850E-14 -1.11302799E-14  6.15494143E-03  1.44050284E-01
 -7.33134281E-15  1.96310361E-14 -2.46856134E-02 -1.09479375E-02 -2.48159212E-16
 -2.12444361E-15 -7.82484053E-16 -3.46158529E-15  8.15606610E-02 -7.10011085E-16
  1.16530228E-14  3.97259839E-15  2.03852312E-14  1.84037574E-02  2.42938808E-02
 -1.63224972E-01  1.84037574E-02  2.42938808E-02 -1.63224972E-01  1.84037574E-02
  2.42938808E-02 -1.63224972E-01 -1.43488073E+00  1.55219792E+00  1.32425938E-16
 -5.86644385E-16 -4.74836100E-02 -3.98898027E-01 -6.72450477E-16  8.99278121E-16
  1.47385216E-01  4.94719173E-01  3.54629734E-15 -6.66466535E-15  1.83472354E-02
  4.81877624E-01 -2.88705625E-16  2.96203247E-16 -8.50971817E-02 -1.94006493E-02
 -8.60422538E-16  1.62462703E-18  3.36740901E-16  4.40031558E-16 -8.99140713E-02
  1.09411653E-15 -1.15790362E-16 -2.14723060E-15 -1.47817230E-15  1.29751285E-03
 -2.95075502E-02 -1.33119597E-01  1.29751285E-03 -2.95075502E-02 -1.33119597E-01
  1.29751285E-03 -2.95075502E-02 -1.33119597E-01  1.43488073E+00 -1.55219792E+00
  1.13773140E-16  4.86241314E-16 -4.74836100E-02  3.98898027E-01 -5.69942768E-16
 -5.30635937E-16  1.47385216E-01 -4.94719173E-01  3.69515532E-15  6.73262805E-15
  1.83472354E-02 -4.81877624E-01 -8.75745267E-16 -7.95088115E-16 -8.50971817E-02
  1.94006493E-02  8.89848612E-16  3.58867175E-17 -3.15539549E-16  4.81671953E-16
  8.99140713E-02 -1.26536923E-15 -3.42566569E-16  2.24856039E-15 -1.85644389E-15
 -1.29751285E-03  2.95075502E-02  1.33119597E-01 -1.29751285E-03  2.95075502E-02
  1.33119597E-01 -1.29751285E-03  2.95075502E-02  1.33119597E-01
Orthonormal basis                          R   N=        5184
  1.63914060E-02  1.90608138E-02  4.40868176E-18  1.47897409E-18 -4.18560794E-03
  6.80160486E-02  3.27346457E-18  3.96776779E-18 -1.29327190E-02  1.03812884E-01
  4.57967174E-18  3.76955551E-18 -3.23997457E-02  1.06562322E-01  1.53046994E-18
  2.05609008E-18 -3.76341433E-02  1.78918056E-03  1.04025714E-18 -3.18364879E-19
 -2.88836240E-17 -1.29900581E-18  1.08443926E-02  3.22225603E-18 -1.42100133E-18
 -4.30958928E-17 -2.70881482E-18  2.49176601E-02  5.33197936E-02  8.25359143E-02
  2.49176601E-02  5.33197936E-02  8.25359143E-02  2.49176601E-02  5.33197936E-02
  8.25359143E-02  1.63914060E-02  1.90608138E-02 -4.40868176E-18  1.47897409E-18
  4.18560794E-03  6.80160486E-02 -3.27346457E-18  3.96776779E-18  1.29327190E-02
  1.03812884E-01 -4.57967174E-18  3.76955551E-18  3.23997457E-02  1.06562322E-01
 -1.53046994E-18  2.05609008E-18  3.76341433E-02  1.78918056E-03  1.04025714E-18
  3.18364879E-19 -2.88836240E-17  1.29900581E-18  1.08443926E-02  3.22225603E-18
  1.42100133E-18 -4.30958928E-17  2.70881482E-18  2.49176601E-02  5.33197936E-02
  8.25359143E-02  2.49176601E-02  5.33197936E-02  8.25359143E-02  2.49176601E-02
  5.33197936E-02  8.25359143E-02 -1.34388713E-17 -5.67588763E-17 -1.28562557E-07
  5.33191047E-02 -2.98515880E-17 -3.68847324E-17 -2.63404887E-07  1.18495542E-01
 -1.27911275E-17 -3.70721640E-17 -2.30998131E-07  1.78051668E-01 -2.86292841E-17
  2.41794646E-17 -7.06863049E-08  1.57778920E-01 -7.28988564E-17 -6.03423863E-17
 -7.75807505E-08 -6.98022050E-03  2.12375576E-06  1.04268078E-02 -2.97770795E-17
 -2.32703766E-07 -3.46335865E-02  5.12638094E-06  2.11008886E-02 -5.78262482E-02
 -8.48721376E-02 -7.31992701E-02  3.91602169E-06  5.63963415E-06  4.73948289E-06
  5.78223322E-02  8.48664979E-02  7.31945306E-02 -1.34388713E-17 -5.67588763E-17
  1.28562557E-07  5.33191047E-02  2.98515880E-17 -3.68847324E-17  2.63404887E-07
  1.18495542E-01  1.27911275E-17 -3.70721640E-17  2.30998131E-07  1.78051668E-01
  2.86292841E-17  2.41794646E-17  7.06863049E-08  1.57778920E-01  7.28988564E-17
 -6.03423863E-17 -7.75807505E-08  6.98022050E-03  2.12375576E-06 -1.04268078E-02
 -2.97770795E-17 -2.32703766E-07  3.46335865E-02  5.12638094E-06 -2.11008886E-02
  5.78223322E-02  8.48664979E-02  7.31945306E-02  3.91602169E-06  5.63963415E-06
  4.73948289E-06 -5.78262482E-02 -8.48721376E-02 -7.31992701E-02  2.04226077E-17
 -2.41045739E-17 -9.24400150E-02 -8.69479259E-07  4.91175114E-17 -1.04024995E-17
 -1.56602971E-01 -1.57306111E-06  6.39787824E-17  5.79580791E-17 -1.20639928E-01
 -2.24817271E-06  6.10879988E-17  8.24709120E-17 -3.38701682E-02 -2.14478486E-06
 -3.01324898E-17 -8.84390499E-17 -4.97246030E-02  7.96985572E-07  5.59908139E-02
 -5.87594532E-06  6.96641747E-17 -1.26920713E-01  1.66108083E-06  1.12159890E-01
 -9.94918263E-06 -7.54616877E-02 -7.85789892E-02 -3.39725403E-02  1.50934800E-01
  1.57170762E-01  6.79513457E-02 -7.54731128E-02 -7.85917728E-02 -3.39788055E-02
  2.04226077E-17 -2.41045739E-17  9.24400150E-02 -8.69479259E-07 -4.91175114E-17
 -1.04024995E-17  1.56602971E-01 -1.57306111E-06 -6.39787824E-17  5.79580791E-17
  1.20639928E-01 -2.24817271E-06 -6.10879988E-17  8.24709120E-17  3.38701682E-02
 -2.14478486E-06  3.01324898E-17 -8.84390499E-17 -4.97246030E-02 -7.96985572E-07
  5.59908139E-02  5.87594532E-06  6.96641747E-17 -1.26920713E-01 -1.66108083E-06
  1.12159890E-01  9.94918263E-06 -7.54731128E-02 -7.85917728E-02 -3.39788055E-02
  1.50934800E-01  1.57170762E-01  6.79513457E-02 -7.54616877E-02 -7.85789892E-02
 -3.39725403E-02 -5.20209709E-02 -5.62847290E-02  1.39205015E-16  1.10423799E-16
  1.63842389E-01 -7.67469042E-02  5.48545878E-17  2.91532359E-17  2.63960279E-01
 -3.21404003E-02  3.92348225E-17  2.32121034E-17  1.80716350E-01  4.00270306E-02
  1.05199811E-17  6.98920145E-18  2.92770770E-02 -7.05786250E-02  1.74642330E-17
 -1.38174437E-17  8.44683382E-18 -1.00907225E-17 -9.16014665E-02  4.13673001E-17
 -2.46188975E-17 -1.17095651E-17 -1.39410456E-17  5.11192416E-02  4.54696860E-02
  2.94751380E-02  5.11192416E-02  4.54696860E-02  2.94751380E-02  5.11192416E-02
  4.54696860E-02  2.94751380E-02 -5.20209709E-02 -5.62847290E-02 -1.39205015E-16
  1.10423799E-16 -1.63842389E-01 -7.67469042E-02 -5.48545878E-17  2.91532359E-17
 -2.63960279E-01 -3.21404003E-02 -3.92348225E-17  2.32121034E-17 -1.80716350E-01
  4.00270306E-02 -1.05199811E-17  6.98920145E-18 -2.92770770E-02 -7.05786250E-02
  1.74642330E-17  1.38174437E-17  8.44683382E-18  1.00907225E-17 -9.16014665E-02
  4.13673001E-17  2.46188975E-17 -1.17095651E-17  1.39410456E-17  5.11192416E-02
  4.54696860E-02  2.94751380E-02  5.11192416E-02  4.54696860E-02  2.94751380E-02
  5.11192416E-02  4.54696860E-02  2.94751380E-02  1.90165359E-16  1.24711744E-16
  6.01075202E-06 -5.83318609E-02 -1.58552455E-16 -3.44953843E-16  7.83658232E-06
 -7.48398554E-02 -4.68717847E-17 -1.17032150E-16  5.04434751E-06 -3.69941341E-02
  3.09819113E-16  4.11889407E-16  1.33284891E-06  1.68330501E-02  8.32696548E-17
 -2.75264735E-16  2.53266730E-06  2.32752383E-01  1.75420543E-05  6.51486437E-02
  2.44917877E-17  5.46091227E-06  3.43423820E-01  2.80715225E-05  8.74494055E-02
 -1.15145583E-01 -6.83812913E-02 -1.35290552E-02  5.45167336E-06  1.93153019E-06
 -8.74522556E-08  1.15140132E-01  6.83793598E-02  1.35291426E-02  1.90165359E-16
  1.24711744E-16 -6.01075202E-06 -5.83318609E-02  1.58552455E-16 -3.44953843E-16
 -7.83658232E-06 -7.48398554E-02  4.68717847E-17 -1.17032150E-16 -5.04434751E-06
 -3.69941341E-02 -3.09819113E-16  4.11889407E-16 -1.33284891E-06  1.68330501E-02
 -8.32696548E-17 -2.75264735E-16  2.53266730E-06 -2.32752383E-01  1.75420543E-05
 -6.51486437E-02  2.44917877E-17  5.46091227E-06 -3.43423820E-01  2.80715225E-05
 -8.74494055E-02  1.15140132E-01  6.83793598E-02  1.35291426E-02  5.45167336E-06
  1.93153019E-06 -8.74522556E-08 -1.15145583E-01 -6.83812913E-02 -1.35290552E-02
  3.03086216E-01  3.07461290E-01  6.38215958E-17  2.77744848E-17  9.37940011E-02
  1.18217757E-01  1.08379062E-16  2.47684214E-17  1.18392172E-01 -1.14077083E-03
  5.78784111E-17  7.91925952E-17  7.82862716E-02 -6.50694159E-02  1.31894927E-17
  8.48358006E-17  3.98360643E-02  5.55387602E-02  2.96396063E-17 -3.21108257E-17
  1.04158049E-16 -1.92753626E-17  1.13355733E-01  6.91035869E-17 -4.99485199E-17
  2.31437889E-16 -1.97227715E-17 -5.57399878E-03  4.49612893E-03 -3.02438056E-02
 -5.57399878E-03  4.49612893E-03 -3.02438056E-02 -5.57399878E-03  4.49612893E-03
 -3.02438056E-02  3.03086216E-01  3.07461290E-01 -6.38215958E-17  2.77744848E-17
 -9.37940011E-02  1.18217757E-01 -1.08379062E-16  2.47684214E-17 -1.18392172E-01
 -1.14077083E-03 -5.78784111E-17  7.91925952E-17 -7.82862716E-02 -6.50694159E-02
 -1.31894927E-17  8.48358006E-17 -3.98360643E-02  5.55387602E-02  2.96396063E-17
  3.21108257E-17  1.04158049E-16  1.92753626E-17  1.13355733E-01  6.91035869E-17
  4.99485199E-17  2.31437889E-16  1.97227715E-17 -5.57399878E-03  4.49612893E-03
 -3.02438056E-02 -5.57399878E-03  4.49612893E-03 -3.02438056E-02 -5.57399878E-03
  4.49612893E-03 -3.02438056E-02 -4.03440153E-16 -3.98927766E-16  1.63867112E-01
  3.65103919E-05 -1.01223914E-16 -1.01640893E-16  1.69293525E-01  3.80911950E-05
 -8.22739134E-17  3.38260880E-17  8.83831774E-02 -1.53273918E-05  3.18963241E-16
  1.26692497E-16  2.23152851E-02 -7.64164840E-05 -1.15985598E-17  7.85706795E-16
  4.82445869E-02 -3.58510437E-05  2.73779121E-01  2.52325347E-05  5.49668238E-16
  9.54233150E-02 -4.81135231E-05  3.65568446E-01  2.75450946E-05 -2.50529185E-02
 -2.26340571E-03  5.58794479E-03  5.00518673E-02  4.50006325E-03 -1.11428162E-02
 -2.49989488E-02 -2.23665754E-03  5.55487144E-03 -4.03440153E-16 -3.98927766E-16
 -1.63867112E-01  3.65103919E-05  1.01223914E-16 -1.01640893E-16 -1.69293525E-01
  3.80911950E-05  8.22739134E-17  3.38260880E-17 -8.83831774E-02 -1.53273918E-05
 -3.18963241E-16  1.26692497E-16 -2.23152851E-02 -7.64164840E-05  1.15985598E-17
  7.85706795E-16  4.82445869E-02  3.58510437E-05  2.73779121E-01 -2.52325347E-05
  5.49668238E-16  9.54233150E-02  4.81135231E-05  3.65568446E-01 -2.75450946E-05
 -2.49989488E-02 -2.23665754E-03  5.55487144E-03  5.00518673E-02  4.50006325E-03
 -1.11428162E-02 -2.50529185E-02 -2.26340571E-03  5.58794479E-03 -4.88732175E-17
  9.37963100E-17  5.12561920E-05 -1.97632012E-01 -2.88756006E-17 -2.07161863E-17
  4.90533152E-05 -1.94722769E-01 -1.95960976E-17  4.11186557E-17  2.33558578E-05
  4.41419482E-02 -8.78197344E-17  1.02649681E-16  5.73354193E-06  3.11581395E-01
 -2.56090691E-17 -2.08432482E-16  1.26365431E-05  4.12890229E-02  5.74341427E-05
 -1.84192780E-01 -1.89118116E-16  2.49838395E-05  7.48758873E-02  7.29044609E-05
 -1.88532356E-01  1.31978223E-01  5.95289961E-02 -7.33594351E-02  1.25111051E-05
  8.97638942E-07  1.55970718E-06 -1.31990734E-01 -5.95298938E-02  7.33578754E-02
 -4.88732175E-17  9.37963100E-17 -5.12561920E-05 -1.97632012E-01  2.88756006E-17
 -2.07161863E-17 -4.90533152E-05 -1.94722769E-01  1.95960976E-17  4.11186557E-17
 -2.33558578E-05  4.41419482E-02  8.78197344E-17  1.02649681E-16 -5.73354193E-06
  3.11581395E-01  2.56090691E-17 -2.08432482E-16  1.26365431E-05 -4.12890229E-02
  5.74341427E-05  1.84192780E-01 -1.89118116E-16  2.49838395E-05 -7.48758873E-02
  7.29044609E-05  1.88532356E-01 -1.31990734E-01 -5.95298938E-02  7.33578754E-02
  1.25111051E-05  8.97638942E-07  1.55970718E-06  1.31978223E-01  5.95289961E-02
 -7.33594351E-02 -1.30294162E-01 -1.24656387E-01 -4.38075724E-16 -3.98608526E-17
  3.34871238E-03  2.20076037E-02 -4.47165113E-16 -3.80708030E-17  4.19200968E-02
  5.58955411E-03 -1.84036363E-16  9.04873171E-17  1.71997393E-01  2.43229902E-02
 -3.11310720E-17  2.36316672E-16  7.26397249E-02  3.77842844E-01 -1.09771182E-16
  1.00137121E-16 -5.08483894E-16 -9.43225131E-17  3.16555514E-01 -2.02683764E-16
  1.07284465E-16 -7.66282989E-16 -9.84961817E-17 -3.20438267E-02  4.53234407E-03
  2.53092510E-02 -3.20438267E-02  4.53234407E-03  2.53092510E-02 -3.20438267E-02
  4.53234407E-03  2.53092510E-02 -1.30294162E-01 -1.24656387E-01  4.38075724E-16
 -3.98608526E-17 -3.34871238E-03  2.20076037E-02  4.47165113E-16 -3.80708030E-17
 -4.19200968E-02  5.58955411E-03  1.84036363E-16  9.04873171E-17 -1.71997393E-01
  2.43229902E-02  3.11310720E-17  2.36316672E-16 -7.26397249E-02  3.77842844E-01
 -1.09771182E-16 -1.00137121E-16 -5.08483894E-16  9.43225131E-17  3.16555514E-01
 -2.02683764E-16 -1.07284465E-16 -7.66282989E-16  9.84961817E-17 -3.20438267E-02
  4.53234407E-03  2.53092510E-02 -3.20438267E-02  4.53234407E-03  2.53092510E-02
 -3.20438267E-02  4.53234407E-03  2.53092510E-02 -5.06303716E-17 -3.11956277E-17
 -2.85197423E-05 -2.83848232E-01  5.99170884E-17  9.69727359E-17 -2.01800340E-05
 -2.12320092E-01  7.69375029E-17  5.59039448E-17 -5.09769049E-06 -2.59043197E-02
  6.38562474E-17  1.76713095E-16 -7.87454624E-07  1.17251122E-01  8.29336914E-18
 -2.30083380E-17 -1.75115562E-07 -1.90556233E-01  1.08925768E-05  3.22466580E-01
  1.30942165E-17 -4.35520923E-06 -1.34284242E-01  1.13304314E-05  2.56724731E-01
 -3.73568940E-02 -1.58694616E-02 -3.16334055E-02 -1.27683245E-05 -4.05823110E-06
  2.27031677E-06  3.73696624E-02  1.58735198E-02  3.16311352E-02 -5.06303716E-17
 -3.11956277E-17  2.85197423E-05 -2.83848232E-01 -5.99170884E-17  9.69727359E-17
  2.01800340E-05 -2.12320092E-01 -7.69375029E-17  5.59039448E-17  5.09769049E-06
 -2.59043197E-02 -6.38562474E-17  1.76713095E-16  7.87454624E-07  1.17251122E-01
 -8.29336914E-18 -2.30083380E-17 -1.75115562E-07  1.90556233E-01  1.08925768E-05
 -3.22466580E-01  1.30942165E-17 -4.35520923E-06  1.34284242E-01  1.13304314E-05
 -2.56724731E-01  3.73696624E-02  1.58735198E-02  3.16311352E-02 -1.27683245E-05
 -4.05823110E-06  2.27031677E-06 -3.73568940E-02 -1.58694616E-02 -3.16334055E-02
 -6.53166182E-17 -7.55092074E-17  4.43697884E-01 -7.33244747E-06  7.29790496E-17
  1.46499961E-16  1.95107586E-01 -3.38434805E-06  1.46835672E-16 -1.54226810E-16
 -7.29083162E-02 -4.07318340E-07 -5.89278315E-17 -5.56120731E-17 -4.56352426E-02
 -1.13826412E-06  5.92273475E-17  1.31627147E-16 -3.64645633E-01 -5.75868745E-06
 -1.43394068E-01  3.52123474E-05  7.13745524E-17 -1.66629469E-01 -2.82118502E-06
 -8.59453333E-02  1.70767353E-05 -4.28865904E-02 -3.04602374E-02 -2.86186275E-02
  8.57715528E-02  6.09226088E-02  5.72426381E-02 -4.28849624E-02 -3.04623714E-02
 -2.86240106E-02 -6.53166182E-17 -7.55092074E-17 -4.43697884E-01 -7.33244747E-06
 -7.29790496E-17  1.46499961E-16 -1.95107586E-01 -3.38434805E-06 -1.46835672E-16
 -1.54226810E-16  7.29083162E-02 -4.07318340E-07  5.89278315E-17 -5.56120731E-17
  4.56352426E-02 -1.13826412E-06 -5.92273475E-17  1.31627147E-16 -3.64645633E-01
  5.75868745E-06 -1.43394068E-01 -3.52123474E-05  7.13745524E-17 -1.66629469E-01
  2.82118502E-06 -8.59453333E-02 -1.70767353E-05 -4.28849624E-02 -3.04623714E-02
 -2.86240106E-02  8.57715528E-02  6.09226088E-02  5.72426381E-02 -4.28865904E-02
 -3.04602374E-02 -2.86186275E-02  1.41804179E-01  1.09032518E-01 -1.22255270E-16
  2.15390854E-16 -1.47001142E-01 -2.96257856E-01  1.82437844E-16  1.16078646E-16
 -4.86951980E-02 -1.31191165E-01  2.60898754E-17 -1.94578999E-17  1.92889176E-01
  3.27407021E-01  5.23841425E-17 -9.05501009E-18  5.75579248E-02 -4.40357004E-02
 -7.18794713E-16 -7.93754456E-16  5.67931602E-16 -3.06634284E-16 -5.33634105E-02
 -1.07173147E-16 -1.06492596E-15 -7.90072303E-17 -2.87786233E-16 -2.19827636E-01
 -8.98716506E-02  1.33737620E-01 -2.19827636E-01 -8.98716506E-02  1.33737620E-01
 -2.19827636E-01 -8.98716506E-02  1.33737620E-01  1.41804179E-01  1.09032518E-01
  1.22255270E-16  2.15390854E-16  1.47001142E-01 -2.96257856E-01 -1.82437844E-16
  1.16078646E-16  4.86951980E-02 -1.31191165E-01 -2.60898754E-17 -1.94578999E-17
 -1.92889176E-01  3.27407021E-01 -5.23841425E-17 -9.05501009E-18 -5.75579248E-02
 -4.40357004E-02 -7.18794713E-16  7.93754456E-16  5.67931602E-16  3.06634284E-16
 -5.33634105E-02 -1.07173147E-16  1.06492596E-15 -7.90072303E-17  2.87786233E-16
 -2.19827636E-01 -8.98716506E-02  1.33737620E-01 -2.19827636E-01 -8.98716506E-02
  1.33737620E-01 -2.19827636E-01 -8.98716506E-02  1.33737620E-01  7.03478642E-17
  1.43252269E-16  2.72977563E-01 -2.56262674E-06 -4.54399549E-16 -3.03292433E-16
  5.84766345E-02 -4.08409304E-07  7.15492014E-18 -8.32917482E-18 -1.48521564E-01
  1.51819349E-07  5.94389518E-16  4.01823642E-16 -8.51803611E-02 -1.91110579E-06
  2.34275128E-16 -1.06266446E-16  5.82992416E-01 -1.95037545E-06 -2.38712201E-01
  3.68550653E-05  4.23451094E-17  2.19199012E-02 -3.28726298E-07 -2.54861368E-02
  3.36429885E-06 -3.94056999E-02 -6.72129843E-02 -5.90881850E-02  7.88149017E-02
  1.34435972E-01  1.18186091E-01 -3.94092018E-02 -6.72229882E-02 -5.90979057E-02
  7.03478642E-17  1.43252269E-16 -2.72977563E-01 -2.56262674E-06  4.54399549E-16
 -3.03292433E-16 -5.84766345E-02 -4.08409304E-07 -7.15492014E-18 -8.32917482E-18
  1.48521564E-01  1.51819349E-07 -5.94389518E-16  4.01823642E-16  8.51803611E-02
 -1.91110579E-06 -2.34275128E-16 -1.06266446E-16  5.82992416E-01  1.95037545E-06
 -2.38712201E-01 -3.68550653E-05  4.23451094E-17  2.19199012E-02  3.28726298E-07
 -2.54861368E-02 -3.36429885E-06 -3.94092018E-02 -6.72229882E-02 -5.90979057E-02
  7.88149017E-02  1.34435972E-01  1.18186091E-01 -3.94056999E-02 -6.72129843E-02
 -5.90881850E-02 -5.51793440E-02 -3.85146433E-02  2.22433608E-16 -2.16304899E-16
  5.08315581E-01  5.90156293E-02 -3.06357306E-17 -4.23295156E-17  7.32861100E-02
  5.96933998E-02 -1.49762855E-16 -1.35454285E-16 -3.00438933E-01  5.49412976E-02
 -6.16322286E-17 -1.41096633E-16 -1.64998679E-01  1.41465605E-01  3.68589917E-16
 -8.65346611E-17  1.91157126E-16 -1.96282762E-16 -9.40331155E-02  4.75031152E-17
  2.24693800E-17  1.87271703E-17 -1.29192685E-17 -2.15001017E-01 -7.83969817E-02
  8.41473962E-03 -2.15001017E-01 -7.83969817E-02  8.41473962E-03 -2.15001017E-01
 -7.83969817E-02  8.41473962E-03 -5.51793440E-02 -3.85146433E-02 -2.22433608E-16
 -2.16304899E-16 -5.08315581E-01  5.90156293E-02  3.06357306E-17 -4.23295156E-17
 -7.32861100E-02  5.96933998E-02  1.49762855E-16 -1.35454285E-16  3.00438933E-01
  5.49412976E-02  6.16322286E-17 -1.41096633E-16  1.64998679E-01  1.41465605E-01
  3.68589917E-16  8.65346611E-17  1.91157126E-16  1.96282762E-16 -9.40331155E-02
  4.75031152E-17 -2.24693800E-17  1.87271703E-17  1.29192685E-17 -2.15001017E-01
 -7.83969817E-02  8.41473962E-03 -2.15001017E-01 -7.83969817E-02  8.41473962E-03
 -2.15001017E-01 -7.83969817E-02  8.41473962E-03 -3.99169167E-17  7.48152488E-17
  1.23529614E-06  3.83435266E-01  1.82261919E-16 -1.69680365E-17  9.51212098E-08
  8.29463006E-03 -8.06962307E-17  8.08480660E-17 -7.02325099E-07 -9.49208672E-02
 -5.88050464E-17 -1.38134188E-16 -2.94943059E-07  2.47851191E-01 -5.26072736E-17
  6.81646887E-17  1.56203603E-06  2.31267097E-01  6.57354866E-05  4.66046407E-01
 -1.21913875E-16 -2.94262706E-07  5.61577890E-03 -1.96320553E-06 -2.43635309E-02
  2.23118294E-01  1.28489803E-01 -9.85706303E-03 -1.29945335E-05 -6.99501913E-06
  4.18151815E-07 -2.23105299E-01 -1.28482808E-01  9.85664487E-03 -3.99169167E-17
  7.48152488E-17 -1.23529614E-06  3.83435266E-01 -1.82261919E-16 -1.69680365E-17
 -9.51212098E-08  8.29463006E-03  8.06962307E-17  8.08480660E-17  7.02325099E-07
 -9.49208672E-02  5.88050464E-17 -1.38134188E-16  2.94943059E-07  2.47851191E-01
  5.26072736E-17  6.81646887E-17  1.56203603E-06 -2.31267097E-01  6.57354866E-05
 -4.66046407E-01 -1.21913875E-16 -2.94262706E-07 -5.61577890E-03 -1.96320553E-06
  2.43635309E-02 -2.23105299E-01 -1.28482808E-01  9.85664487E-03 -1.29945335E-05
 -6.99501913E-06  4.18151815E-07  2.23118294E-01  1.28489803E-01 -9.85706303E-03
  1.64987471E-01  9.28802207E-02  1.00554898E-15 -6.58768261E-16 -2.01010473E-02
 -3.23792465E-01 -2.73460415E-16  1.69592464E-16 -4.39955019E-02 -1.19961017E-01
 -6.80582372E-16  1.28346921E-16 -1.32237455E-01  5.93513756E-02 -4.10248323E-16
 -2.72652636E-16 -1.44183433E-01  5.50871367E-01  6.36120170E-16  6.44486631E-16
  2.38189033E-15  2.99329076E-16 -3.64451119E-01 -5.21828321E-16  1.74984269E-16
 -2.04458493E-15 -5.00464060E-17  1.89609078E-01  1.79067858E-02 -3.06186788E-03
  1.89609078E-01  1.79067858E-02 -3.06186788E-03  1.89609078E-01  1.79067858E-02
 -3.06186788E-03  1.64987471E-01  9.28802207E-02 -1.00554898E-15 -6.58768261E-16
  2.01010473E-02 -3.23792465E-01  2.73460415E-16  1.69592464E-16  4.39955019E-02
 -1.19961017E-01  6.80582372E-16  1.28346921E-16  1.32237455E-01  5.93513756E-02
  4.10248323E-16 -2.72652636E-16  1.44183433E-01  5.50871367E-01  6.36120170E-16
 -6.44486631E-16  2.38189033E-15 -2.99329076E-16 -3.64451119E-01 -5.21828321E-16
 -1.74984269E-16 -2.04458493E-15  5.00464060E-17  1.89609078E-01  1.79067858E-02
 -3.06186788E-03  1.89609078E-01  1.79067858E-02 -3.06186788E-03  1.89609078E-01
  1.79067858E-02 -3.06186788E-03 -6.91029702E-16 -3.53993585E-16  1.65680207E-01
 -5.71031229E-05 -7.90629397E-17  1.55581010E-15 -3.98150232E-02  1.60404060E-05
  3.38912285E-16  5.48634546E-16 -2.00165307E-01  3.59544786E-05  4.93025256E-16
 -5.08082062E-16 -1.08165243E-01 -3.21733265E-05  7.40681247E-16 -2.34562431E-15
  1.22713591E-01  3.82397705E-05  6.73865303E-01 -3.56064039E-05  1.54007034E-15
 -1.45953204E-01 -2.47972226E-05 -4.59529813E-01  1.86323541E-05  5.07360142E-02
  2.78623220E-03 -3.40851570E-02 -1.01499315E-01 -5.57334098E-03  6.81898761E-02
  5.07633011E-02  2.78710878E-03 -3.41047191E-02 -6.91029702E-16 -3.53993585E-16
 -1.65680207E-01 -5.71031229E-05  7.90629397E-17  1.55581010E-15  3.98150232E-02
  1.60404060E-05 -3.38912285E-16  5.48634546E-16  2.00165307E-01  3.59544786E-05
 -4.93025256E-16 -5.08082062E-16  1.08165243E-01 -3.21733265E-05 -7.40681247E-16
 -2.34562431E-15  1.22713591E-01 -3.82397705E-05  6.73865303E-01  3.56064039E-05
  1.54007034E-15 -1.45953204E-01  2.47972226E-05 -4.59529813E-01 -1.86323541E-05
  5.07633011E-02  2.78710878E-03 -3.41047191E-02 -1.01499315E-01 -5.57334098E-03
  6.81898761E-02  5.07360142E-02  2.78623220E-03 -3.40851570E-02 -9.48339048E-17
 -5.45020304E-17 -1.63926285E-05 -3.72450635E-01 -5.37402398E-17  2.48041125E-16
  4.07252076E-06  9.27268136E-02  1.89879701E-16  5.65564742E-17  2.28188231E-05
  2.43352281E-01 -4.32794435E-17  2.56656805E-16  1.32172461E-05 -2.17278214E-01
  2.22816572E-16 -5.51372409E-16 -1.11181023E-05  6.27534217E-01 -4.98073496E-05
  1.06692632E-01  3.11652475E-16  1.62527284E-05 -3.95833644E-01  3.66624072E-05
 -6.62340200E-02  5.46606866E-02  2.67096213E-03  1.67034826E-02  1.29069890E-05
 -1.29251892E-07 -1.09585405E-05 -5.46735936E-02 -2.67083288E-03 -1.66925241E-02
 -9.48339048E-17 -5.45020304E-17  1.63926285E-05 -3.72450635E-01  5.37402398E-17
  2.48041125E-16 -4.07252076E-06  9.27268136E-02 -1.89879701E-16  5.65564742E-17
 -2.28188231E-05  2.43352281E-01  4.32794435E-17  2.56656805E-16 -1.32172461E-05
 -2.17278214E-01 -2.22816572E-16 -5.51372409E-16 -1.11181023E-05 -6.27534217E-01
 -4.98073496E-05 -1.06692632E-01  3.11652475E-16  1.62527284E-05  3.95833644E-01
  3.66624072E-05  6.62340200E-02 -5.46735936E-02 -2.67083288E-03 -1.66925241E-02
  1.29069890E-05 -1.29251892E-07 -1.09585405E-05  5.46606866E-02  2.67096213E-03
  1.67034826E-02  5.85478378E-17  1.24341790E-17 -7.48823892E-05  2.57018333E-01
  2.17252821E-17 -1.48775775E-16  9.17449132E-05 -1.95120577E-01 -2.22968230E-16
  1.60773167E-16 -2.08889591E-04 -2.99057681E-01  1.13370898E-16 -2.05641266E-16
 -2.40015668E-04  2.59812925E-01 -7.18506284E-18  2.48202946E-16 -7.51128196E-05
  3.17620124E-01 -7.62955777E-05 -4.76002764E-01 -2.31469805E-16 -4.84166722E-05
 -3.58962705E-01  2.43248536E-04  6.02238341E-01 -7.10253885E-02  2.77098894E-02
 -1.38613494E-03 -4.72864842E-04  1.01371764E-04  2.76568555E-04  7.14982533E-02
 -2.78112612E-02  1.10956639E-03  5.85478378E-17  1.24341790E-17  7.48823892E-05
  2.57018333E-01 -2.17252821E-17 -1.48775775E-16 -9.17449132E-05 -1.95120577E-01
  2.22968230E-16  1.60773167E-16  2.08889591E-04 -2.99057681E-01 -1.13370898E-16
 -2.05641266E-16  2.40015668E-04  2.59812925E-01  7.18506284E-18  2.48202946E-16
 -7.51128196E-05 -3.17620124E-01 -7.62955777E-05  4.76002764E-01 -2.31469805E-16
 -4.84166722E-05  3.58962705E-01  2.43248536E-04 -6.02238341E-01  7.14982533E-02
 -2.78112612E-02  1.10956639E-03 -4.72864842E-04  1.01371764E-04  2.76568555E-04
 -7.10253885E-02  2.77098894E-02 -1.38613494E-03  2.30366607E-16 -1.36078998E-16
  1.36459647E-01  1.96919999E-04  4.14703924E-16 -5.90435138E-17 -1.53188519E-01
 -1.55230647E-04 -3.80322510E-16 -2.42391634E-17  2.52174576E-01 -2.46146673E-04
  1.96894919E-16  2.29084366E-16  3.20791432E-01  2.15878948E-04  2.53394334E-16
 -3.09293515E-16  1.15922954E-01  2.35111571E-04  6.83697028E-02 -3.52631838E-04
  1.19099566E-16  2.74656875E-02 -2.85704084E-04 -2.86440291E-01  4.83762288E-04
 -3.11235943E-01  7.55488277E-02  1.85554901E-01  6.22346453E-01 -1.51052701E-01
 -3.71124759E-01 -3.11110509E-01  7.55038736E-02  1.85569857E-01  2.30366607E-16
 -1.36078998E-16 -1.36459647E-01  1.96919999E-04 -4.14703924E-16 -5.90435138E-17
  1.53188519E-01 -1.55230647E-04  3.80322510E-16 -2.42391634E-17 -2.52174576E-01
 -2.46146673E-04 -1.96894919E-16  2.29084366E-16 -3.20791432E-01  2.15878948E-04
 -2.53394334E-16 -3.09293515E-16  1.15922954E-01 -2.35111571E-04  6.83697028E-02
  3.52631838E-04  1.19099566E-16  2.74656875E-02  2.85704084E-04 -2.86440291E-01
 -4.83762288E-04 -3.11110509E-01  7.55038736E-02  1.85569857E-01  6.22346453E-01
 -1.51052701E-01 -3.71124759E-01 -3.11235943E-01  7.55488277E-02  1.85554901E-01
 -7.44636829E-02  1.22594995E-02 -6.02430731E-16 -2.09759425E-17 -6.94601826E-01
  1.35970292E-01  4.79982297E-16  4.52783508E-16  7.09978497E-01  1.37654272E-01
  5.84812587E-17 -1.83106659E-17 -6.49203677E-02 -2.36265338E-01  1.65194134E-16
 -3.41533987E-16 -6.00536595E-01  1.46369695E-01  1.72482837E-17  3.03769483E-17
  1.01527018E-16 -2.07862939E-16 -1.77851878E-01  1.81649891E-16  2.77162622E-16
 -3.62929471E-16  7.27318280E-16 -2.52060090E-01  9.91407799E-02 -4.50449597E-02
 -2.52060090E-01  9.91407799E-02 -4.50449597E-02 -2.52060090E-01  9.91407799E-02
 -4.50449597E-02 -7.44636829E-02  1.22594995E-02  6.02430731E-16 -2.09759425E-17
  6.94601826E-01  1.35970292E-01 -4.79982297E-16  4.52783508E-16 -7.09978497E-01
  1.37654272E-01 -5.84812587E-17 -1.83106659E-17  6.49203677E-02 -2.36265338E-01
 -1.65194134E-16 -3.41533987E-16  6.00536595E-01  1.46369695E-01  1.72482837E-17
 -3.03769483E-17  1.01527018E-16  2.07862939E-16 -1.77851878E-01  1.81649891E-16
 -2.77162622E-16 -3.62929471E-16 -7.27318280E-16 -2.52060090E-01  9.91407799E-02
 -4.50449597E-02 -2.52060090E-01  9.91407799E-02 -4.50449597E-02 -2.52060090E-01
  9.91407799E-02 -4.50449597E-02 -1.70872888E-15  1.66732407E-15  6.06967133E-05
  1.29203277E-01  2.89708836E-16  8.42217737E-17 -8.00637930E-05 -2.55116371E-01
 -3.47267739E-16 -4.55419628E-16  5.70208602E-06  3.85965508E-01  3.18561733E-16
  5.29150268E-16  5.34639000E-05 -4.38864441E-01 -3.99781137E-16 -1.10305784E-16
  1.72421149E-05 -6.57233612E-02 -1.62676157E-06 -1.31734884E-01  3.42296651E-16
 -4.08362312E-05  2.25713602E-01  3.68903454E-05  4.90938862E-01  6.26461766E-01
 -3.82421316E-01 -2.03351895E-01 -3.46317510E-05  2.44772175E-06 -3.04748764E-05
 -6.26427134E-01  3.82418869E-01  2.03382369E-01 -1.70872888E-15  1.66732407E-15
 -6.06967133E-05  1.29203277E-01 -2.89708836E-16  8.42217737E-17  8.00637930E-05
 -2.55116371E-01  3.47267739E-16 -4.55419628E-16 -5.70208602E-06  3.85965508E-01
 -3.18561733E-16  5.29150268E-16 -5.34639000E-05 -4.38864441E-01  3.99781137E-16
 -1.10305784E-16  1.72421149E-05  6.57233612E-02 -1.62676157E-06  1.31734884E-01
  3.42296651E-16 -4.08362312E-05 -2.25713602E-01  3.68903454E-05 -4.90938862E-01
 -6.26427134E-01  3.82418869E-01  2.03382369E-01 -3.46317510E-05  2.44772175E-06
 -3.04748764E-05  6.26461766E-01 -3.82421316E-01 -2.03351895E-01 -4.49567732E-16
  1.01304140E-16 -6.64534599E-01  4.15044890E-05 -2.29766670E-16  1.93480258E-15
  9.63959186E-01 -7.40035120E-05  1.11076843E-16  2.25653353E-16  1.77083770E-04
  3.13216869E-05 -6.77435867E-16 -1.44189374E-16 -5.50346677E-01 -4.03370526E-05
  4.92493241E-15  1.37271954E-15 -3.49635819E-02  4.29550607E-06  4.98880491E-02
 -2.05066444E-05 -2.75051792E-15  2.08646201E-01 -6.71957604E-06 -2.91987702E-01
  8.68993897E-05 -2.61410011E-01  5.77443433E-02 -1.69075006E-01  5.22936105E-01
 -1.15582779E-01  3.38132027E-01 -2.61526094E-01  5.78384356E-02 -1.69057022E-01
 -4.49567732E-16  1.01304140E-16  6.64534599E-01  4.15044890E-05  2.29766670E-16
  1.93480258E-15 -9.63959186E-01 -7.40035120E-05 -1.11076843E-16  2.25653353E-16
 -1.77083770E-04  3.13216869E-05  6.77435867E-16 -1.44189374E-16  5.50346677E-01
 -4.03370526E-05 -4.92493241E-15  1.37271954E-15 -3.49635819E-02 -4.29550607E-06
  4.98880491E-02  2.05066444E-05 -2.75051792E-15  2.08646201E-01  6.71957604E-06
 -2.91987702E-01 -8.68993897E-05 -2.61526094E-01  5.78384356E-02 -1.69057022E-01
  5.22936105E-01 -1.15582779E-01  3.38132027E-01 -2.61410011E-01  5.77443433E-02
 -1.69075006E-01 -1.89673307E-01  1.19101797E-01  3.07454574E-15 -8.43546302E-16
 -1.55104857E-01  3.88463241E-01 -5.39679309E-15  1.26465021E-15 -2.59923782E-02
  2.81555982E-01  1.05670086E-15  7.80411655E-16  6.79628380E-03 -2.43987381E-01
  2.07086442E-15 -5.86560551E-16  1.15935771E+00  3.48845551E-01 -1.20794226E-15
 -3.04412999E-16  4.20924881E-17 -1.91370045E-16 -8.18979511E-01  4.07457109E-15
  7.46222205E-16 -8.05681102E-17  1.40335139E-15 -2.51660027E-01  2.02783410E-01
  3.50817452E-02 -2.51660027E-01  2.02783410E-01  3.50817452E-02 -2.51660027E-01
  2.02783410E-01  3.50817452E-02 -1.89673307E-01  1.19101797E-01 -3.07454574E-15
 -8.43546302E-16  1.55104857E-01  3.88463241E-01  5.39679309E-15  1.26465021E-15
  2.59923782E-02  2.81555982E-01 -1.05670086E-15  7.80411655E-16 -6.79628380E-03
 -2.43987381E-01 -2.07086442E-15 -5.86560551E-16 -1.15935771E+00  3.48845551E-01
 -1.20794226E-15  3.04412999E-16  4.20924881E-17  1.91370045E-16 -8.18979511E-01
  4.07457109E-15 -7.46222205E-16 -8.05681102E-17 -1.40335139E-15 -2.51660027E-01
  2.02783410E-01  3.50817452E-02 -2.51660027E-01  2.02783410E-01  3.50817452E-02
 -2.51660027E-01  2.02783410E-01  3.50817452E-02  1.72717610E-15 -8.82258008E-16
  3.41157860E-01  4.04207800E-05  1.69815466E-15 -4.16930328E-15 -6.83368396E-01
 -7.51673173E-05 -2.40087215E-15  1.04080275E-15 -1.66845847E-01  2.84766314E-05
  1.94691517E-15 -2.49345899E-15 -4.73669159E-01 -2.37245483E-05 -5.15511075E-15
 -1.43788093E-15 -3.64793301E-01  4.71841482E-06  2.91218500E-02 -1.09402203E-06
  2.99980567E-15  1.42003023E+00 -1.83111176E-05 -1.33333582E-01  4.37805117E-06
 -8.44920896E-02  5.89588758E-03 -1.38791157E-01  1.68969270E-01 -1.18087620E-02
  2.77578374E-01 -8.44771804E-02  5.91287442E-03 -1.38787217E-01  1.72717610E-15
 -8.82258008E-16 -3.41157860E-01  4.04207800E-05 -1.69815466E-15 -4.16930328E-15
  6.83368396E-01 -7.51673173E-05  2.40087215E-15  1.04080275E-15  1.66845847E-01
  2.84766314E-05 -1.94691517E-15 -2.49345899E-15  4.73669159E-01 -2.37245483E-05
  5.15511075E-15 -1.43788093E-15 -3.64793301E-01 -4.71841482E-06  2.91218500E-02
  1.09402203E-06  2.99980567E-15  1.42003023E+00  1.83111176E-05 -1.33333582E-01
 -4.37805117E-06 -8.44771804E-02  5.91287442E-03 -1.38787217E-01  1.68969270E-01
 -1.18087620E-02  2.77578374E-01 -8.44920896E-02  5.89588758E-03 -1.38791157E-01
 -6.07813594E-01  4.79664429E-01  2.09545754E-15  5.74965023E-15 -2.65198853E-01
  6.80725247E-01 -3.75911026E-15 -9.07038324E-15  4.79190891E-01 -4.53421646E-01
 -1.93511532E-15  2.62944612E-15 -3.04555815E-01  8.21600238E-01 -8.06668362E-16
 -2.75932684E-15  2.29031797E-01  7.06252868E-02 -1.55714158E-15  6.08893462E-16
 -4.16198098E-17  7.22245910E-16 -7.97843320E-02  6.22222547E-15 -2.61133502E-15
 -3.67288239E-17 -4.45640675E-15  2.44292117E-01 -4.88666915E-01 -8.67399571E-02
  2.44292117E-01 -4.88666915E-01 -8.67399571E-02  2.44292117E-01 -4.88666915E-01
 -8.67399571E-02 -6.07813594E-01  4.79664429E-01 -2.09545754E-15  5.74965023E-15
  2.65198853E-01  6.80725247E-01  3.75911026E-15 -9.07038324E-15 -4.79190891E-01
 -4.53421646E-01  1.93511532E-15  2.62944612E-15  3.04555815E-01  8.21600238E-01
  8.06668362E-16 -2.75932684E-15 -2.29031797E-01  7.06252868E-02 -1.55714158E-15
 -6.08893462E-16 -4.16198098E-17 -7.22245910E-16 -7.97843320E-02  6.22222547E-15
  2.61133502E-15 -3.67288239E-17  4.45640675E-15  2.44292117E-01 -4.88666915E-01
 -8.67399571E-02  2.44292117E-01 -4.88666915E-01 -8.67399571E-02  2.44292117E-01
 -4.88666915E-01 -8.67399571E-02 -1.43233658E-16 -1.14058706E-15  9.51382440E-07
 -6.91001341E-01 -1.88935878E-15  6.93943395E-15 -1.29603074E-05  1.30716919E+00
  4.51592568E-15 -4.94257949E-15 -1.28447459E-05 -6.32931323E-01 -3.44123506E-15
  8.75726599E-15 -6.74153395E-05  3.72192113E-01  1.90203210E-15 -2.63253354E-17
 -1.53971654E-05 -5.85163106E-02 -5.19397123E-06 -1.00628649E-01  7.34628890E-17
  7.26463783E-05  2.94047586E-01  2.77160348E-05  4.77133790E-01  4.26580524E-01
 -5.81729068E-02  1.63012594E-01  2.66191083E-05 -3.59327166E-05  1.66829396E-05
 -4.26607143E-01  5.82088395E-02 -1.63029277E-01 -1.43233658E-16 -1.14058706E-15
 -9.51382440E-07 -6.91001341E-01  1.88935878E-15  6.93943395E-15  1.29603074E-05
  1.30716919E+00 -4.51592568E-15 -4.94257949E-15  1.28447459E-05 -6.32931323E-01
  3.44123506E-15  8.75726599E-15  6.74153395E-05  3.72192113E-01 -1.90203210E-15
 -2.63253354E-17 -1.53971654E-05  5.85163106E-02 -5.19397123E-06  1.00628649E-01
  7.34628890E-17  7.26463783E-05 -2.94047586E-01  2.77160348E-05 -4.77133790E-01
 -4.26607143E-01  5.82088395E-02 -1.63029277E-01  2.66191083E-05 -3.59327166E-05
  1.66829396E-05  4.26580524E-01 -5.81729068E-02  1.63012594E-01 -1.21659865E+00
  1.30749831E+00 -1.87098448E-15 -3.86882359E-15  2.43768522E-01 -2.04934827E-01
  3.46000263E-15  6.40573208E-15 -5.35928997E-01 -1.10311369E-01  1.39958004E-15
 -8.35292759E-15  4.86536097E-01 -3.24420901E-01  2.33582291E-15  1.00495877E-15
 -5.13169495E-01 -4.73530844E-03  1.52884859E-16  3.00989251E-16  3.31160747E-16
  4.81671727E-16 -6.24876881E-02 -2.08867426E-16 -7.46811497E-16 -1.82215835E-15
 -1.43193966E-15 -7.43590631E-02  2.45919702E-01  5.01970853E-02 -7.43590631E-02
  2.45919702E-01  5.01970853E-02 -7.43590631E-02  2.45919702E-01  5.01970853E-02
 -1.21659865E+00  1.30749831E+00  1.87098448E-15 -3.86882359E-15 -2.43768522E-01
 -2.04934827E-01 -3.46000263E-15  6.40573208E-15  5.35928997E-01 -1.10311369E-01
 -1.39958004E-15 -8.35292759E-15 -4.86536097E-01 -3.24420901E-01 -2.33582291E-15
  1.00495877E-15  5.13169495E-01 -4.73530844E-03  1.52884859E-16 -3.00989251E-16
  3.31160747E-16 -4.81671727E-16 -6.24876881E-02 -2.08867426E-16  7.46811497E-16
 -1.82215835E-15  1.43193966E-15 -7.43590631E-02  2.45919702E-01  5.01970853E-02
 -7.43590631E-02  2.45919702E-01  5.01970853E-02 -7.43590631E-02  2.45919702E-01
  5.01970853E-02  4.04271050E-15 -4.32724094E-15 -2.92739098E-01 -1.22022793E-05
  9.26987958E-17 -1.23309187E-16  7.29710002E-01  2.34780284E-05  1.16035655E-15
 -1.52192848E-15 -6.08767360E-01 -4.70377123E-05 -1.53292904E-15 -2.14916118E-15
  1.53516957E+00  5.53332719E-06 -1.27881583E-15 -6.29483480E-16 -1.78490314E-01
  3.24315813E-06  1.05025150E-01 -1.89213673E-05  2.10653550E-15  8.49627386E-01
 -5.67828226E-06 -4.24179272E-01  8.60090281E-05  7.59492933E-02 -5.36455617E-01
  5.95544940E-02 -1.51865516E-01  1.07293190E+00 -1.19138575E-01  7.59162227E-02
 -5.36476282E-01  5.95840806E-02  4.04271050E-15 -4.32724094E-15  2.92739098E-01
 -1.22022793E-05 -9.26987958E-17 -1.23309187E-16 -7.29710002E-01  2.34780284E-05
 -1.16035655E-15 -1.52192848E-15  6.08767360E-01 -4.70377123E-05  1.53292904E-15
 -2.14916118E-15 -1.53516957E+00  5.53332719E-06  1.27881583E-15 -6.29483480E-16
 -1.78490314E-01 -3.24315813E-06  1.05025150E-01  1.89213673E-05  2.10653550E-15
  8.49627386E-01  5.67828226E-06 -4.24179272E-01 -8.60090281E-05  7.59162227E-02
 -5.36476282E-01  5.95840806E-02 -1.51865516E-01  1.07293190E+00 -1.19138575E-01
  7.59492933E-02 -5.36455617E-01  5.95544940E-02  4.17298576E-01 -6.56955310E-01
  6.13287523E-17  1.84828686E-15  1.77086363E-01  1.51802952E+00 -7.15943698E-16
 -3.68503544E-15 -8.29178396E-01 -9.60287781E-01  2.80298719E-15  7.86303852E-15
  1.24857948E+00  3.12080497E-01  2.49877586E-15  2.22696342E-15 -8.51698549E-01
  2.09524749E-01  1.54147261E-16 -4.88609187E-16  2.60481269E-16 -4.40720880E-16
 -8.32823060E-01 -5.97577393E-16  1.16372164E-15 -8.79050245E-16  1.74592854E-15
 -1.17683667E-01  1.13902692E-01 -1.35221041E-01 -1.17683667E-01  1.13902692E-01
 -1.35221041E-01 -1.17683667E-01  1.13902692E-01 -1.35221041E-01  4.17298576E-01
 -6.56955310E-01 -6.13287523E-17  1.84828686E-15 -1.77086363E-01  1.51802952E+00
  7.15943698E-16 -3.68503544E-15  8.29178396E-01 -9.60287781E-01 -2.80298719E-15
  7.86303852E-15 -1.24857948E+00  3.12080497E-01 -2.49877586E-15  2.22696342E-15
  8.51698549E-01  2.09524749E-01  1.54147261E-16  4.88609187E-16  2.60481269E-16
  4.40720880E-16 -8.32823060E-01 -5.97577393E-16 -1.16372164E-15 -8.79050245E-16
 -1.74592854E-15 -1.17683667E-01  1.13902692E-01 -1.35221041E-01 -1.17683667E-01
  1.13902692E-01 -1.35221041E-01 -1.17683667E-01  1.13902692E-01 -1.35221041E-01
 -3.90531049E-15  2.94780429E-15 -5.42741758E-05 -3.64284011E-02  1.38024296E-14
  1.06306847E-13  1.49214443E-04  1.66325922E-01 -1.59646362E-13  1.58954511E-12
 -7.84360883E-04  2.29608674E+00  9.93557361E-13 -7.48929975E-13 -1.51341579E-04
  1.48893493E-01 -3.35302098E-13  1.37471329E-13 -2.34590719E-05 -2.16253715E-01
 -7.82262919E-05 -2.88225517E-01 -5.54293495E-13  1.09248300E-04  8.68876713E-01
  3.00479965E-04  1.40460239E+00  1.14211865E-02  1.65247809E+00  1.13652944E+00
  3.90691498E-05 -2.71348211E-04 -5.35165577E-04 -1.14602557E-02 -1.65220674E+00
 -1.13599428E+00 -3.90531049E-15  2.94780429E-15  5.42741758E-05 -3.64284011E-02
 -1.38024296E-14  1.06306847E-13 -1.49214443E-04  1.66325922E-01  1.59646362E-13
  1.58954511E-12  7.84360883E-04  2.29608674E+00 -9.93557361E-13 -7.48929975E-13
  1.51341579E-04  1.48893493E-01  3.35302098E-13  1.37471329E-13 -2.34590719E-05
  2.16253715E-01 -7.82262919E-05  2.88225517E-01 -5.54293495E-13  1.09248300E-04
 -8.68876713E-01  3.00479965E-04 -1.40460239E+00 -1.14602557E-02 -1.65220674E+00
 -1.13599428E+00  3.90691498E-05 -2.71348211E-04 -5.35165577E-04  1.14211865E-02
  1.65247809E+00  1.13652944E+00  1.99253480E-02 -3.75314027E-02  1.31962495E-14
  5.41532527E-15  6.74790315E-03  2.55385068E-01 -3.50178258E-14 -4.94987901E-14
 -1.77211572E-01  1.83543618E+00  2.43070404E-13 -1.74311817E-12  1.26403343E+00
 -1.42233323E+00  4.91886468E-14 -2.14170617E-13 -4.46312089E-01  1.88980823E-01
  5.46339755E-15  1.58447159E-13  1.37448745E-14  2.07480953E-13 -7.56643862E-01
 -1.87233583E-14 -6.18054467E-13 -5.01350568E-14 -9.95265926E-13  3.43037477E-01
 -1.58054599E+00  8.11708106E-01  3.43037477E-01 -1.58054599E+00  8.11708106E-01
  3.43037477E-01 -1.58054599E+00  8.11708106E-01  1.99253480E-02 -3.75314027E-02
 -1.31962495E-14  5.41532527E-15 -6.74790315E-03  2.55385068E-01  3.50178258E-14
 -4.94987901E-14  1.77211572E-01  1.83543618E+00 -2.43070404E-13 -1.74311817E-12
 -1.26403343E+00 -1.42233323E+00 -4.91886468E-14 -2.14170617E-13  4.46312089E-01
  1.88980823E-01  5.46339755E-15 -1.58447159E-13  1.37448745E-14 -2.07480953E-13
 -7.56643862E-01 -1.87233583E-14  6.18054467E-13 -5.01350568E-14  9.95265926E-13
  3.43037477E-01 -1.58054599E+00  8.11708106E-01  3.43037477E-01 -1.58054599E+00
  8.11708106E-01  3.43037477E-01 -1.58054599E+00  8.11708106E-01 -3.17309410E-15
  7.09602083E-15  1.63420077E-01 -4.85664082E-05  4.28790359E-16 -4.01384201E-14
 -5.01072684E-01  1.82607229E-04  8.71086109E-15 -6.07979184E-14  3.13702088E+00
  5.94181040E-04 -7.26515788E-14  1.76114659E-13  1.05605030E+00 -1.22173012E-04
  2.93506248E-14 -1.42377154E-14  6.78364160E-02 -6.59145153E-05  1.81524482E-01
 -1.18246123E-04  5.61654418E-14 -2.63743894E-01  2.98807465E-04 -6.45551502E-01
  5.98066089E-04  6.16271367E-03 -3.25249082E-01 -1.13847767E+00 -1.23905498E-02
  6.52021019E-01  2.27695073E+00  6.22783611E-03 -3.26771937E-01 -1.13847305E+00
 -3.17309410E-15  7.09602083E-15 -1.63420077E-01 -4.85664082E-05 -4.28790359E-16
 -4.01384201E-14  5.01072684E-01  1.82607229E-04 -8.71086109E-15 -6.07979184E-14
 -3.13702088E+00  5.94181040E-04  7.26515788E-14  1.76114659E-13 -1.05605030E+00
 -1.22173012E-04 -2.93506248E-14 -1.42377154E-14  6.78364160E-02  6.59145153E-05
  1.81524482E-01  1.18246123E-04  5.61654418E-14 -2.63743894E-01 -2.98807465E-04
 -6.45551502E-01 -5.98066089E-04  6.22783611E-03 -3.26771937E-01 -1.13847305E+00
 -1.23905498E-02  6.52021019E-01  2.27695073E+00  6.16271367E-03 -3.25249082E-01
 -1.13847767E+00 -2.28096066E-15 -7.24636257E-15  2.14918975E-05  2.15354626E-01
 -1.27351872E-14  9.67162076E-14  1.95924833E-05 -8.13711055E-01  3.27948971E-14
 -1.48935376E-13  1.83409178E-03  2.82016108E-01 -3.41520909E-15 -4.62111756E-13
 -1.25169133E-03  1.14429945E+00 -1.47381781E-14  1.40839920E-14  1.26483820E-05
  4.19535517E-02  9.16035440E-05  8.78846393E-02 -4.86370989E-14  4.17377353E-05
 -3.57808550E-01 -5.13407280E-04 -6.30935170E-01  2.78033576E-01 -1.80702776E+00
  2.86917916E+00 -3.07763987E-04  1.70046118E-03 -8.84681556E-04 -2.77725812E-01
  1.80532730E+00 -2.86829448E+00 -2.28096066E-15 -7.24636257E-15 -2.14918975E-05
  2.15354626E-01  1.27351872E-14  9.67162076E-14 -1.95924833E-05 -8.13711055E-01
 -3.27948971E-14 -1.48935376E-13 -1.83409178E-03  2.82016108E-01  3.41520909E-15
 -4.62111756E-13  1.25169133E-03  1.14429945E+00  1.47381781E-14  1.40839920E-14
  1.26483820E-05 -4.19535517E-02  9.16035440E-05 -8.78846393E-02 -4.86370989E-14
  4.17377353E-05  3.57808550E-01 -5.13407280E-04  6.30935170E-01 -2.77725812E-01
  1.80532730E+00 -2.86829448E+00 -3.07763987E-04  1.70046118E-03 -8.84681556E-04
  2.78033576E-01 -1.80702776E+00  2.86917916E+00  2.96238646E-15 -1.72850569E-15
 -2.39676085E-02 -1.39662796E-04  1.63434670E-15 -1.54597466E-14  2.16238339E-01
  5.19432114E-04 -5.98719487E-15  5.07429517E-14  2.15043672E+00 -1.01828545E-04
  1.43189240E-14  7.74733563E-14 -2.50569466E+00 -6.96853589E-04 -4.78102969E-15
 -1.22257464E-15  1.50416130E-03 -3.26334621E-05  1.00896182E-01 -9.07193087E-05
  2.43431637E-15  1.70717699E-01  2.55672941E-04 -6.20572581E-01  5.96463762E-04
  2.31474292E-01 -1.27485290E+00  1.00338272E+00 -4.63277197E-01  2.55223365E+00
 -2.01038994E+00  2.31802905E-01 -1.27738075E+00  1.00700722E+00  2.96238646E-15
 -1.72850569E-15  2.39676085E-02 -1.39662796E-04 -1.63434670E-15 -1.54597466E-14
 -2.16238339E-01  5.19432114E-04  5.98719487E-15  5.07429517E-14 -2.15043672E+00
 -1.01828545E-04 -1.43189240E-14  7.74733563E-14  2.50569466E+00 -6.96853589E-04
  4.78102969E-15 -1.22257464E-15  1.50416130E-03  3.26334621E-05  1.00896182E-01
  9.07193087E-05  2.43431637E-15  1.70717699E-01 -2.55672941E-04 -6.20572581E-01
 -5.96463762E-04  2.31802905E-01 -1.27738075E+00  1.00700722E+00 -4.63277197E-01
  2.55223365E+00 -2.01038994E+00  2.31474292E-01 -1.27485290E+00  1.00338272E+00
 -7.96458259E-02  1.88257879E-01 -1.12603515E-14  5.25381944E-14  1.02432973E-01
 -7.86029029E-01  2.62971453E-14 -2.00578262E-13 -5.27878100E-01  4.41400259E+00
 -2.49073355E-13 -5.34085890E-13  1.77980231E+00  3.07687627E+00  4.34953275E-14
  1.84971302E-13 -4.06420681E-01  1.30746692E-01 -5.57879014E-15  6.32436823E-14
 -1.16654587E-14  9.09695574E-14 -5.47250751E-01  1.00836345E-14 -2.90870116E-13
  5.42385493E-14 -4.84099955E-13 -8.76922695E-02 -5.75894569E-02 -2.73614251E+00
 -8.76922695E-02 -5.75894569E-02 -2.73614251E+00 -8.76922695E-02 -5.75894569E-02
 -2.73614251E+00 -7.96458259E-02  1.88257879E-01  1.12603515E-14  5.25381944E-14
 -1.02432973E-01 -7.86029029E-01 -2.62971453E-14 -2.00578262E-13  5.27878100E-01
  4.41400259E+00  2.49073355E-13 -5.34085890E-13 -1.77980231E+00  3.07687627E+00
 -4.34953275E-14  1.84971302E-13  4.06420681E-01  1.30746692E-01 -5.57879014E-15
 -6.32436823E-14 -1.16654587E-14 -9.09695574E-14 -5.47250751E-01  1.00836345E-14
  2.90870116E-13  5.42385493E-14  4.84099955E-13 -8.76922695E-02 -5.75894569E-02
 -2.73614251E+00 -8.76922695E-02 -5.75894569E-02 -2.73614251E+00 -8.76922695E-02
 -5.75894569E-02 -2.73614251E+00  2.35165772E-02  2.70117092E-02 -8.91241268E-18
  2.83532997E-18  1.80343234E-02  7.56691070E-02  2.63467371E-17  5.82294285E-18
  4.96308750E-02  7.92661025E-02  4.53319014E-17  7.34695732E-18  1.08832320E-01
  4.10908977E-02  3.84880507E-17  2.92765182E-18  1.20700155E-01 -8.33588999E-03
 -1.40492203E-19 -6.66321767E-20 -3.71026119E-17 -2.57835678E-18 -3.90963842E-02
 -6.22476253E-18 -5.03934004E-19 -4.26961432E-17 -3.95425701E-18  4.30482261E-02
  7.53186658E-02  7.82009004E-02  4.30482261E-02  7.53186658E-02  7.82009004E-02
  4.30482261E-02  7.53186658E-02  7.82009004E-02 -2.35165772E-02 -2.70117092E-02
 -8.91241268E-18 -2.83532997E-18  1.80343234E-02 -7.56691070E-02  2.63467371E-17
 -5.82294285E-18  4.96308750E-02 -7.92661025E-02  4.53319014E-17 -7.34695732E-18
  1.08832320E-01 -4.10908977E-02  3.84880507E-17 -2.92765182E-18  1.20700155E-01
  8.33588999E-03  1.40492203E-19 -6.66321767E-20  3.71026119E-17 -2.57835678E-18
  3.90963842E-02  6.22476253E-18 -5.03934004E-19  4.26961432E-17 -3.95425701E-18
 -4.30482261E-02 -7.53186658E-02 -7.82009004E-02 -4.30482261E-02 -7.53186658E-02
 -7.82009004E-02 -4.30482261E-02 -7.53186658E-02 -7.82009004E-02  1.61147266E-18
  3.29028383E-17  5.33191047E-02  1.28562557E-07 -2.85058576E-17 -3.01286635E-17
  1.18495542E-01  2.63404887E-07  1.03219057E-16 -1.05705315E-16  1.78051668E-01
  2.30998131E-07 -4.39291782E-17 -2.15702211E-17  1.57778920E-01  7.06863049E-08
 -2.88242975E-17 -6.61898175E-17 -6.98022050E-03  7.75807505E-08 -1.04268078E-02
  2.12375576E-06 -7.08209892E-17 -3.46335865E-02  2.32703766E-07 -2.11008886E-02
  5.12638094E-06  3.33814782E-02  4.89944394E-02  4.22561456E-02 -6.67697391E-02
 -9.79986469E-02 -8.45205003E-02  3.33882609E-02  4.90042075E-02  4.22643546E-02
 -1.61147266E-18 -3.29028383E-17  5.33191047E-02 -1.28562557E-07 -2.85058576E-17
  3.01286635E-17  1.18495542E-01 -2.63404887E-07  1.03219057E-16  1.05705315E-16
  1.78051668E-01 -2.30998131E-07 -4.39291782E-17  2.15702211E-17  1.57778920E-01
 -7.06863049E-08 -2.88242975E-17  6.61898175E-17  6.98022050E-03  7.75807505E-08
  1.04268078E-02  2.12375576E-06  7.08209892E-17  3.46335865E-02  2.32703766E-07
  2.11008886E-02  5.12638094E-06 -3.33882609E-02 -4.90042075E-02 -4.22643546E-02
  6.67697391E-02  9.79986469E-02  8.45205003E-02 -3.33814782E-02 -4.89944394E-02
 -4.22561456E-02  4.74972756E-17 -2.31071498E-17 -8.69479259E-07  9.24400150E-02
  7.87838726E-17  1.57208943E-18 -1.57306111E-06  1.56602971E-01  2.65177212E-17
  7.73280341E-17 -2.24817271E-06  1.20639928E-01  9.30451266E-17 -2.47770759E-17
 -2.14478486E-06  3.38701682E-02 -5.95068961E-17  8.92964249E-18  7.96985572E-07
  4.97246030E-02  5.87594532E-06  5.59908139E-02 -7.09154624E-17  1.66108083E-06
  1.26920713E-01  9.94918263E-06  1.12159890E-01 -1.30716670E-01 -1.36117563E-01
 -5.88494002E-02  6.59627313E-06  7.38063892E-06  3.61721949E-06  1.30710073E-01
  1.36110182E-01  5.88457830E-02 -4.74972756E-17  2.31071498E-17 -8.69479259E-07
 -9.24400150E-02  7.87838726E-17 -1.57208943E-18 -1.57306111E-06 -1.56602971E-01
  2.65177212E-17 -7.73280341E-17 -2.24817271E-06 -1.20639928E-01  9.30451266E-17
  2.47770759E-17 -2.14478486E-06 -3.38701682E-02 -5.95068961E-17 -8.92964249E-18
 -7.96985572E-07  4.97246030E-02 -5.87594532E-06  5.59908139E-02  7.09154624E-17
 -1.66108083E-06  1.26920713E-01 -9.94918263E-06  1.12159890E-01 -1.30710073E-01
 -1.36110182E-01 -5.88457830E-02 -6.59627313E-06 -7.38063892E-06 -3.61721949E-06
  1.30716670E-01  1.36117563E-01  5.88494002E-02  2.61776378E-17 -1.45517402E-16
 -5.83318609E-02 -6.01075202E-06  2.54711643E-17 -1.73163556E-17 -7.48398554E-02
 -7.83658232E-06  3.15991482E-17  6.75319120E-19 -3.69941341E-02 -5.04434751E-06
 -3.52230232E-18  1.90686576E-16  1.68330501E-02 -1.33284891E-06  3.64093773E-17
  4.05222637E-17  2.32752383E-01 -2.53266730E-06 -6.51486437E-02  1.75420543E-05
  3.27308232E-17  3.43423820E-01 -5.46091227E-06 -8.74494055E-02  2.80715225E-05
  6.64730384E-02  3.94777266E-02  7.81110464E-03 -1.32955519E-01 -7.89587987E-02
 -1.56220578E-02  6.64824810E-02  3.94810721E-02  7.81095317E-03 -2.61776378E-17
  1.45517402E-16 -5.83318609E-02  6.01075202E-06  2.54711643E-17  1.73163556E-17
 -7.48398554E-02  7.83658232E-06  3.15991482E-17 -6.75319120E-19 -3.69941341E-02
  5.04434751E-06 -3.52230232E-18 -1.90686576E-16  1.68330501E-02  1.33284891E-06
  3.64093773E-17 -4.05222637E-17 -2.32752383E-01 -2.53266730E-06  6.51486437E-02
  1.75420543E-05 -3.27308232E-17 -3.43423820E-01 -5.46091227E-06  8.74494055E-02
  2.80715225E-05 -6.64824810E-02 -3.94810721E-02 -7.81095317E-03  1.32955519E-01
  7.89587987E-02  1.56220578E-02 -6.64730384E-02 -3.94777266E-02 -7.81110464E-03
  2.72574053E-01  2.79605806E-01  2.70794798E-16 -5.05523206E-17 -7.65654707E-02
  1.41368503E-01  2.47963716E-17 -5.61711934E-17 -7.38751967E-02  8.41038805E-03
 -1.04847497E-16 -4.98130198E-18 -4.65534532E-02 -3.58343985E-02 -1.68043929E-16
 -3.58538679E-18 -1.12667514E-01 -8.06830541E-02  4.93158855E-17 -4.55413480E-18
 -2.01740284E-16  9.41980539E-18 -1.74318542E-01  6.46170194E-17 -8.14972851E-18
 -1.09090497E-16  1.83355936E-17  2.93074725E-03  3.00602995E-03 -3.70275608E-02
  2.93074725E-03  3.00602995E-03 -3.70275608E-02  2.93074725E-03  3.00602995E-03
 -3.70275608E-02 -2.72574053E-01 -2.79605806E-01  2.70794798E-16  5.05523206E-17
 -7.65654707E-02 -1.41368503E-01  2.47963716E-17  5.61711934E-17 -7.38751967E-02
 -8.41038805E-03 -1.04847497E-16  4.98130198E-18 -4.65534532E-02  3.58343985E-02
 -1.68043929E-16  3.58538679E-18 -1.12667514E-01  8.06830541E-02 -4.93158855E-17
 -4.55413480E-18  2.01740284E-16  9.41980539E-18  1.74318542E-01 -6.46170194E-17
 -8.14972851E-18  1.09090497E-16  1.83355936E-17 -2.93074725E-03 -3.00602995E-03
  3.70275608E-02 -2.93074725E-03 -3.00602995E-03  3.70275608E-02 -2.93074725E-03
 -3.00602995E-03  3.70275608E-02 -1.93258514E-17 -5.43382607E-17  3.65103919E-05
 -1.63867112E-01 -2.56426411E-18 -4.69028536E-17  3.80911950E-05 -1.69293525E-01
  2.75232388E-17 -1.18589684E-17 -1.53273918E-05 -8.83831774E-02 -2.27459884E-17
  3.16840286E-17 -7.64164840E-05 -2.23152851E-02  2.79040869E-17  6.12966432E-18
 -3.58510437E-05 -4.82445869E-02 -2.52325347E-05  2.73779121E-01 -5.64752344E-17
 -4.81135231E-05 -9.54233150E-02 -2.75450946E-05  3.65568446E-01 -4.33306089E-02
 -3.88944756E-03  9.64041448E-03 -3.11593830E-05 -1.54430634E-05  1.90949072E-05
  4.33617683E-02  3.90489062E-03 -9.65950938E-03  1.93258514E-17  5.43382607E-17
  3.65103919E-05  1.63867112E-01 -2.56426411E-18  4.69028536E-17  3.80911950E-05
  1.69293525E-01  2.75232388E-17  1.18589684E-17 -1.53273918E-05  8.83831774E-02
 -2.27459884E-17 -3.16840286E-17 -7.64164840E-05  2.23152851E-02  2.79040869E-17
 -6.12966432E-18  3.58510437E-05 -4.82445869E-02  2.52325347E-05  2.73779121E-01
  5.64752344E-17  4.81135231E-05 -9.54233150E-02  2.75450946E-05  3.65568446E-01
 -4.33617683E-02 -3.90489062E-03  9.65950938E-03  3.11593830E-05  1.54430634E-05
 -1.90949072E-05  4.33306089E-02  3.88944756E-03 -9.64041448E-03  1.91616156E-01
  1.86695111E-01 -1.39655356E-15  1.32757413E-16  2.07510517E-01 -1.03976153E-03
 -1.28564018E-15  5.72060721E-17  1.77053487E-01 -9.54798438E-03  3.02275899E-16
 -6.52088435E-17  4.50999352E-02  8.42780801E-03  2.04261488E-15 -2.25371608E-17
  3.05436665E-02  2.14324165E-01  2.11622856E-16 -1.74704500E-17  1.38059444E-15
  4.70787999E-17  2.94086282E-01  4.43401283E-16 -4.22021640E-17  1.29660013E-15
  3.52039526E-17 -6.54768953E-02 -3.67052903E-02 -6.41203668E-04 -6.54768953E-02
 -3.67052903E-02 -6.41203668E-04 -6.54768953E-02 -3.67052903E-02 -6.41203668E-04
 -1.91616156E-01 -1.86695111E-01 -1.39655356E-15 -1.32757413E-16  2.07510517E-01
  1.03976153E-03 -1.28564018E-15 -5.72060721E-17  1.77053487E-01  9.54798438E-03
  3.02275899E-16  6.52088435E-17  4.50999352E-02 -8.42780801E-03  2.04261488E-15
  2.25371608E-17  3.05436665E-02 -2.14324165E-01 -2.11622856E-16 -1.74704500E-17
 -1.38059444E-15  4.70787999E-17 -2.94086282E-01 -4.43401283E-16 -4.22021640E-17
 -1.29660013E-15  3.52039526E-17  6.54768953E-02  3.67052903E-02  6.41203668E-04
  6.54768953E-02  3.67052903E-02  6.41203668E-04  6.54768953E-02  3.67052903E-02
  6.41203668E-04 -1.01151651E-15 -1.13016796E-15 -1.97632012E-01 -5.12561920E-05
 -1.73914758E-15 -1.62442725E-17 -1.94722769E-01 -4.90533152E-05 -1.21802691E-15
 -7.52953976E-18  4.41419482E-02 -2.33558578E-05 -2.33532052E-16 -6.68960182E-17
  3.11581395E-01 -5.73354193E-06 -2.01473873E-16 -1.55390347E-15  4.12890229E-02
 -1.26365431E-05  1.84192780E-01  5.74341427E-05 -2.10325678E-15  7.48758873E-02
 -2.49838395E-05  1.88532356E-01  7.29044609E-05 -7.62121090E-02 -3.43701185E-02
  4.23522886E-02  1.52402548E-01  6.87386822E-02 -8.47072787E-02 -7.61904391E-02
 -3.43685637E-02  4.23549901E-02  1.01151651E-15  1.13016796E-15 -1.97632012E-01
  5.12561920E-05 -1.73914758E-15  1.62442725E-17 -1.94722769E-01  4.90533152E-05
 -1.21802691E-15  7.52953976E-18  4.41419482E-02  2.33558578E-05 -2.33532052E-16
  6.68960182E-17  3.11581395E-01  5.73354193E-06 -2.01473873E-16  1.55390347E-15
 -4.12890229E-02 -1.26365431E-05 -1.84192780E-01  5.74341427E-05  2.10325678E-15
 -7.48758873E-02 -2.49838395E-05 -1.88532356E-01  7.29044609E-05  7.61904391E-02
  3.43685637E-02 -4.23549901E-02 -1.52402548E-01 -6.87386822E-02  8.47072787E-02
  7.62121090E-02  3.43701185E-02 -4.23522886E-02 -2.48953286E-16  9.79514919E-17
  2.83848232E-01 -2.85197423E-05  2.78104650E-16  2.85700710E-16  2.12320092E-01
 -2.01800340E-05  1.45565899E-16 -2.58491919E-17  2.59043197E-02 -5.09769049E-06
 -1.09489317E-16 -1.13588991E-16 -1.17251122E-01 -7.87454624E-07 -3.25769320E-16
  5.03050988E-17  1.90556233E-01 -1.75115562E-07  3.22466580E-01 -1.08925768E-05
 -9.14876268E-17  1.34284242E-01 -4.35520923E-06  2.56724731E-01 -1.13304314E-05
 -2.15827564E-02 -9.16692394E-03 -1.82609337E-02  4.31433975E-02  1.83268188E-02
  3.65257996E-02 -2.15606410E-02 -9.15989488E-03 -1.82648660E-02  2.48953286E-16
 -9.79514919E-17  2.83848232E-01  2.85197423E-05  2.78104650E-16 -2.85700710E-16
  2.12320092E-01  2.01800340E-05  1.45565899E-16  2.58491919E-17  2.59043197E-02
  5.09769049E-06 -1.09489317E-16  1.13588991E-16 -1.17251122E-01  7.87454624E-07
 -3.25769320E-16 -5.03050988E-17 -1.90556233E-01 -1.75115562E-07 -3.22466580E-01
 -1.08925768E-05  9.14876268E-17 -1.34284242E-01 -4.35520923E-06 -2.56724731E-01
 -1.13304314E-05  2.15606410E-02  9.15989488E-03  1.82648660E-02 -4.31433975E-02
 -1.83268188E-02 -3.65257996E-02  2.15827564E-02  9.16692394E-03  1.82609337E-02
 -8.43479616E-02 -7.47520436E-02 -1.05803571E-16 -1.68662122E-16  3.53098494E-01
  1.22439836E-01 -4.15904084E-16 -1.13289154E-16  2.13165199E-01  3.92797012E-02
 -7.04707313E-17 -8.84386550E-18 -1.73282820E-02 -1.00132668E-01  3.14760770E-16
  1.31942780E-17 -3.20562683E-01 -4.66537456E-02 -1.34547687E-16 -9.77254048E-17
 -4.48290007E-16 -2.98755346E-17 -8.37524956E-02 -4.53546475E-17 -5.85449324E-17
 -1.74959512E-16 -5.36253978E-17  1.36788042E-01  6.92139393E-02 -7.50156010E-02
  1.36788042E-01  6.92139393E-02 -7.50156010E-02  1.36788042E-01  6.92139393E-02
 -7.50156010E-02  8.43479616E-02  7.47520436E-02 -1.05803571E-16  1.68662122E-16
  3.53098494E-01 -1.22439836E-01 -4.15904084E-16  1.13289154E-16  2.13165199E-01
 -3.92797012E-02 -7.04707313E-17  8.84386550E-18 -1.73282820E-02  1.00132668E-01
  3.14760770E-16 -1.31942780E-17 -3.20562683E-01  4.66537456E-02  1.34547687E-16
 -9.77254048E-17  4.48290007E-16 -2.98755346E-17  8.37524956E-02  4.53546475E-17
 -5.85449324E-17  1.74959512E-16 -5.36253978E-17 -1.36788042E-01 -6.92139393E-02
  7.50156010E-02 -1.36788042E-01 -6.92139393E-02  7.50156010E-02 -1.36788042E-01
 -6.92139393E-02  7.50156010E-02 -3.86738522E-17 -2.89440736E-17  7.33244747E-06
  4.43697884E-01 -7.46453169E-17  1.19356142E-16  3.38434805E-06  1.95107586E-01
 -1.09175251E-16  5.53261712E-17  4.07318340E-07 -7.29083162E-02 -1.92076728E-16
 -1.34910153E-16  1.13826412E-06 -4.56352426E-02 -5.82118580E-18 -1.19847648E-16
  5.75868745E-06 -3.64645633E-01  3.52123474E-05  1.43394068E-01  5.03507769E-17
  2.82118502E-06 -1.66629469E-01  1.70767353E-05  8.59453333E-02  7.42798737E-02
  5.27611429E-02  4.95751328E-02  9.39933891E-07 -1.23207853E-06 -3.10797610E-06
 -7.42808136E-02 -5.27599109E-02 -4.95720248E-02  3.86738522E-17  2.89440736E-17
  7.33244747E-06 -4.43697884E-01 -7.46453169E-17 -1.19356142E-16  3.38434805E-06
 -1.95107586E-01 -1.09175251E-16 -5.53261712E-17  4.07318340E-07  7.29083162E-02
 -1.92076728E-16  1.34910153E-16  1.13826412E-06  4.56352426E-02 -5.82118580E-18
  1.19847648E-16 -5.75868745E-06 -3.64645633E-01 -3.52123474E-05  1.43394068E-01
 -5.03507769E-17 -2.82118502E-06 -1.66629469E-01 -1.70767353E-05  8.59453333E-02
  7.42808136E-02  5.27599109E-02  4.95720248E-02 -9.39933891E-07  1.23207853E-06
  3.10797610E-06 -7.42798737E-02 -5.27611429E-02 -4.95751328E-02 -4.24434873E-17
 -6.92173509E-17  2.56262674E-06  2.72977563E-01 -3.48688359E-17  1.19422656E-16
  4.08409304E-07  5.84766345E-02 -3.86092936E-17  2.45872988E-17 -1.51819348E-07
 -1.48521564E-01 -1.49164854E-16 -5.23008983E-17  1.91110579E-06 -8.51803611E-02
 -7.28129755E-17 -1.07631399E-16  1.95037545E-06  5.82992416E-01  3.68550653E-05
  2.38712201E-01 -3.33022134E-17  3.28726297E-07  2.19199012E-02  3.36429885E-06
  2.54861368E-02  6.82567180E-02  1.16427855E-01  1.02354963E-01 -2.02184625E-06
 -5.77576757E-06 -5.61224682E-06 -6.82546962E-02 -1.16422079E-01 -1.02349351E-01
  4.24434873E-17  6.92173509E-17  2.56262674E-06 -2.72977563E-01 -3.48688359E-17
 -1.19422656E-16  4.08409304E-07 -5.84766345E-02 -3.86092936E-17 -2.45872988E-17
 -1.51819348E-07  1.48521564E-01 -1.49164854E-16  5.23008983E-17  1.91110579E-06
  8.51803611E-02 -7.28129755E-17  1.07631399E-16 -1.95037545E-06  5.82992416E-01
 -3.68550653E-05  2.38712201E-01  3.33022134E-17 -3.28726297E-07  2.19199012E-02
 -3.36429885E-06  2.54861368E-02  6.82546962E-02  1.16422079E-01  1.02349351E-01
  2.02184625E-06  5.77576757E-06  5.61224682E-06 -6.82567180E-02 -1.16427855E-01
 -1.02354963E-01 -6.18532245E-17 -2.61328259E-16 -3.83435266E-01  1.23529614E-06
 -3.78321167E-15  4.40937504E-16 -8.29463006E-03  9.51212096E-08 -1.02221911E-16
  5.24394324E-16  9.49208672E-02 -7.02325099E-07  3.05484874E-16 -6.99203135E-16
 -2.47851191E-01 -2.94943058E-07 -2.17661371E-15  4.99967057E-15 -2.31267097E-01
  1.56203603E-06  4.66046407E-01 -6.57354866E-05  5.33065545E-16 -5.61577890E-03
 -2.94262707E-07 -2.43635309E-02  1.96320553E-06  1.28802402E-01  7.41755451E-02
 -5.69049515E-03 -2.57627312E-01 -1.48363206E-01  1.13817146E-02  1.28824909E-01
  7.41876608E-02 -5.69121941E-03  6.18532245E-17  2.61328259E-16 -3.83435266E-01
 -1.23529614E-06 -3.78321167E-15 -4.40937504E-16 -8.29463006E-03 -9.51212096E-08
 -1.02221911E-16 -5.24394324E-16  9.49208672E-02  7.02325099E-07  3.05484874E-16
  6.99203135E-16 -2.47851191E-01  2.94943058E-07 -2.17661371E-15 -4.99967057E-15
  2.31267097E-01  1.56203603E-06 -4.66046407E-01 -6.57354866E-05 -5.33065545E-16
  5.61577890E-03 -2.94262707E-07  2.43635309E-02  1.96320553E-06 -1.28824909E-01
 -7.41876608E-02  5.69121941E-03  2.57627312E-01  1.48363206E-01 -1.13817146E-02
 -1.28802402E-01 -7.41755451E-02  5.69049515E-03 -3.14648706E-02 -2.14159149E-02
  3.80079854E-15  6.28425885E-17 -4.09349683E-01  6.96748236E-02 -1.85196281E-16
 -1.52268332E-16  8.66075083E-03  4.35963296E-02 -1.07901841E-15  1.36268109E-16
  4.18330508E-02 -6.53850146E-02  2.51884568E-15  2.70239177E-17 -2.14271546E-01
  5.51501173E-01  2.18050822E-15  5.00116760E-17 -4.56012654E-15 -3.18503533E-17
  6.59630926E-02  7.57253088E-18 -3.65083398E-17 -3.95737021E-17  2.39911243E-17
  1.52764883E-01  7.72651933E-02 -2.75853457E-02  1.52764883E-01  7.72651933E-02
 -2.75853457E-02  1.52764883E-01  7.72651933E-02 -2.75853457E-02  3.14648706E-02
  2.14159149E-02  3.80079854E-15 -6.28425885E-17 -4.09349683E-01 -6.96748236E-02
 -1.85196281E-16  1.52268332E-16  8.66075083E-03 -4.35963296E-02 -1.07901841E-15
 -1.36268109E-16  4.18330508E-02  6.53850146E-02  2.51884568E-15 -2.70239177E-17
 -2.14271546E-01 -5.51501173E-01 -2.18050822E-15  5.00116760E-17  4.56012654E-15
 -3.18503533E-17 -6.59630926E-02 -7.57253088E-18 -3.65083398E-17  3.95737021E-17
  2.39911243E-17 -1.52764883E-01 -7.72651933E-02  2.75853457E-02 -1.52764883E-01
 -7.72651933E-02  2.75853457E-02 -1.52764883E-01 -7.72651933E-02  2.75853457E-02
 -1.06239902E-16 -2.00189647E-17 -5.71031229E-05 -1.65680207E-01  9.96988951E-17
  1.28233541E-16  1.60404060E-05  3.98150232E-02 -3.58749134E-17  1.07465134E-16
  3.59544786E-05  2.00165307E-01  1.88156383E-16 -2.76259765E-16 -3.21733265E-05
  1.08165243E-01  2.51595805E-18  2.89710804E-16  3.82397706E-05 -1.22713591E-01
  3.56064039E-05  6.73865303E-01 -2.50769729E-16 -2.47972226E-05  1.45953204E-01
 -1.86323541E-05 -4.59529813E-01  8.79088625E-02  4.82690792E-03 -5.90598121E-02
 -1.57541305E-05 -5.06091091E-07  1.12941571E-05 -8.78931084E-02 -4.82640183E-03
  5.90485179E-02  1.06239902E-16  2.00189647E-17 -5.71031229E-05  1.65680207E-01
  9.96988951E-17 -1.28233541E-16  1.60404060E-05 -3.98150232E-02 -3.58749134E-17
 -1.07465134E-16  3.59544786E-05 -2.00165307E-01  1.88156383E-16  2.76259765E-16
 -3.21733265E-05 -1.08165243E-01  2.51595805E-18 -2.89710804E-16 -3.82397706E-05
 -1.22713591E-01 -3.56064039E-05  6.73865303E-01  2.50769729E-16  2.47972226E-05
  1.45953204E-01  1.86323541E-05 -4.59529813E-01  8.78931084E-02  4.82640183E-03
 -5.90485179E-02  1.57541305E-05  5.06091091E-07 -1.12941571E-05 -8.79088625E-02
 -4.82690792E-03  5.90598121E-02  2.97700305E-16  4.20021225E-17 -3.72450635E-01
  1.63926285E-05 -2.13130555E-16 -4.43177943E-16  9.27268136E-02 -4.07252077E-06
 -6.26644671E-17 -3.84346890E-17  2.43352281E-01 -2.28188232E-05  1.74530654E-16
  5.70176794E-17 -2.17278214E-01 -1.32172461E-05 -1.20182687E-16 -3.17234172E-16
  6.27534217E-01  1.11181023E-05 -1.06692632E-01 -4.98073496E-05  4.29721407E-16
 -3.95833644E-01 -1.62527284E-05  6.62340200E-02  3.66624073E-05 -3.15732658E-02
 -1.54193146E-03 -9.63110637E-03  6.31241761E-02  3.08408679E-03  1.92811935E-02
 -3.15509103E-02 -1.54215533E-03 -9.65008712E-03 -2.97700305E-16 -4.20021225E-17
 -3.72450635E-01 -1.63926285E-05 -2.13130555E-16  4.43177943E-16  9.27268136E-02
  4.07252077E-06 -6.26644671E-17  3.84346890E-17  2.43352281E-01  2.28188232E-05
  1.74530654E-16 -5.70176794E-17 -2.17278214E-01  1.32172461E-05 -1.20182687E-16
  3.17234172E-16 -6.27534217E-01  1.11181023E-05  1.06692632E-01 -4.98073496E-05
 -4.29721407E-16  3.95833644E-01 -1.62527284E-05 -6.62340200E-02  3.66624073E-05
  3.15509103E-02  1.54215533E-03  9.65008712E-03 -6.31241761E-02 -3.08408679E-03
 -1.92811935E-02  3.15732658E-02  1.54193146E-03  9.63110637E-03 -2.27837756E-01
 -1.04354297E-01 -3.10052424E-16  3.96404675E-16  5.80694816E-02  4.79767517E-01
 -2.19648319E-17  5.80876586E-17  2.69239419E-02  1.30577202E-01  2.84748397E-16
 -1.74988935E-16  6.03561624E-02 -2.24970478E-02 -2.46410484E-16 -9.03673029E-17
 -8.16391103E-02  2.57941470E-01  8.28033020E-16  1.66306094E-17  4.78864942E-16
 -4.21790359E-16 -2.71861190E-01 -2.90784834E-16  4.19551000E-17 -1.20717340E-17
  2.66261405E-16 -3.66931478E-01 -5.90213258E-03  1.53073775E-02 -3.66931478E-01
 -5.90213258E-03  1.53073775E-02 -3.66931478E-01 -5.90213258E-03  1.53073775E-02
  2.27837756E-01  1.04354297E-01 -3.10052424E-16 -3.96404675E-16  5.80694816E-02
 -4.79767517E-01 -2.19648319E-17 -5.80876586E-17  2.69239419E-02 -1.30577202E-01
  2.84748397E-16  1.74988935E-16  6.03561624E-02  2.24970478E-02 -2.46410484E-16
  9.03673029E-17 -8.16391103E-02 -2.57941470E-01 -8.28033020E-16  1.66306094E-17
 -4.78864942E-16 -4.21790359E-16  2.71861190E-01  2.90784834E-16  4.19551000E-17
  1.20717340E-17  2.66261405E-16  3.66931478E-01  5.90213258E-03 -1.53073775E-02
  3.66931478E-01  5.90213258E-03 -1.53073775E-02  3.66931478E-01  5.90213258E-03
 -1.53073775E-02 -6.98085717E-02 -2.27541982E-02 -3.78661523E-15 -2.35834040E-16
 -4.13438424E-01  2.67336580E-01  3.10986555E-15  7.79570717E-17  2.23176950E-01
  1.32585878E-01  4.76507559E-15 -5.37851409E-17  2.94457804E-01 -9.05941892E-02
 -4.16524075E-15 -3.20781390E-16 -2.93707408E-01 -5.17598573E-01 -5.21999760E-15
 -1.48398755E-16 -7.10210092E-15  2.64655407E-16  5.43079038E-01  5.75056113E-15
 -6.50541522E-17  8.95619746E-15 -3.10981451E-16 -8.44116739E-02  3.17241485E-02
 -1.84368872E-02 -8.44116739E-02  3.17241485E-02 -1.84368872E-02 -8.44116739E-02
  3.17241485E-02 -1.84368872E-02  6.98085717E-02  2.27541982E-02 -3.78661523E-15
  2.35834040E-16 -4.13438424E-01 -2.67336580E-01  3.10986555E-15 -7.79570717E-17
  2.23176950E-01 -1.32585878E-01  4.76507559E-15  5.37851409E-17  2.94457804E-01
  9.05941892E-02 -4.16524075E-15  3.20781390E-16 -2.93707408E-01  5.17598573E-01
  5.21999760E-15 -1.48398755E-16  7.10210092E-15  2.64655407E-16 -5.43079038E-01
 -5.75056113E-15 -6.50541522E-17 -8.95619746E-15 -3.10981451E-16  8.44116739E-02
 -3.17241485E-02  1.84368872E-02  8.44116739E-02 -3.17241485E-02  1.84368872E-02
  8.44116739E-02 -3.17241485E-02  1.84368872E-02  1.01314417E-15  2.17879666E-16
 -2.57018333E-01 -7.48823892E-05  6.22991319E-15 -3.70013409E-15  1.95120577E-01
  9.17449132E-05 -3.44153229E-15 -2.38422612E-15  2.99057681E-01 -2.08889591E-04
 -4.40627560E-15  1.17110180E-15 -2.59812925E-01 -2.40015668E-04  4.75385976E-15
  8.34870427E-15 -3.17620124E-01 -7.51128196E-05 -4.76002764E-01  7.62955777E-05
 -8.39439247E-15  3.58962705E-01 -4.84166722E-05  6.02238341E-01 -2.43248536E-04
 -4.15525444E-02  1.61153661E-02 -4.80931522E-04  8.22860629E-02 -3.20551512E-02
  1.44089383E-03 -4.07335185E-02  1.59397851E-02 -9.59962311E-04 -1.01314417E-15
 -2.17879666E-16 -2.57018333E-01  7.48823892E-05  6.22991319E-15  3.70013409E-15
  1.95120577E-01 -9.17449132E-05 -3.44153229E-15  2.38422612E-15  2.99057681E-01
  2.08889591E-04 -4.40627560E-15 -1.17110180E-15 -2.59812925E-01  2.40015668E-04
  4.75385976E-15 -8.34870427E-15  3.17620124E-01 -7.51128196E-05  4.76002764E-01
  7.62955777E-05  8.39439247E-15 -3.58962705E-01 -4.84166722E-05 -6.02238341E-01
 -2.43248536E-04  4.07335185E-02 -1.59397851E-02  9.59962311E-04 -8.22860629E-02
  3.20551512E-02 -1.44089383E-03  4.15525444E-02 -1.61153661E-02  4.80931522E-04
  2.89735454E-17 -4.01815900E-17  1.96919999E-04 -1.36459647E-01  4.84156117E-16
 -1.65927347E-16 -1.55230647E-04  1.53188519E-01 -3.58032094E-16 -1.80048959E-16
 -2.46146673E-04 -2.52174576E-01 -4.04570144E-16 -2.65018381E-16  2.15878948E-04
 -3.20791432E-01  4.81848264E-16  7.68969713E-16  2.35111571E-04 -1.15922954E-01
  3.52631838E-04  6.83697028E-02 -6.65462501E-16 -2.85704084E-04 -2.74656875E-02
 -4.83762288E-04 -2.86440291E-01 -5.38931628E-01  1.30802500E-01  3.21407786E-01
 -7.24192811E-05  2.59542208E-05 -8.63500479E-06  5.39004048E-01 -1.30828454E-01
 -3.21399151E-01 -2.89735454E-17  4.01815900E-17  1.96919999E-04  1.36459647E-01
  4.84156117E-16  1.65927347E-16 -1.55230647E-04 -1.53188519E-01 -3.58032094E-16
  1.80048959E-16 -2.46146673E-04  2.52174576E-01 -4.04570144E-16  2.65018381E-16
  2.15878948E-04  3.20791432E-01  4.81848264E-16 -7.68969713E-16 -2.35111571E-04
 -1.15922954E-01 -3.52631838E-04  6.83697028E-02  6.65462501E-16  2.85704084E-04
 -2.74656875E-02  4.83762288E-04 -2.86440291E-01 -5.39004048E-01  1.30828454E-01
  3.21399151E-01  7.24192811E-05 -2.59542208E-05  8.63500479E-06  5.38931628E-01
 -1.30802500E-01 -3.21407786E-01  1.09333812E-16 -2.70879393E-16  1.29203277E-01
 -6.06967133E-05  3.45854546E-16  4.07383689E-16 -2.55116371E-01  8.00637930E-05
 -2.67489824E-16  3.15311886E-17  3.85965508E-01 -5.70208602E-06  4.77621999E-17
  5.20300368E-16 -4.38864441E-01 -5.34639000E-05  3.77197499E-16  1.62592131E-16
 -6.57233612E-02 -1.72421149E-05  1.31734884E-01 -1.62676157E-06 -1.51610148E-16
  2.25713602E-01  4.08362312E-05 -4.90938862E-01  3.68903454E-05 -3.61647880E-01
  2.20788224E-01  1.17440460E-01  7.23355744E-01 -4.41580687E-01 -2.34828137E-01
 -3.61707864E-01  2.20792463E-01  1.17387676E-01 -1.09333812E-16  2.70879393E-16
  1.29203277E-01  6.06967133E-05  3.45854546E-16 -4.07383689E-16 -2.55116371E-01
 -8.00637930E-05 -2.67489824E-16 -3.15311886E-17  3.85965508E-01  5.70208602E-06
  4.77621999E-17 -5.20300368E-16 -4.38864441E-01  5.34639000E-05  3.77197499E-16
 -1.62592131E-16  6.57233612E-02 -1.72421149E-05 -1.31734884E-01 -1.62676157E-06
  1.51610148E-16 -2.25713602E-01  4.08362312E-05  4.90938862E-01  3.68903454E-05
  3.61707864E-01 -2.20792463E-01 -1.17387676E-01 -7.23355744E-01  4.41580687E-01
  2.34828137E-01  3.61647880E-01 -2.20788224E-01 -1.17440460E-01 -3.44680699E-01
  1.42224753E-01 -5.53321462E-16  8.75344173E-15 -6.48063397E-02  8.71828076E-01
  5.11469878E-16 -1.36031927E-14  1.34116244E-01 -1.84240152E-01 -7.97009425E-16
  4.20468510E-16 -2.83869473E-01  1.57468846E-01  5.01311688E-16  6.60346375E-15
  6.34149150E-01 -2.55680149E-02  2.40738038E-16  3.58399521E-16  2.54535971E-16
  7.99305801E-16  1.52317969E-01 -3.06993274E-16 -2.51994715E-15 -2.74638424E-17
 -4.03918956E-15  3.02349044E-01 -3.63869855E-01 -2.37825705E-01  3.02349044E-01
 -3.63869855E-01 -2.37825705E-01  3.02349044E-01 -3.63869855E-01 -2.37825705E-01
  3.44680699E-01 -1.42224753E-01 -5.53321462E-16 -8.75344173E-15 -6.48063397E-02
 -8.71828076E-01  5.11469878E-16  1.36031927E-14  1.34116244E-01  1.84240152E-01
 -7.97009425E-16 -4.20468510E-16 -2.83869473E-01 -1.57468846E-01  5.01311688E-16
 -6.60346375E-15  6.34149150E-01  2.55680149E-02 -2.40738038E-16  3.58399521E-16
 -2.54535971E-16  7.99305801E-16 -1.52317969E-01  3.06993274E-16 -2.51994715E-15
  2.74638424E-17 -4.03918956E-15 -3.02349044E-01  3.63869855E-01  2.37825705E-01
 -3.02349044E-01  3.63869855E-01  2.37825705E-01 -3.02349044E-01  3.63869855E-01
  2.37825705E-01 -4.46154060E-15  1.60066220E-15 -4.15044890E-05 -6.64534599E-01
 -9.30127772E-16  1.21363950E-14  7.40035120E-05  9.63959186E-01  1.50869715E-15
 -1.65202918E-15 -3.13216869E-05  1.77083770E-04 -4.27672967E-15  2.02100757E-15
  4.03370526E-05 -5.50346677E-01  7.95057143E-15 -4.22109184E-16 -4.29550607E-06
 -3.49635819E-02 -2.05066444E-05 -4.98880491E-02  2.25806839E-15  6.71957605E-06
  2.08646201E-01  8.68993897E-05  2.91987702E-01  4.52909462E-01 -1.00124785E-01
  2.92825734E-01 -6.70207530E-05  5.43242090E-05  1.03831955E-05 -4.52842441E-01
  1.00070461E-01 -2.92836117E-01  4.46154060E-15 -1.60066220E-15 -4.15044890E-05
  6.64534599E-01 -9.30127772E-16 -1.21363950E-14  7.40035120E-05 -9.63959186E-01
  1.50869715E-15  1.65202918E-15 -3.13216869E-05 -1.77083770E-04 -4.27672967E-15
 -2.02100757E-15  4.03370526E-05  5.50346677E-01  7.95057143E-15  4.22109184E-16
  4.29550607E-06 -3.49635819E-02  2.05066444E-05 -4.98880491E-02 -2.25806839E-15
 -6.71957605E-06  2.08646201E-01 -8.68993897E-05  2.91987702E-01  4.52842441E-01
 -1.00070461E-01  2.92836117E-01  6.70207530E-05 -5.43242090E-05 -1.03831955E-05
 -4.52909462E-01  1.00124785E-01 -2.92825734E-01  7.23925372E-16 -5.49539299E-16
 -4.04207800E-05  3.41157860E-01 -2.05518610E-16 -7.29112236E-16  7.51673173E-05
 -6.83368396E-01  5.16067719E-16  5.79231189E-16 -2.84766314E-05 -1.66845847E-01
 -3.28497952E-16  3.57221775E-16  2.37245484E-05 -4.73669159E-01 -3.83895763E-16
 -1.11619313E-16 -4.71841482E-06 -3.64793301E-01 -1.09402203E-06 -2.91218500E-02
 -2.27049760E-16  1.83111176E-05  1.42003023E+00  4.37805117E-06  1.33333582E-01
  1.46327376E-01 -1.02315916E-02  2.40388786E-01  8.60782673E-06  9.80735966E-06
  2.27455374E-06 -1.46335984E-01  1.02217842E-02 -2.40391061E-01 -7.23925372E-16
  5.49539299E-16 -4.04207800E-05 -3.41157860E-01 -2.05518610E-16  7.29112236E-16
  7.51673173E-05  6.83368396E-01  5.16067719E-16 -5.79231189E-16 -2.84766314E-05
  1.66845847E-01 -3.28497952E-16 -3.57221775E-16  2.37245484E-05  4.73669159E-01
 -3.83895763E-16  1.11619313E-16  4.71841482E-06 -3.64793301E-01  1.09402203E-06
 -2.91218500E-02  2.27049760E-16 -1.83111176E-05  1.42003023E+00 -4.37805117E-06
  1.33333582E-01  1.46335984E-01 -1.02217842E-02  2.40391061E-01 -8.60782673E-06
 -9.80735966E-06 -2.27455374E-06 -1.46327376E-01  1.02315916E-02 -2.40388786E-01
 -2.32985984E-15  2.75144937E-15 -6.91001341E-01 -9.51382441E-07 -5.78244128E-16
 -1.63957737E-15  1.30716919E+00  1.29603074E-05  1.57313029E-15 -9.41262276E-16
 -6.32931323E-01  1.28447459E-05  1.46490037E-16 -2.96861224E-16  3.72192113E-01
  6.74153395E-05 -6.69189193E-16  5.50715106E-17 -5.85163106E-02  1.53971654E-05
  1.00628649E-01 -5.19397123E-06 -8.58038358E-16  2.94047586E-01 -7.26463783E-05
 -4.77133790E-01  2.77160348E-05 -2.46317117E-01  3.36276349E-02 -9.41346287E-02
  4.92588129E-01 -6.71930325E-02  1.88240362E-01 -2.46271012E-01  3.35653976E-02
 -9.41057330E-02  2.32985984E-15 -2.75144937E-15 -6.91001341E-01  9.51382441E-07
 -5.78244128E-16  1.63957737E-15  1.30716919E+00 -1.29603074E-05  1.57313029E-15
  9.41262276E-16 -6.32931323E-01 -1.28447459E-05  1.46490037E-16  2.96861224E-16
  3.72192113E-01 -6.74153395E-05 -6.69189193E-16 -5.50715106E-17  5.85163106E-02
  1.53971654E-05 -1.00628649E-01 -5.19397123E-06  8.58038358E-16 -2.94047586E-01
 -7.26463783E-05  4.77133790E-01  2.77160348E-05  2.46271012E-01 -3.35653976E-02
  9.41057330E-02 -4.92588129E-01  6.71930325E-02 -1.88240362E-01  2.46317117E-01
 -3.36276349E-02  9.41346287E-02 -1.34083838E+00  1.43842797E+00  1.25760402E-15
 -8.46032020E-16  1.90618983E-01 -2.55958310E-01 -3.36505010E-15  1.76396829E-15
 -4.75808952E-01 -2.71659699E-02  1.55755356E-15 -6.42324716E-17  1.04521714E-01
 -5.08538388E-02 -5.38084551E-16  3.16298942E-15 -2.29791161E-01  1.24521831E-03
 -1.96192162E-16 -6.81985797E-16 -3.84695857E-16 -4.19688465E-16  1.70915555E-01
 -7.48001843E-16  3.14177809E-15  9.94531531E-16  1.75412315E-15  1.04195155E-02
  1.17604820E-01  1.34694432E-01  1.04195155E-02  1.17604820E-01  1.34694432E-01
  1.04195155E-02  1.17604820E-01  1.34694432E-01  1.34083838E+00 -1.43842797E+00
  1.25760402E-15  8.46032020E-16  1.90618983E-01  2.55958310E-01 -3.36505010E-15
 -1.76396829E-15 -4.75808952E-01  2.71659699E-02  1.55755356E-15  6.42324716E-17
  1.04521714E-01  5.08538388E-02 -5.38084551E-16 -3.16298942E-15 -2.29791161E-01
 -1.24521831E-03  1.96192162E-16 -6.81985797E-16  3.84695857E-16 -4.19688465E-16
 -1.70915555E-01  7.48001843E-16  3.14177809E-15 -9.94531531E-16  1.75412315E-15
 -1.04195155E-02 -1.17604820E-01 -1.34694432E-01 -1.04195155E-02 -1.17604820E-01
 -1.34694432E-01 -1.04195155E-02 -1.17604820E-01 -1.34694432E-01  6.13601963E-15
 -7.72593104E-15  1.22022793E-05 -2.92739098E-01  2.39869793E-15  5.61765946E-15
 -2.34780284E-05  7.29710002E-01 -7.57542747E-15  1.00611697E-15  4.70377123E-05
 -6.08767360E-01  3.55993582E-16 -3.37385696E-15 -5.53332719E-06  1.53516957E+00
  1.61034114E-15  4.43109636E-16 -3.24315813E-06 -1.78490314E-01 -1.89213673E-05
 -1.05025150E-01  3.64174009E-15  5.67828226E-06  8.49627386E-01  8.60090281E-05
  4.24179272E-01 -1.31509848E-01  9.29192247E-01 -1.03185573E-01 -1.90933066E-05
 -1.19312755E-05  1.70818334E-05  1.31528941E-01 -9.29180315E-01  1.03168491E-01
 -6.13601963E-15  7.72593104E-15  1.22022793E-05  2.92739098E-01  2.39869793E-15
 -5.61765946E-15 -2.34780284E-05 -7.29710002E-01 -7.57542747E-15 -1.00611697E-15
  4.70377123E-05  6.08767360E-01  3.55993582E-16  3.37385696E-15 -5.53332719E-06
 -1.53516957E+00  1.61034114E-15 -4.43109636E-16  3.24315813E-06 -1.78490314E-01
  1.89213673E-05 -1.05025150E-01 -3.64174009E-15 -5.67828226E-06  8.49627386E-01
 -8.60090281E-05  4.24179272E-01 -1.31528941E-01  9.29180315E-01 -1.03168491E-01
  1.90933066E-05  1.19312755E-05 -1.70818334E-05  1.31509848E-01 -9.29192247E-01
  1.03185573E-01 -3.46594118E-01  5.11660724E-01  6.37440125E-16 -2.21685402E-15
 -7.54120100E-01 -6.71845046E-01 -3.34389577E-15  5.41609033E-15  2.00460765E+00
 -1.12922170E-01  3.03753371E-15 -7.26199703E-15 -8.36384049E-01  1.00089394E-01
 -1.18641283E-15  7.28327347E-15  3.49883528E-01 -1.25513596E-01 -1.26802438E-16
 -9.21500530E-16 -2.86393769E-16 -5.95954712E-17 -6.72977408E-01 -1.26753361E-16
  3.96860827E-15 -1.16653692E-16  1.29317334E-15 -2.19390091E-01  1.96739541E-01
 -1.30299029E-01 -2.19390091E-01  1.96739541E-01 -1.30299029E-01 -2.19390091E-01
  1.96739541E-01 -1.30299029E-01  3.46594118E-01 -5.11660724E-01  6.37440125E-16
  2.21685402E-15 -7.54120100E-01  6.71845046E-01 -3.34389577E-15 -5.41609033E-15
  2.00460765E+00  1.12922170E-01  3.03753371E-15  7.26199703E-15 -8.36384049E-01
 -1.00089394E-01 -1.18641283E-15 -7.28327347E-15  3.49883528E-01  1.25513596E-01
  1.26802438E-16 -9.21500530E-16  2.86393769E-16 -5.95954712E-17  6.72977408E-01
  1.26753361E-16  3.96860827E-15  1.16653692E-16  1.29317334E-15  2.19390091E-01
 -1.96739541E-01  1.30299029E-01  2.19390091E-01 -1.96739541E-01  1.30299029E-01
  2.19390091E-01 -1.96739541E-01  1.30299029E-01 -1.25121469E-01  2.44398435E-01
  2.34906398E-15  8.22157953E-16 -1.65995923E-01 -7.84085457E-01 -5.35565073E-15
 -8.27446655E-16  7.66828196E-01  9.69892839E-01 -4.91229316E-14  2.23315785E-14
  1.96527439E+00 -1.04704636E-01 -1.41232777E-15 -3.88769916E-15 -4.77851867E-01
  1.21433592E-01  4.64045903E-15 -4.66047651E-17 -6.64273003E-15 -2.20844409E-15
 -1.11053619E+00 -1.94557904E-14  3.95324492E-16  3.30112891E-14  6.39655512E-15
  2.68210043E-01 -1.50768013E+00  2.36344714E-01  2.68210043E-01 -1.50768013E+00
  2.36344714E-01  2.68210043E-01 -1.50768013E+00  2.36344714E-01  1.25121469E-01
 -2.44398435E-01  2.34906398E-15 -8.22157953E-16 -1.65995923E-01  7.84085457E-01
 -5.35565073E-15  8.27446655E-16  7.66828196E-01 -9.69892839E-01 -4.91229316E-14
 -2.23315785E-14  1.96527439E+00  1.04704636E-01 -1.41232777E-15  3.88769916E-15
 -4.77851867E-01 -1.21433592E-01 -4.64045903E-15 -4.66047651E-17  6.64273003E-15
 -2.20844409E-15  1.11053619E+00  1.94557904E-14  3.95324492E-16 -3.30112891E-14
  6.39655512E-15 -2.68210043E-01  1.50768013E+00 -2.36344714E-01 -2.68210043E-01
  1.50768013E+00 -2.36344714E-01 -2.68210043E-01  1.50768013E+00 -2.36344714E-01
 -2.86132350E-15  5.73803867E-15 -3.64284011E-02  5.42741758E-05 -3.94898516E-15
 -1.59686601E-14  1.66325922E-01 -1.49214443E-04  1.81011890E-14 -3.31014837E-16
  2.29608674E+00  7.84360883E-04  5.91918605E-14 -7.22531681E-15  1.48893493E-01
  1.51341579E-04 -1.06397996E-14  4.69031306E-15 -2.16253715E-01  2.34590719E-05
  2.88225517E-01 -7.82262919E-05 -2.92164408E-14  8.68876713E-01 -1.09248300E-04
 -1.40460239E+00  3.00479965E-04 -6.63913828E-03 -9.53745345E-01 -6.55557623E-01
  1.32106068E-02  1.90796068E+00  1.31204218E+00 -6.57146853E-03 -9.54215333E-01
 -6.56484557E-01  2.86132350E-15 -5.73803867E-15 -3.64284011E-02 -5.42741758E-05
 -3.94898516E-15  1.59686601E-14  1.66325922E-01  1.49214443E-04  1.81011890E-14
  3.31014837E-16  2.29608674E+00 -7.84360883E-04  5.91918605E-14  7.22531681E-15
  1.48893493E-01 -1.51341579E-04 -1.06397996E-14 -4.69031306E-15  2.16253715E-01
  2.34590719E-05 -2.88225517E-01 -7.82262919E-05  2.92164408E-14 -8.68876713E-01
 -1.09248300E-04  1.40460239E+00  3.00479965E-04  6.57146853E-03  9.54215333E-01
  6.56484557E-01 -1.32106068E-02 -1.90796068E+00 -1.31204218E+00  6.63913828E-03
  9.53745345E-01  6.55557623E-01  4.29135609E-18  1.23898989E-15  4.85664082E-05
  1.63420077E-01  1.69104978E-15 -1.08481854E-14 -1.82607229E-04 -5.01072684E-01
 -6.01716326E-15  1.11014405E-14 -5.94181040E-04  3.13702088E+00  1.96004365E-14
 -1.21138305E-15  1.22173012E-04  1.05605030E+00  2.82659000E-14  7.32039902E-16
  6.59145153E-05  6.78364160E-02 -1.18246123E-04 -1.81524482E-01 -1.45066363E-15
 -2.98807465E-04 -2.63743894E-01  5.98066089E-04  6.45551502E-01 -1.07493301E-02
  5.65106376E-01  1.97189584E+00  3.75984607E-05 -8.79220532E-04  2.66882698E-06
  1.07117317E-02 -5.64227156E-01 -1.97189851E+00 -4.29135609E-18 -1.23898989E-15
  4.85664082E-05 -1.63420077E-01  1.69104978E-15  1.08481854E-14 -1.82607229E-04
  5.01072684E-01 -6.01716326E-15 -1.11014405E-14 -5.94181040E-04 -3.13702088E+00
  1.96004365E-14  1.21138305E-15  1.22173012E-04 -1.05605030E+00  2.82659000E-14
 -7.32039902E-16 -6.59145153E-05  6.78364160E-02  1.18246123E-04 -1.81524482E-01
  1.45066363E-15  2.98807465E-04 -2.63743894E-01 -5.98066089E-04  6.45551502E-01
 -1.07117317E-02  5.64227156E-01  1.97189851E+00 -3.75984607E-05  8.79220532E-04
 -2.66882698E-06  1.07493301E-02 -5.65106376E-01 -1.97189584E+00  8.81053722E-02
 -1.87658438E-01  4.21136309E-15  4.37936856E-15 -1.24176445E-01  7.25749334E-01
 -1.79923670E-14 -1.29379488E-14  3.86004011E-01 -7.52553037E-01  8.56632887E-15
  4.87346737E-14 -1.98496688E+00  1.18181171E-01  2.34810956E-14  3.73813402E-14
 -1.30501469E+00 -9.46641901E-02  8.66603524E-16  1.35180936E-15 -2.08787418E-15
 -2.81057589E-15  3.08340971E-01 -6.99323057E-15 -6.78129941E-15  1.31868760E-14
  8.50404082E-15  2.15212642E-01 -6.67158103E-01  2.10450463E+00  2.15212642E-01
 -6.67158103E-01  2.10450463E+00  2.15212642E-01 -6.67158103E-01  2.10450463E+00
 -8.81053722E-02  1.87658438E-01  4.21136309E-15 -4.37936856E-15 -1.24176445E-01
 -7.25749334E-01 -1.79923670E-14  1.29379488E-14  3.86004011E-01  7.52553037E-01
  8.56632887E-15 -4.87346737E-14 -1.98496688E+00 -1.18181171E-01  2.34810956E-14
 -3.73813402E-14 -1.30501469E+00  9.46641901E-02 -8.66603524E-16  1.35180936E-15
  2.08787418E-15 -2.81057589E-15 -3.08340971E-01  6.99323057E-15 -6.78129941E-15
 -1.31868760E-14  8.50404082E-15 -2.15212642E-01  6.67158103E-01 -2.10450463E+00
 -2.15212642E-01  6.67158103E-01 -2.10450463E+00 -2.15212642E-01  6.67158103E-01
 -2.10450463E+00  1.85298076E-16  1.51182064E-15  2.15354626E-01 -2.14918975E-05
  3.35273656E-15 -1.26666451E-14 -8.13711055E-01 -1.95924833E-05 -1.10324132E-14
 -1.16182998E-14  2.82016108E-01 -1.83409178E-03  5.85574680E-14 -8.17262594E-16
  1.14429945E+00  1.25169133E-03  3.31006902E-14  2.40590710E-15  4.19535517E-02
 -1.26483820E-05 -8.78846393E-02  9.16035440E-05 -7.54264208E-15 -3.57808550E-01
 -4.17377353E-05  6.30935170E-01 -5.13407280E-04 -1.60167385E-01  1.04132444E+00
 -1.65549982E+00  3.20867832E-01 -2.08559417E+00  3.31253195E+00 -1.60700447E-01
  1.04426973E+00 -1.65703213E+00 -1.85298076E-16 -1.51182064E-15  2.15354626E-01
  2.14918975E-05  3.35273656E-15  1.26666451E-14 -8.13711055E-01  1.95924833E-05
 -1.10324132E-14  1.16182998E-14  2.82016108E-01  1.83409178E-03  5.85574680E-14
  8.17262594E-16  1.14429945E+00 -1.25169133E-03  3.31006902E-14 -2.40590710E-15
 -4.19535517E-02 -1.26483820E-05  8.78846393E-02  9.16035440E-05  7.54264208E-15
  3.57808550E-01 -4.17377353E-05 -6.30935170E-01 -5.13407280E-04  1.60700447E-01
 -1.04426973E+00  1.65703213E+00 -3.20867832E-01  2.08559417E+00 -3.31253195E+00
  1.60167385E-01 -1.04132444E+00  1.65549982E+00 -4.12065742E-15  6.28765938E-15
 -1.39662796E-04  2.39676085E-02  1.22978161E-15 -1.33790982E-14  5.19432114E-04
 -2.16238339E-01 -1.20782077E-15  2.35507064E-14 -1.01828545E-04 -2.15043672E+00
  3.02401487E-14 -2.82901018E-16 -6.96853589E-04  2.50569466E+00  3.02963869E-15
  1.69202475E-15 -3.26334621E-05 -1.50416130E-03  9.07193087E-05  1.00896182E-01
 -9.63310082E-15  2.55672941E-04 -1.70717699E-01 -5.96463762E-04 -6.20572581E-01
  4.01304684E-01 -2.21102891E+00  1.74209506E+00 -1.89724734E-04  1.45945897E-03
 -2.09260567E-03 -4.01114959E-01  2.20956945E+00 -1.74000246E+00  4.12065742E-15
 -6.28765938E-15 -1.39662796E-04 -2.39676085E-02  1.22978161E-15  1.33790982E-14
  5.19432114E-04  2.16238339E-01 -1.20782077E-15 -2.35507064E-14 -1.01828545E-04
  2.15043672E+00  3.02401487E-14  2.82901018E-16 -6.96853589E-04 -2.50569466E+00
  3.02963869E-15 -1.69202475E-15  3.26334621E-05 -1.50416130E-03 -9.07193087E-05
  1.00896182E-01  9.63310082E-15 -2.55672941E-04 -1.70717699E-01  5.96463762E-04
 -6.20572581E-01  4.01114959E-01 -2.20956945E+00  1.74000246E+00  1.89724734E-04
 -1.45945897E-03  2.09260567E-03 -4.01304684E-01  2.21102891E+00 -1.74209506E+00
 -3.28035037E-02  8.38729044E-02  4.69112966E-16  1.46116613E-15  3.65479034E-01
 -1.15120583E+00 -3.69133133E-15 -4.10035954E-15 -1.60028412E+00  1.43177308E+01
  6.35984881E-14  7.55882158E-15 -6.86570055E+00  1.39463177E+00  3.29801586E-14
 -2.06028858E-14  2.43349829E-01 -1.33534218E-01 -4.72268451E-15  3.50669446E-15
  4.69699696E-15  1.17506864E-16  2.11065330E+00  1.87605891E-14 -4.77459515E-15
 -2.73083092E-14 -3.47824854E-15  1.88832909E-01 -6.18510415E-01 -5.07903572E-01
  1.88832909E-01 -6.18510415E-01 -5.07903572E-01  1.88832909E-01 -6.18510415E-01
 -5.07903572E-01  3.28035037E-02 -8.38729044E-02  4.69112966E-16 -1.46116613E-15
  3.65479034E-01  1.15120583E+00 -3.69133133E-15  4.10035954E-15 -1.60028412E+00
 -1.43177308E+01  6.35984881E-14 -7.55882158E-15 -6.86570055E+00 -1.39463177E+00
  3.29801586E-14  2.06028858E-14  2.43349829E-01  1.33534218E-01  4.72268451E-15
  3.50669446E-15 -4.69699696E-15  1.17506864E-16 -2.11065330E+00 -1.87605891E-14
 -4.77459515E-15  2.73083092E-14 -3.47824854E-15 -1.88832909E-01  6.18510415E-01
  5.07903572E-01 -1.88832909E-01  6.18510415E-01  5.07903572E-01 -1.88832909E-01
  6.18510415E-01  5.07903572E-01 -1.01744018E-02  2.47997582E-02  4.38994252E-15
 -1.44296892E-14 -1.24356644E-02  7.59499289E-02  4.77966220E-15  2.86968111E-14
  9.12578410E-02 -3.26752674E+00  3.02119574E-14 -5.63719260E-15  3.34909814E+00
  5.13334903E+01 -1.27025682E-14  5.26730506E-14 -1.40635583E+01  6.06449760E-02
 -2.46107376E-14 -2.43963751E-15  1.01323462E-14  1.24213206E-15 -5.83340023E-01
  7.89574738E-15  1.36163563E-14 -2.27906074E-14  2.14335765E-14 -1.51769915E-01
  7.12197444E-01 -2.94736643E+00 -1.51769915E-01  7.12197444E-01 -2.94736643E+00
 -1.51769915E-01  7.12197444E-01 -2.94736643E+00  1.01744018E-02 -2.47997582E-02
  4.38994252E-15  1.44296892E-14 -1.24356644E-02 -7.59499289E-02  4.77966220E-15
 -2.86968111E-14  9.12578410E-02  3.26752674E+00  3.02119574E-14  5.63719260E-15
  3.34909814E+00 -5.13334903E+01 -1.27025682E-14 -5.26730506E-14 -1.40635583E+01
 -6.06449760E-02  2.46107376E-14 -2.43963751E-15 -1.01323462E-14  1.24213206E-15
  5.83340023E-01 -7.89574738E-15  1.36163563E-14  2.27906074E-14  2.14335765E-14
  1.51769915E-01 -7.12197444E-01  2.94736643E+00  1.51769915E-01 -7.12197444E-01
  2.94736643E+00  1.51769915E-01 -7.12197444E-01  2.94736643E+00
Total SCF Density                          R   N=        2628
  6.58455183E-01  5.59395482E-01  4.88357017E-01 -2.48367926E-27  7.62912230E-26
  7.99269807E-02 -9.75482592E-27  2.99638496E-25  1.35608086E-17  7.99269807E-02
  3.97869844E-06 -1.22213461E-04 -5.09691913E-23 -4.71580175E-22  7.65683795E-02
 -7.93459439E-02 -1.39489109E-01  1.60827018E-24  6.31658111E-24 -2.57634215E-03
  4.05774708E-01  2.50039223E-24  3.43586694E-24  1.26823562E-01 -5.03378561E-08
 -7.97406679E-23 -4.35484181E-24  2.01253673E-01  9.82044531E-24  1.34945799E-23
  5.03378562E-08  1.26823562E-01 -7.43822006E-22 -1.71039089E-23  3.35613547E-17
  2.01253673E-01 -4.00546218E-03 -5.50403036E-03 -7.97410258E-23 -7.43822002E-22
  1.19677491E-01  6.97616637E-03 -1.25015505E-22 -1.17437169E-21  1.87473037E-01
 -9.05491716E-02 -1.31479372E-01 -1.32949179E-23 -5.22166197E-23  2.12975783E-02
  3.09925476E-01 -2.62765108E-23 -1.03202627E-22  4.20932271E-02  2.45951728E-01
  2.09445463E-24  3.55130980E-24  9.47076747E-02 -2.62560781E-08 -5.42744753E-23
 -7.75611040E-24  1.50137090E-01  3.78983676E-09 -8.50082899E-23 -2.08565925E-23
  1.13348936E-01  8.22610321E-24  1.39479903E-23  2.62560782E-08  9.47076747E-02
 -5.34750736E-22 -3.04626106E-23 -3.78983670E-09  1.50137090E-01 -8.43672250E-22
 -8.19155646E-23  2.00621238E-17  1.13348936E-01 -3.35517858E-03 -5.68896304E-03
 -5.42746629E-23 -5.34750734E-22  8.09237805E-02  1.24247765E-02 -8.50082628E-23
 -8.43672249E-22  1.26633545E-01  3.34108795E-02 -5.86564557E-23 -6.15258071E-22
  8.67582637E-02 -3.75097359E-02 -5.25801062E-02 -1.67199469E-23 -6.56687282E-23
  2.67842851E-02  1.17915859E-01 -2.91020423E-23 -1.14300350E-22  4.66196455E-02
  1.03117858E-01 -1.81224616E-23 -7.11772576E-23  2.90310530E-02  6.53461079E-02
 -3.86906988E-24 -5.77819892E-24  4.70414187E-03  2.71431466E-07  2.88065826E-24
  1.41610339E-23  7.45653846E-03  4.43228335E-07  5.17293409E-24  1.25940109E-23
  5.63642736E-03  2.39546024E-07  2.84155758E-24  9.25465319E-24  2.80314550E-04
 -1.51960108E-23 -2.26942328E-23 -2.71431466E-07  4.70414187E-03 -4.65535679E-24
  5.56183368E-23 -4.43228335E-07  7.45653846E-03 -4.99578025E-24  4.94637571E-23
 -2.39546024E-07  5.63642736E-03 -7.97498893E-24  3.63482119E-23  5.76822181E-20
  2.80314550E-04  6.19799257E-03  9.25629010E-03  2.88257769E-24 -4.65537323E-24
 -4.91520490E-03 -2.26850347E-02  5.17607191E-24 -4.99579090E-24 -8.76322302E-03
 -2.01747680E-02  2.84324403E-24 -7.97501141E-24 -4.91165108E-03 -1.48253343E-02
 -2.23063253E-24 -9.71276720E-24  3.55550594E-03  5.33571823E-04  6.71945695E-04
 -8.67359490E-19 -5.67520283E-19 -5.87926402E-03 -1.03623882E-03 -8.67358195E-19
 -8.49004653E-19 -9.26798189E-03 -2.71375920E-03 -1.51788073E-18 -6.72344936E-19
 -6.14868244E-03 -3.04742289E-03 -6.77629139E-20 -3.09916675E-20  6.38056412E-04
  4.73934054E-04 -3.72382986E-25 -4.68954942E-25  4.34501006E-03 -3.18230942E-09
  3.93076329E-24  7.23197214E-25  6.84996428E-03 -7.58978940E-09  6.19638218E-24
  1.89394877E-24  5.50734791E-03  3.77552490E-09  4.07264267E-24  2.12681835E-24
  2.75578965E-04  1.20162945E-08 -4.56282528E-25 -8.13153995E-20  3.50429913E-04
 -4.16533501E-25 -5.24555243E-25  3.18230942E-09  4.34501006E-03 -1.08412125E-23
  8.08940983E-25  7.58978940E-09  6.84996428E-03 -1.70918993E-23  2.11849836E-24
 -3.77552490E-09  5.50734791E-03 -1.47588161E-23  2.37896588E-24 -1.20162945E-08
  2.75578965E-04 -1.47678628E-24 -3.09299668E-20  6.58121956E-20  3.50429913E-04
  5.42101086E-20  1.35525272E-19 -5.63381280E-03  7.06897627E-07 -1.30104261E-18
 -2.16840434E-19 -8.93042591E-03  1.11817331E-06 -8.67361738E-19 -6.50521303E-19
 -6.74820165E-03  8.42688410E-07 -8.67361738E-19 -6.50521303E-19 -3.35594060E-04
  5.57380735E-08  1.62630326E-19  1.62630326E-19 -3.29359099E-04  4.07998214E-08
  4.01779025E-04 -5.12489734E-20 -6.68556430E-20  7.06897627E-07  5.63381280E-03
  5.11927934E-19  1.01342386E-19  1.11817331E-06  8.93042591E-03  8.47278383E-19
  2.89259335E-19  8.42688410E-07  6.74820165E-03  6.05459707E-19  2.80869854E-19
  5.57380735E-08  3.35594060E-04 -6.03733125E-20 -8.22819241E-20  4.07998214E-08
  3.29359099E-04  1.37995377E-20  4.01779025E-04  1.66475045E-03  2.76902378E-03
 -1.08420071E-18 -7.49015006E-19 -4.41114216E-03 -7.51781325E-03 -1.73472105E-18
 -9.92498571E-19 -7.23267937E-03 -7.44862513E-03 -1.73472203E-18 -6.88884806E-19
 -4.63657357E-03 -5.55122459E-03 -8.13157083E-20 -3.99504011E-20  1.25311761E-03
  4.14439885E-04 -1.08420442E-19 -4.43333553E-20  1.62630326E-19 -8.39004937E-20
  5.50344311E-04 -1.16183942E-24 -1.93251832E-24  8.12834965E-03 -2.11627681E-08
  2.75608335E-24  5.24672712E-24  1.27966190E-02 -4.14378871E-08  4.54007370E-24
  5.19844057E-24  1.04467000E-02 -5.18604313E-10  2.82134165E-24  3.87423914E-24
  5.23496880E-04  3.28394495E-08 -8.95451102E-25 -1.35525497E-19  7.01377076E-04
  1.71543237E-09 -6.25405146E-04  7.68085257E-08 -1.62630647E-19  1.41617652E-03
 -1.29958887E-24 -2.16164081E-24  2.11627681E-08  8.12834965E-03 -2.54234536E-23
  5.86878772E-24  4.14378871E-08  1.27966190E-02 -3.97997070E-23  5.81477548E-24
  5.18604317E-10  1.04467000E-02 -3.34808570E-23  4.33355769E-24 -3.28394495E-08
  5.23496880E-04 -2.83738689E-24 -6.42253947E-20 -1.71543237E-09  7.01377076E-04
  7.68085257E-08  6.25405146E-04 -7.73673335E-20  2.74582187E-19  1.41617652E-03
  2.71050543E-19  6.50521303E-19 -6.72151162E-03  8.92009038E-07 -6.50521303E-19
 -1.73472348E-18 -1.06350441E-02  1.41706798E-06 -1.30104261E-18 -1.73472348E-18
 -8.20883400E-03  1.03186907E-06 -6.50521303E-19 -1.30104261E-18 -4.09114903E-04
  5.59331181E-08  2.71050543E-19  1.49077799E-19 -4.43174305E-04  4.22640793E-08
  4.89503139E-04  4.55755423E-10  2.71050543E-19 -8.60257614E-04  7.71262121E-08
  6.18210055E-04 -1.56141249E-19 -2.49594769E-19  8.92009038E-07  6.72151162E-03
  3.94433172E-19  6.14945801E-19  1.41706798E-06  1.06350441E-02  6.87708530E-19
  6.95820714E-19  1.03186907E-06  8.20883400E-03  4.23722463E-19  4.99682239E-19
  5.59331181E-08  4.09114903E-04 -1.09453142E-19 -7.83753563E-20  4.22640793E-08
  4.43174305E-04 -4.55755423E-10  4.89503139E-04 -1.14230771E-19  7.71262121E-08
  8.60257614E-04 -8.58747839E-21  6.18210055E-04 -1.87064335E-02 -2.95792264E-02
  3.44833766E-02 -5.97338028E-02  2.47879663E-02  7.64133285E-02  5.46694167E-02
 -9.47009934E-02  4.08534175E-02  6.62218387E-02  4.12386295E-02 -7.14354909E-02
  2.90747000E-02  3.14298677E-02  2.05031104E-03 -3.55200329E-03 -5.96864382E-03
 -2.14158396E-03  1.99502025E-03 -3.45585967E-03 -2.45550824E-03 -4.25231975E-03
 -2.89336327E-03  3.78045804E-03 -6.54865351E-03 -2.98255648E-03 -5.16501181E-03
  8.27814026E-02 -1.62177310E-02 -2.57219982E-02  4.24302162E-02 -7.34996550E-02
  3.06802739E-02  6.62690027E-02  6.72563828E-02 -1.16504649E-01  4.97593867E-02
  6.01341167E-02  5.08377418E-02 -8.80635498E-02  3.50076399E-02  3.01296870E-02
  2.52810926E-03 -4.37972379E-03 -5.65185110E-03 -2.55055528E-03  2.48517953E-03
 -4.30496265E-03 -3.02753718E-03 -5.24293201E-03 -3.00695547E-03  4.72073973E-03
 -8.17751326E-03 -3.69059522E-03 -6.39118398E-03  9.67527626E-02  1.14710828E-01
  8.44451696E-03  9.91584307E-03  1.94829273E-02 -3.37492639E-02  7.16492609E-03
 -1.63877870E-02  3.07895856E-02 -5.33352434E-02  1.07508953E-02 -1.06035718E-02
  2.40934125E-02 -4.17354146E-02  6.95687032E-03 -2.28340114E-03  1.20243236E-03
 -2.08285873E-03  4.46414547E-04 -5.00264499E-04  1.37986035E-03 -2.39017487E-03
 -1.43844321E-03 -2.49100531E-03 -1.11980440E-04  2.70998742E-03 -4.69419103E-03
 -1.85716264E-03 -3.21620733E-03  3.41964690E-02  4.35497302E-02  2.39587556E-02
 -1.87064335E-02 -2.95792264E-02 -6.89726790E-02  3.42123718E-06  2.47879663E-02
  7.64133285E-02 -1.09348174E-01  5.39305263E-06  4.08534175E-02  6.62218387E-02
 -8.24842647E-02  4.04466583E-06  2.90747000E-02  3.14298677E-02 -4.10128061E-03
  3.80196923E-07 -5.96864382E-03 -2.14158396E-03 -3.99037240E-03  1.91614742E-07
  4.91037105E-03 -3.72641979E-07 -2.89336327E-03 -7.56152932E-03  3.54054782E-07
  5.96430968E-03 -4.63774618E-07 -7.26000469E-03 -1.42313974E-02 -1.82748956E-02
  8.27814026E-02 -1.62177310E-02 -2.57219982E-02 -8.48676765E-02  4.18238110E-06
  3.06802739E-02  6.62690027E-02 -1.34524177E-01  6.58823315E-06  4.97593867E-02
  6.01341167E-02 -1.01684142E-01  4.99907098E-06  3.50076399E-02  3.01296870E-02
 -5.05700669E-03  4.55054578E-07 -5.65185110E-03 -2.55055528E-03 -4.97079678E-03
  2.52719309E-07  6.05428090E-03 -4.58098741E-07 -3.00695547E-03 -9.44230409E-03
  4.76096110E-07  7.38022530E-03 -5.57225187E-07 -1.42314162E-02 -2.21353672E-02
 -2.15263037E-02  9.67527626E-02  1.14710828E-01  8.44451696E-03  9.91584307E-03
 -3.89691835E-02  1.92191217E-06  7.16492609E-03 -1.63877870E-02 -6.15844685E-02
  3.05841017E-06  1.07508953E-02 -1.06035718E-02 -4.81906355E-02  2.19996374E-06
  6.95687032E-03 -2.28340114E-03 -2.40502475E-03  9.23945792E-08  4.46414547E-04
 -5.00264499E-04 -2.75988233E-03  9.33142014E-08  2.87649548E-03 -2.25704089E-07
 -1.11980440E-04 -5.42028239E-03  1.77570178E-07  3.71389858E-03 -2.46361647E-07
 -1.82747625E-02 -2.15259749E-02 -9.94385854E-03  3.41964690E-02  4.35497302E-02
  2.39587556E-02 -1.87064335E-02 -2.95792264E-02  3.44893024E-02  5.97303815E-02
  2.47879663E-02  7.64133285E-02  5.46787577E-02  9.46956003E-02  4.08534175E-02
  6.62218387E-02  4.12456351E-02  7.14314463E-02  2.90747000E-02  3.14298677E-02
  2.05096956E-03  3.55162309E-03 -5.96864382E-03 -2.14158396E-03  1.99535214E-03
  3.45566806E-03 -2.45486281E-03  4.25269239E-03 -2.89336327E-03  3.78107128E-03
  6.54829945E-03 -2.98175320E-03  5.16547558E-03 -7.26000469E-03 -1.42314162E-02
 -1.82747625E-02 -7.26000469E-03 -1.42313974E-02 -1.82748956E-02  8.27814026E-02
 -1.62177310E-02 -2.57219982E-02  4.24374603E-02  7.34954726E-02  3.06802739E-02
  6.62690027E-02  6.72677940E-02  1.16498060E-01  4.97593867E-02  6.01341167E-02
  5.08464004E-02  8.80585507E-02  3.50076399E-02  3.01296870E-02  2.52889744E-03
  4.37926874E-03 -5.65185110E-03 -2.55055528E-03  2.48561725E-03  4.30470993E-03
 -3.02674372E-03  5.24339011E-03 -3.00695547E-03  4.72156435E-03  8.17703716E-03
 -3.68963008E-03  6.39174121E-03 -1.42313974E-02 -2.21353672E-02 -2.15259749E-02
 -1.42314162E-02 -2.21353672E-02 -2.15263037E-02  9.67527626E-02  1.14710828E-01
  8.44451696E-03  9.91584307E-03  1.94862562E-02  3.37473420E-02  7.16492609E-03
 -1.63877870E-02  3.07948829E-02  5.33321850E-02  1.07508953E-02 -1.06035718E-02
  2.40972230E-02  4.17332146E-02  6.95687032E-03 -2.28340114E-03  1.20259239E-03
  2.08276633E-03  4.46414547E-04 -5.00264499E-04  1.38002198E-03  2.39008155E-03
 -1.43805228E-03  2.49123101E-03 -1.11980440E-04  2.71029498E-03  4.69401346E-03
 -1.85673593E-03  3.21645369E-03 -1.82748956E-02 -2.15263037E-02 -9.94385854E-03
 -1.82747625E-02 -2.15259749E-02 -9.94385854E-03  3.41964690E-02  4.35497302E-02
  2.39587556E-02  3.34150425E-03  5.28703368E-03 -9.50871074E-24 -3.73460494E-23
  1.52323223E-02 -1.33025568E-02 -1.68701598E-23 -6.62585965E-23  2.70248745E-02
  1.27155526E-03 -7.51619413E-24 -2.95203160E-23  1.20404426E-02  2.69126272E-02
  5.01805992E-24  1.97087410E-23 -8.03859879E-03 -1.79945978E-03  1.25585366E-24
  1.40475010E-24 -3.25260652E-19  1.50745417E-19 -4.13017852E-03  2.88247631E-24
  3.22422847E-24 -6.50521303E-19  3.83951548E-19  2.57087675E-03  3.07547962E-03
  2.43138007E-03  2.57087675E-03  3.07547962E-03  2.43138007E-03  2.57087675E-03
  3.07547962E-03  2.43138007E-03  6.58455183E-01  5.28703368E-03  8.23097626E-03
 -1.53811588E-23 -6.04104522E-23  2.46395936E-02 -2.07219475E-02 -2.62157912E-23
 -1.02964141E-22  4.19959545E-02  1.75451995E-04 -1.22291142E-23 -4.80305998E-23
  1.95902269E-02  3.90637018E-02  7.22965723E-24  2.83949289E-23 -1.15814316E-02
 -2.84306298E-03  1.98419057E-24  2.21944000E-24 -3.25260652E-19  2.52363164E-19
 -5.21262624E-03  3.63792306E-24  4.06924253E-24 -1.08420217E-18  4.45290767E-19
  4.28719714E-03  5.54408149E-03  3.55141023E-03  4.28719714E-03  5.54408149E-03
  3.55141023E-03  4.28719714E-03  5.54408149E-03  3.55141023E-03  5.59395482E-01
  4.88357017E-01  9.50871074E-24  1.53811587E-23  4.73944046E-04 -1.92374170E-07
  3.98619754E-23 -4.33154943E-23  1.92779544E-03 -1.65723104E-07  6.04143108E-23
 -2.30112640E-23 -8.93006246E-03 -3.86796096E-07  4.27087586E-23 -8.28220647E-24
 -4.97210198E-04 -7.25897539E-07  2.85848272E-24  1.35523650E-19 -2.99572032E-03
 -9.52958008E-09  5.77431882E-04 -7.78427702E-08  4.33680732E-19 -6.81612849E-03
  4.98753095E-08  2.01751912E-03  1.47382170E-07 -2.98083448E-03 -4.47187886E-03
 -8.36815320E-03  5.96230173E-03  8.94538014E-03  1.67359998E-02 -2.98146725E-03
 -4.47350129E-03 -8.36784661E-03  2.48369980E-27 -7.62912147E-26  7.99269807E-02
  3.73460494E-23  6.04104521E-23  1.92374170E-07  4.73944046E-04  1.54948385E-22
 -1.70124284E-22  1.65723104E-07  1.92779544E-03  2.30732710E-22 -9.03781469E-23
  3.86796096E-07 -8.93006246E-03  1.98058299E-22 -3.25287446E-23  7.25897539E-07
 -4.97210198E-04  1.29049482E-23  5.13071202E-20  9.52958008E-09 -2.99572032E-03
 -7.78427702E-08 -5.77431882E-04  1.60009534E-19 -4.98753096E-08 -6.81612849E-03
  1.47382170E-07 -2.01751912E-03  5.16368743E-03  7.74739481E-03  1.44937125E-02
 -3.65332937E-07 -9.36710647E-07  1.77010306E-07 -5.16332210E-03 -7.74645810E-03
 -1.44938895E-02  9.75483311E-27 -2.99638477E-25  1.64520144E-17  7.99269807E-02
 -1.52323223E-02 -2.46395936E-02  3.98606090E-23  1.54948400E-22 -6.38852678E-02
  6.93885422E-02  6.04131335E-23  2.30732723E-22 -9.69013137E-02  3.68625087E-02
  4.27060130E-23  1.98058330E-22 -6.78467183E-02  1.32674811E-02  2.85331430E-24
  1.29050207E-23 -4.54334227E-03  4.22524915E-03 -2.82998238E-24  7.34055446E-24
  8.67361738E-19 -3.66638797E-19  1.08017648E-03 -4.83202414E-25  2.33635512E-23
  2.16840434E-19 -9.77617218E-20 -7.82566516E-03 -1.47209980E-02 -8.63128064E-03
 -7.82566516E-03 -1.47209980E-02 -8.63128064E-03 -7.82566516E-03 -1.47209980E-02
 -8.63128064E-03 -3.97869844E-06  1.22213461E-04 -5.09691914E-23 -4.71580175E-22
  7.65683795E-02 -1.33025568E-02 -2.07219475E-02  4.33154953E-23  1.70124284E-22
 -6.93885422E-02  5.35052624E-02  7.04912952E-23  2.76858923E-22 -1.12922368E-01
  4.03879725E-03  3.52508312E-23  1.38449813E-22 -5.64694851E-02 -9.27055705E-02
 -1.69024893E-23 -6.63855787E-23  2.70766674E-02  7.66906764E-03 -5.35228815E-24
 -5.98686568E-24  2.16840434E-18 -7.04063267E-19  9.98910487E-03 -6.97145600E-24
 -7.79800601E-24  2.16840434E-18 -8.74273565E-19 -1.29205402E-02 -1.77984805E-02
 -8.75797873E-03 -1.29205402E-02 -1.77984805E-02 -8.75797873E-03 -1.29205402E-02
 -1.77984805E-02 -8.75797873E-03 -7.93459439E-02 -1.39489109E-01 -1.60827028E-24
 -6.31658124E-24  2.57634215E-03  4.05774708E-01  1.68701599E-23  2.62157913E-23
  1.92779544E-03 -1.65723104E-07  6.04143106E-23 -7.04912952E-23  4.92445462E-03
 -4.01542179E-08  9.12882690E-23 -3.90010854E-23 -1.27756845E-02 -4.53562243E-07
  6.49005704E-23 -1.58554563E-23 -7.19698489E-04 -1.14783828E-06  5.17581106E-24
  1.08417812E-19 -4.68925672E-03 -9.25408536E-09  8.33306242E-04 -1.03633698E-07
  7.58941494E-19 -1.06952718E-02  8.96246969E-08  3.10222751E-03  2.57497550E-07
 -4.22237217E-03 -6.47126221E-03 -1.29908131E-02  8.44545910E-03  1.29447451E-02
  2.59809901E-02 -4.22308692E-03 -6.47348286E-03 -1.29901770E-02 -2.50039219E-24
 -3.43586691E-24  1.26823562E-01  5.03378562E-08 -7.97410256E-23  4.35484115E-24
  2.01253673E-01  6.62585964E-23  1.02964142E-22  1.65723104E-07  1.92779544E-03
  2.30732710E-22 -2.76858922E-22  4.01542179E-08  4.92445462E-03  3.41818560E-22
 -1.53179145E-22  4.53562243E-07 -1.27756845E-02  2.98275058E-22 -6.22731090E-23
  1.14783828E-06 -7.19698489E-04  2.27558940E-23  8.83650636E-20  9.25408536E-09
 -4.68925672E-03 -1.03633698E-07 -8.33306242E-04  2.95921028E-19 -8.96246969E-08
 -1.06952718E-02  2.57497550E-07 -3.10222751E-03  7.31418845E-03  1.12111191E-02
  2.25000138E-02 -4.12660513E-07 -1.28209637E-06  3.67236635E-07 -7.31377579E-03
 -1.12098370E-02 -2.25003810E-02 -9.82044536E-24 -1.34945799E-23 -5.03378561E-08
  1.26823562E-01 -7.43822002E-22  1.71039089E-23  3.18266312E-17  2.01253673E-01
 -2.70248745E-02 -4.19959545E-02  6.04131333E-23  2.30732724E-22 -9.69013137E-02
  1.12922368E-01  9.12879832E-23  3.41818565E-22 -1.46550551E-01  6.24771336E-02
  6.48973517E-23  2.98275094E-22 -1.03151685E-01  2.53992987E-02  5.16762959E-24
  2.27560065E-23 -8.23897813E-03  6.29571459E-03 -4.20776767E-24  1.17386677E-23
  1.30104261E-18 -5.27516462E-19  1.24058653E-03 -4.41077816E-25  3.70147125E-23
  2.16840434E-19 -1.19404863E-19 -1.03874547E-02 -2.10991546E-02 -1.34087537E-02
 -1.03874547E-02 -2.10991546E-02 -1.34087537E-02 -1.03874547E-02 -2.10991546E-02
 -1.34087537E-02  4.00546218E-03  5.50403036E-03 -7.97406677E-23 -7.43822007E-22
  1.19677491E-01 -6.97616637E-03 -1.25015505E-22 -1.17437169E-21  1.87473037E-01
  1.27155526E-03  1.75451995E-04  2.30112588E-23  9.03781468E-23 -3.68625087E-02
  4.03879725E-03  3.90010749E-23  1.53179136E-22 -6.24771336E-02 -2.15083113E-02
  1.65706954E-23  6.50824530E-23 -2.65451630E-02 -8.11087814E-02 -1.45437315E-23
 -5.71214074E-23  2.32980925E-02  4.88292959E-03 -3.40782590E-24 -3.81186326E-24
  8.67361738E-19 -4.32963099E-19  7.88795605E-03 -5.50505221E-24 -6.15774077E-24
  1.73472348E-18 -6.70516750E-19 -1.15924949E-02 -1.30537867E-02 -3.73257346E-03
 -1.15924949E-02 -1.30537867E-02 -3.73257346E-03 -1.15924949E-02 -1.30537867E-02
 -3.73257346E-03 -9.05491716E-02 -1.31479372E-01  1.32949232E-23  5.22166208E-23
 -2.12975783E-02  3.09925476E-01  2.62765139E-23  1.03202631E-22 -4.20932271E-02
  2.45951728E-01  7.51619334E-24  1.22291127E-23 -8.93006246E-03 -3.86796096E-07
  4.27087598E-23 -3.52508270E-23 -1.27756845E-02 -4.53562243E-07  6.49005729E-23
 -1.65707049E-23 -2.18350792E-02 -6.55720113E-07  4.66103176E-23 -7.65138701E-24
 -1.14816365E-03 -8.38082204E-07  3.06945147E-24  2.71048880E-19 -4.06782651E-03
 -2.21962467E-08  1.35368307E-03 -1.87812295E-07  5.42101000E-19 -9.04672608E-03
  3.61820259E-08  3.19026927E-03  5.41724544E-08 -7.62923392E-03 -1.03407868E-02
 -1.22352289E-02  1.52601659E-02  2.06846597E-02  2.44706420E-02 -7.63093202E-03
 -1.03438729E-02 -1.22354131E-02 -2.09445568E-24 -3.55131059E-24  9.47076747E-02
  2.62560782E-08 -5.42746616E-23  7.75611250E-24  1.50137090E-01 -3.78983671E-09
 -8.50082612E-23  2.08565988E-23  1.13348936E-01  2.95203154E-23  4.80306003E-23
  3.86796096E-07 -8.93006246E-03  1.98058300E-22 -1.38449813E-22  4.53562243E-07
 -1.27756845E-02  2.98275059E-22 -6.50824612E-23  6.55720113E-07 -2.18350792E-02
  2.57197695E-22 -3.00510651E-23  8.38082204E-07 -1.14816365E-03  1.59423656E-23
  1.45507180E-19  2.21962467E-08 -4.06782651E-03 -1.87812295E-07 -1.35368307E-03
  2.81918433E-19 -3.61820259E-08 -9.04672608E-03  5.41724544E-08 -3.19026927E-03
  1.32161816E-02  1.79143316E-02  2.11922508E-02 -9.80398802E-07 -1.78172396E-06
 -1.06378685E-07 -1.32152012E-02 -1.79125499E-02 -2.11921444E-02 -8.22610413E-24
 -1.39479913E-23 -2.62560781E-08  9.47076747E-02 -5.34750734E-22  3.04626127E-23
  3.78983675E-09  1.50137090E-01 -8.43672252E-22  8.19155728E-23  1.65926768E-17
  1.13348936E-01 -1.20404426E-02 -1.95902269E-02  4.27060119E-23  1.98058330E-22
 -6.78467183E-02  5.64694851E-02  6.48973506E-23  2.98275095E-22 -1.03151685E-01
  2.65451630E-02  4.66056611E-23  2.57197747E-22 -7.32748677E-02  1.22569210E-02
  3.06350119E-24  1.59424532E-23 -4.83930571E-03  4.44345880E-03 -2.93977319E-24
  1.09776868E-23  6.50521303E-19 -3.95660585E-19  1.20300666E-03 -4.80458997E-25
  3.11894074E-23  2.16840434E-19 -1.07566663E-19 -1.15859697E-02 -1.85527154E-02
 -8.46672979E-03 -1.15859697E-02 -1.85527154E-02 -8.46672979E-03 -1.15859697E-02
 -1.85527154E-02 -8.46672979E-03  3.35517858E-03  5.68896304E-03 -5.42744749E-23
 -5.34750736E-22  8.09237805E-02 -1.24247765E-02 -8.50082906E-23 -8.43672251E-22
  1.26633545E-01 -3.34108795E-02 -5.86564563E-23 -6.15258075E-22  8.67582637E-02
  2.69126272E-02  3.90637018E-02  8.28212232E-24  3.25287110E-23 -1.32674811E-02
 -9.27055705E-02  1.58553385E-23  6.22731090E-23 -2.53992987E-02 -8.11087814E-02
  7.65128603E-24  3.00510398E-23 -1.22569210E-02 -6.15515327E-02 -9.43703572E-24
 -3.70645344E-23  1.51175012E-02  2.18466239E-03 -1.52469162E-24 -1.70545328E-24
  2.16840434E-19 -2.06879466E-19  5.01362118E-03 -3.49904385E-24 -3.91387656E-24
  8.67361738E-19 -4.79580742E-19 -2.21584383E-02 -2.02711844E-02  2.45623928E-03
 -2.21584383E-02 -2.02711844E-02  2.45623928E-03 -2.21584383E-02 -2.02711844E-02
  2.45623928E-03 -3.75097359E-02 -5.25801062E-02  1.67200478E-23  6.56687366E-23
 -2.67842851E-02  1.17915859E-01  2.91021601E-23  1.14300366E-22 -4.66196455E-02
  1.03117858E-01  1.81225458E-23  7.11772829E-23 -2.90310530E-02  6.53461079E-02
 -5.01806044E-24 -7.22965908E-24 -4.97210198E-04 -7.25897539E-07  2.85847016E-24
  1.69024935E-23 -7.19698489E-04 -1.14783828E-06  5.17578233E-24  1.45437342E-23
 -1.14816365E-03 -8.38082204E-07  3.06945400E-24  9.43703257E-24 -6.01892923E-05
 -8.12770909E-08 -2.18924626E-24  1.35522882E-20 -2.04978163E-04 -2.93743175E-08
  7.10218620E-05 -5.75641496E-08  2.71045597E-20 -4.54835671E-04 -4.70316344E-08
  1.62981224E-04 -5.04271068E-08 -4.01595846E-04 -5.41506880E-04 -6.20588425E-04
  8.04299213E-04  1.08441663E-03  1.24168632E-03 -4.02703368E-04 -5.42909748E-04
 -6.21097895E-04  3.86906981E-24  5.77819866E-24  4.70414187E-03 -2.71431466E-07
  2.88258689E-24 -1.41610335E-23  7.45653846E-03 -4.43228335E-07  5.17608322E-24
 -1.25940103E-23  5.63642736E-03 -2.39546024E-07  2.84325928E-24 -9.25465003E-24
  2.80314550E-04 -1.97087420E-23 -2.83949300E-23  7.25897539E-07 -4.97210198E-04
  1.29049636E-23  6.63855829E-23  1.14783828E-06 -7.19698489E-04  2.27559163E-23
  5.71214087E-23  8.38082204E-07 -1.14816365E-03  1.59423869E-23  3.70645360E-23
  8.12770909E-08 -6.01892923E-05 -8.39516425E-24  6.80590684E-21  2.93743175E-08
 -2.04978163E-04 -5.75641496E-08 -7.10218620E-05  1.69438075E-20  4.70316344E-08
 -4.54835671E-04 -5.04271068E-08 -1.62981224E-04  6.96863265E-04  9.39537321E-04
  1.07547897E-03 -6.39428127E-07 -8.09946057E-07 -2.94142353E-07 -6.96223837E-04
 -9.38727375E-04 -1.07518483E-03  1.51960106E-23  2.26942330E-23  2.71431466E-07
  4.70414187E-03 -4.65537822E-24 -5.56183364E-23  4.43228335E-07  7.45653846E-03
 -4.99581443E-24 -4.94637568E-23  2.39546024E-07  5.63642736E-03 -7.97500816E-24
 -3.63482125E-23  4.86472000E-20  2.80314550E-04  8.03859879E-03  1.15814316E-02
  2.85330779E-24  1.29050366E-23 -4.54334227E-03 -2.70766674E-02  5.16761532E-24
  2.27560412E-23 -8.23897813E-03 -2.32980925E-02  3.06348558E-24  1.59424582E-23
 -4.83930571E-03 -1.51175012E-02 -2.18982476E-24 -8.39515715E-24  3.51131634E-03
  5.97010026E-04 -4.08627982E-25  2.61905980E-25  8.13151629E-20 -4.84043652E-20
  1.23910045E-03 -8.46895374E-25  6.48008059E-25  2.16840434E-19 -1.08926995E-19
 -6.68526819E-03 -6.25051922E-03  6.66363866E-04 -6.68526819E-03 -6.25051922E-03
  6.66363866E-04 -6.68526819E-03 -6.25051922E-03  6.66363866E-04 -6.19799257E-03
 -9.25629010E-03  2.88067180E-24 -4.65536481E-24 -4.91520490E-03  2.26850347E-02
  5.17295854E-24 -4.99577828E-24 -8.76322302E-03  2.01747680E-02  2.84156533E-24
 -7.97500510E-24 -4.91165108E-03  1.48253343E-02 -2.23063227E-24 -9.71276877E-24
  3.55550594E-03 -1.79945978E-03 -2.84306298E-03 -1.08418596E-19 -5.96351746E-20
 -4.22524915E-03  7.66906764E-03 -1.89732975E-19 -7.93719560E-20 -6.29571459E-03
  4.88292959E-03 -2.71048880E-19 -1.48498265E-19 -4.44345880E-03  2.18466239E-03
 -1.69404198E-20 -6.97796041E-21 -5.97010026E-04  2.58043460E-04 -5.42102437E-20
 -2.79188242E-20  4.51750905E-20 -2.98376134E-20 -2.09326529E-05 -1.08420239E-19
 -5.42757494E-20  3.16225634E-20 -1.76720032E-20  7.09800111E-05 -4.69221643E-04
 -6.93810731E-04  7.09800111E-05 -4.69221643E-04 -6.93810731E-04  7.09800111E-05
 -4.69221643E-04 -6.93810731E-04  5.33571823E-04  6.71945695E-04  8.67359490E-19
  5.04310449E-19  5.87926402E-03 -1.03623882E-03  1.30103906E-18  8.79021383E-19
  9.26798189E-03 -2.71375920E-03  1.51788073E-18  5.31049253E-19  6.14868244E-03
 -3.04742289E-03  6.77629140E-20  3.62756972E-20 -6.38056412E-04  4.73934054E-04
  1.25585378E-24  1.98419068E-24  2.99572032E-03  9.52958008E-09  2.82991468E-24
 -5.35228818E-24  4.68925672E-03  9.25408536E-09  4.20770184E-24 -3.40782530E-24
  4.06782651E-03  2.21962467E-08  2.93961549E-24 -1.52468555E-24  2.04978163E-04
  2.93743175E-08  4.08417868E-25 -4.06577166E-20  3.27786109E-04  9.82704811E-10
 -2.44502825E-04  3.09843817E-08 -9.48677115E-20  6.79355357E-04 -1.12383145E-09
 -3.64231819E-04  2.58640827E-08  1.46633629E-03  1.84815234E-03  1.19332626E-03
 -2.93293113E-03 -3.69666746E-03 -2.38676465E-03  1.46659484E-03  1.84851512E-03
  1.19343839E-03 -3.72382872E-25 -4.68954866E-25 -4.34501006E-03 -3.18230942E-09
 -3.93074068E-24  7.23197289E-25 -6.84996428E-03 -7.58978940E-09 -6.19632830E-24
  1.89394846E-24 -5.50734791E-03  3.77552490E-09 -4.07266949E-24  2.12681106E-24
 -2.75578965E-04  1.20162945E-08  4.56195689E-25 -8.13153995E-20  3.50429913E-04
  1.40475029E-24  2.21944025E-24 -9.52958008E-09  2.99572032E-03 -7.34055365E-24
 -5.98686583E-24 -9.25408536E-09  4.68925672E-03 -1.17386666E-23 -3.81186493E-24
 -2.21962467E-08  4.06782651E-03 -1.09776847E-23 -1.70546360E-24 -2.93743175E-08
  2.04978163E-04 -2.61898996E-25 -2.25371871E-20 -9.82704811E-10  3.27786109E-04
  3.09843817E-08  2.44502825E-04 -3.83475595E-20  1.12383145E-09  6.79355357E-04
  2.58640827E-08  3.64231819E-04 -2.54006750E-03 -3.20151266E-03 -2.06703119E-03
  1.49274693E-07  2.09447875E-07  6.47389818E-08  2.53991823E-03  3.20130321E-03
  2.06696645E-03 -4.16533316E-25 -5.24555072E-25  3.18230942E-09 -4.34501006E-03
  1.08412121E-23  8.08940888E-25  7.58978940E-09 -6.84996428E-03  1.70918987E-23
  2.11849923E-24 -3.77552490E-09 -5.50734791E-03  1.47588169E-23  2.37897924E-24
 -1.20162945E-08 -2.75578965E-04  1.47679387E-24 -3.10887855E-20  6.08913678E-20
  3.50429913E-04 -3.25260652E-19 -3.25260652E-19 -5.77431882E-04 -7.78427702E-08
 -8.67361738E-19  1.30104261E-18 -8.33306242E-04 -1.03633698E-07 -1.30104261E-18
  1.08420217E-18 -1.35368307E-03 -1.87812295E-07 -8.67361738E-19  5.42101086E-19
 -7.10218620E-05 -5.75641496E-08 -1.08420217E-19  5.42101086E-20 -2.44502825E-04
 -3.09843817E-08  8.37853111E-05 -2.08403280E-08  3.64224167E-20 -5.42880100E-04
 -6.40516867E-08  1.93670988E-04 -2.00716876E-08 -4.73695294E-04 -6.39562943E-04
 -7.38970516E-04  9.47674437E-04  1.27955902E-03  1.47825973E-03 -4.73979142E-04
 -6.39996075E-04 -7.39289215E-04  1.08420217E-19  8.13151629E-20  5.63381280E-03
  7.06897627E-07  1.08420217E-18 -1.62630326E-19  8.93042591E-03  1.11817331E-06
  8.67361738E-19 -5.42101086E-19  6.74820165E-03  8.42688410E-07  1.51788304E-18
 -6.50521303E-19  3.35594060E-04  5.57380735E-08 -1.08420217E-19  1.35525272E-19
 -3.29359099E-04 -4.07998214E-08  4.01779025E-04  1.50745417E-19  2.52363164E-19
 -7.78427702E-08  5.77431882E-04  3.87504277E-19 -6.62332306E-19 -1.03633698E-07
  8.33306242E-04  5.69247423E-19 -4.74694060E-19 -1.87812295E-07  1.35368307E-03
  4.37391546E-19 -2.17312206E-19 -5.75641496E-08  7.10218620E-05  5.88371055E-20
 -3.37628511E-20 -3.09843817E-08  2.44502825E-04  2.08403280E-08  8.37853111E-05
 -1.82585430E-20 -6.40516867E-08  5.42880100E-04  2.00716876E-08  1.93670988E-04
 -8.20792076E-04 -1.10825565E-03 -1.28030248E-03  1.63879639E-07  2.50068648E-07
  1.84001308E-07  8.20628197E-04  1.10800558E-03  1.28011848E-03 -5.12489734E-20
 -6.16392729E-20  7.06897627E-07 -5.63381280E-03 -5.11927934E-19  9.61260161E-20
  1.11817331E-06 -8.93042591E-03 -7.63816461E-19  2.68393855E-19  8.42688410E-07
 -6.74820165E-03 -6.47190669E-19  2.80869854E-19  5.57380735E-08 -3.35594060E-04
  6.03733125E-20 -7.53631894E-20 -4.07998214E-08  3.29359099E-04  4.27208264E-21
  4.01779025E-04 -4.13017852E-03 -5.21262624E-03 -4.33680732E-19 -1.65594657E-19
 -1.08017648E-03  9.98910487E-03 -5.42101060E-19 -3.09605904E-19 -1.24058653E-03
  7.88795605E-03 -5.42101000E-19 -3.42219900E-19 -1.20300666E-03  5.01362118E-03
 -2.71045593E-20 -1.55690334E-20 -1.23910045E-03 -2.09326529E-05 -9.48677115E-20
 -3.58412022E-20  3.83988269E-20 -1.56380064E-20 -3.29529568E-04 -1.08420128E-19
 -8.26408913E-20  9.03501810E-21 -3.05312631E-21  1.56401457E-03  1.18479928E-03
 -5.09078901E-04  1.56401457E-03  1.18479928E-03 -5.09078901E-04  1.56401457E-03
  1.18479928E-03 -5.09078901E-04  1.66475045E-03  2.76902378E-03  1.73472201E-18
  6.20954213E-19  4.41114216E-03 -7.51781325E-03  8.67359314E-19  1.05570840E-18
  7.23267937E-03 -7.44862513E-03  1.30104116E-18  8.88678702E-19  4.63657357E-03
 -5.55122459E-03  6.77631814E-20  3.28201042E-20 -1.25311761E-03  4.14439885E-04
 -1.08420442E-19 -4.09783107E-20  1.71665344E-19 -7.75952295E-20  5.50344311E-04
  2.88247635E-24  3.63792309E-24  6.81612849E-03 -4.98753095E-08  4.83556867E-25
 -6.97145638E-24  1.06952718E-02 -8.96246969E-08  4.41714401E-25 -5.50505145E-24
  9.04672608E-03 -3.61820259E-08  4.80716003E-25 -3.49903170E-24  4.54835671E-04
  4.70316344E-08  8.46558342E-25 -1.08420239E-19  6.79355357E-04 -1.12383145E-09
 -5.42880100E-04  6.40516867E-08 -1.08420128E-19  1.39475980E-03 -7.15056747E-09
 -7.83483890E-04  5.66589102E-08  3.26633198E-03  4.10125538E-03  2.52860285E-03
 -6.53313878E-03 -8.20317850E-03 -5.05741525E-03  3.26680680E-03  4.10192311E-03
  2.52881240E-03 -1.16183935E-24 -1.93251820E-24 -8.12834965E-03 -2.11627681E-08
 -2.75593317E-24  5.24672659E-24 -1.27966190E-02 -4.14378871E-08 -4.53977971E-24
  5.19843966E-24 -1.04467000E-02 -5.18604317E-10 -2.82133808E-24  3.87422699E-24
 -5.23496880E-04  3.28394495E-08  8.95216090E-25 -1.35525497E-19  7.01377076E-04
 -1.71543237E-09 -6.25405146E-04 -7.68085257E-08 -1.62630647E-19  1.41617652E-03
  3.22422789E-24  4.06924176E-24  4.98753096E-08  6.81612849E-03 -2.33635560E-23
 -7.79800449E-24  8.96246969E-08  1.06952718E-02 -3.70147203E-23 -6.15774183E-24
  3.61820259E-08  9.04672608E-03 -3.11894105E-23 -3.91389843E-24 -4.70316344E-08
  4.54835671E-04 -6.47990448E-25 -5.41434005E-20  1.12383145E-09  6.79355357E-04
  6.40516867E-08  5.42880100E-04 -5.94169685E-20  7.15056747E-09  1.39475980E-03
  5.66589102E-08  7.83483890E-04 -5.65800122E-03 -7.10435373E-03 -4.37991058E-03
  2.74138447E-07  3.85514491E-07  1.20981831E-07  5.65772708E-03  7.10396821E-03
  4.37978959E-03 -1.29958948E-24 -2.16164172E-24  2.11627681E-08 -8.12834965E-03
  2.54234527E-23  5.86878931E-24  4.14378871E-08 -1.27966190E-02  3.97997049E-23
  5.81477837E-24  5.18604313E-10 -1.04467000E-02  3.34808585E-23  4.33357712E-24
 -3.28394495E-08 -5.23496880E-04  2.83740268E-24 -5.38393149E-20  1.71543237E-09
  7.01377076E-04 -7.68085257E-08  6.25405146E-04 -9.82552983E-20  2.70246611E-19
  1.41617652E-03 -8.67361738E-19 -1.08420217E-18 -2.01751912E-03  1.47382170E-07
 -2.71050543E-19  2.16840434E-18 -3.10222751E-03  2.57497550E-07 -2.71050543E-19
  1.73472348E-18 -3.19026927E-03  5.41724544E-08 -1.62630326E-19  1.08420217E-18
 -1.62981224E-04 -5.04271068E-08 -2.16840434E-19  3.30342849E-20 -3.64231819E-04
 -2.58640827E-08  1.93670988E-04 -2.00716876E-08  0.00000000E+00 -7.83483890E-04
 -5.66589102E-08  3.42994986E-04 -1.98521254E-08 -1.13884779E-03 -1.46902837E-03
 -1.20642863E-03  2.27778063E-03  2.93826250E-03  2.41310843E-03 -1.13893284E-03
 -1.46923413E-03 -1.20667980E-03  2.16840434E-19  4.33680869E-19  6.72151162E-03
  8.92009038E-07  6.50521303E-19 -1.30104261E-18  1.06350441E-02  1.41706798E-06
  1.30104261E-18 -1.73472348E-18  8.20883400E-03  1.03186907E-06  6.50521303E-19
 -1.30104261E-18  4.09114903E-04  5.59331181E-08 -2.71050543E-19  1.49077799E-19
 -4.43174305E-04 -4.22640793E-08  4.89503139E-04 -4.55755423E-10  2.16840434E-19
 -8.60257614E-04 -7.71262121E-08  6.18210055E-04  4.04817028E-19  5.28752689E-19
  1.47382170E-07  2.01751912E-03  1.02978092E-19 -8.74273565E-19  2.57497550E-07
  3.10222751E-03  1.19404863E-19 -7.53978672E-19  5.41724544E-08  3.19026927E-03
  8.67011824E-20 -4.37849781E-19 -5.04271068E-08  1.62981224E-04  9.84942543E-20
 -1.62237653E-20 -2.58640827E-08  3.64231819E-04  2.00716876E-08  1.93670988E-04
 -7.52351701E-21 -5.66589102E-08  7.83483890E-04  1.98521254E-08  3.42994986E-04
 -1.97264044E-03 -2.54466937E-03 -2.08988570E-03  4.91034071E-08  1.18799676E-07
  1.45010311E-07  1.97259133E-03  2.54455057E-03  2.08974069E-03 -1.45708508E-19
 -2.49594769E-19  8.92009038E-07 -6.72151162E-03 -3.73567691E-19  6.98407724E-19
  1.41706798E-06 -1.06350441E-02 -6.87708530E-19  6.54089753E-19  1.03186907E-06
 -8.20883400E-03 -4.23722463E-19  5.41413200E-19  5.59331181E-08 -4.09114903E-04
  1.30318622E-19 -9.18141766E-20 -4.22640793E-08  4.43174305E-04  4.55755423E-10
  4.89503139E-04 -1.05308587E-19 -7.71262121E-08  8.60257614E-04  1.46149614E-20
  6.18210055E-04  2.57087675E-03  4.28719714E-03  2.98146725E-03 -5.16332210E-03
  7.82566516E-03 -1.29205402E-02  4.22308692E-03 -7.31377579E-03  1.03874547E-02
 -1.15924949E-02  7.63093202E-03 -1.32152012E-02  1.15859697E-02 -2.21584383E-02
  4.02703368E-04 -6.96223837E-04  6.68526819E-03  7.09800111E-05  1.46659484E-03
 -2.53991823E-03 -4.73979142E-04 -8.20628197E-04  1.56401457E-03  3.26680680E-03
 -5.65772708E-03 -1.13893284E-03 -1.97259133E-03  1.07134734E-02  1.59082887E-02
  1.87394506E-02 -5.25677755E-03 -5.82670481E-03 -7.59627316E-03 -5.25498637E-03
 -5.82365616E-03 -7.59484022E-03 -1.87064335E-02 -2.95792264E-02 -3.44893024E-02
  5.97303815E-02 -2.47879663E-02  7.64133285E-02 -5.46787577E-02  9.46956003E-02
 -4.08534175E-02  6.62218387E-02 -4.12456351E-02  7.14314463E-02 -2.90747000E-02
  3.14298677E-02 -2.05096956E-03  3.55162309E-03  5.96864382E-03 -2.14158396E-03
  1.99535214E-03 -3.45566806E-03 -2.45486281E-03 -4.25269239E-03 -2.89336327E-03
  3.78107128E-03 -6.54829945E-03 -2.98175320E-03 -5.16547558E-03  8.27814026E-02
  3.07547962E-03  5.54408149E-03  4.47350129E-03 -7.74645810E-03  1.47209980E-02
 -1.77984805E-02  6.47348286E-03 -1.12098370E-02  2.10991546E-02 -1.30537867E-02
  1.03438729E-02 -1.79125499E-02  1.85527154E-02 -2.02711844E-02  5.42909748E-04
 -9.38727375E-04  6.25051922E-03 -4.69221643E-04  1.84851512E-03 -3.20130321E-03
 -6.39996075E-04 -1.10800558E-03  1.18479928E-03  4.10192311E-03 -7.10396821E-03
 -1.46923413E-03 -2.54455057E-03  1.59082887E-02  2.29359527E-02  2.44010206E-02
 -5.82670481E-03 -6.37291997E-03 -9.18389580E-03 -5.82365616E-03 -6.36813097E-03
 -9.18166179E-03 -1.62177310E-02 -2.57219982E-02 -4.24374603E-02  7.34954726E-02
 -3.06802739E-02  6.62690027E-02 -6.72677940E-02  1.16498060E-01 -4.97593867E-02
  6.01341167E-02 -5.08464004E-02  8.80585507E-02 -3.50076399E-02  3.01296870E-02
 -2.52889744E-03  4.37926874E-03  5.65185110E-03 -2.55055528E-03  2.48561725E-03
 -4.30470993E-03 -3.02674372E-03 -5.24339011E-03 -3.00695547E-03  4.72156435E-03
 -8.17703716E-03 -3.68963008E-03 -6.39174121E-03  9.67527626E-02  1.14710828E-01
  2.43138007E-03  3.55141023E-03  8.36784661E-03 -1.44938895E-02  8.63128064E-03
 -8.75797873E-03  1.29901770E-02 -2.25003810E-02  1.34087537E-02 -3.73257346E-03
  1.22354131E-02 -2.11921444E-02  8.46672979E-03  2.45623928E-03  6.21097895E-04
 -1.07518483E-03 -6.66363866E-04 -6.93810731E-04  1.19343839E-03 -2.06696645E-03
 -7.39289215E-04 -1.28011848E-03 -5.09078901E-04  2.52881240E-03 -4.37978959E-03
 -1.20667980E-03 -2.08974069E-03  1.87394506E-02  2.44010206E-02  1.76127075E-02
 -7.59627316E-03 -9.18389580E-03 -7.06825245E-03 -7.59484022E-03 -9.18166179E-03
 -7.06720343E-03  8.44451696E-03  9.91584307E-03 -1.94862562E-02  3.37473420E-02
 -7.16492609E-03 -1.63877870E-02 -3.07948829E-02  5.33321850E-02 -1.07508953E-02
 -1.06035718E-02 -2.40972230E-02  4.17332146E-02 -6.95687032E-03 -2.28340114E-03
 -1.20259239E-03  2.08276633E-03 -4.46414547E-04 -5.00264499E-04  1.38002198E-03
 -2.39008155E-03 -1.43805228E-03 -2.49123101E-03 -1.11980440E-04  2.71029498E-03
 -4.69401346E-03 -1.85673593E-03 -3.21645369E-03  3.41964690E-02  4.35497302E-02
  2.39587556E-02  2.57087675E-03  4.28719714E-03 -5.96230173E-03 -3.65332937E-07
  7.82566516E-03 -1.29205402E-02 -8.44545910E-03 -4.12660513E-07  1.03874547E-02
 -1.15924949E-02 -1.52601659E-02 -9.80398802E-07  1.15859697E-02 -2.21584383E-02
 -8.04299213E-04 -6.39428127E-07  6.68526819E-03  7.09800111E-05 -2.93293113E-03
 -1.49274693E-07  9.47674437E-04 -1.63879639E-07  1.56401457E-03 -6.53313878E-03
 -2.74138447E-07  2.27778063E-03 -4.91034071E-08 -5.25498637E-03 -5.82365616E-03
 -7.59484022E-03  1.07134734E-02  1.59082887E-02  1.87394506E-02 -5.25677755E-03
 -5.82670481E-03 -7.59627316E-03 -1.87064335E-02 -2.95792264E-02  6.89726790E-02
  3.42123718E-06 -2.47879663E-02  7.64133285E-02  1.09348174E-01  5.39305263E-06
 -4.08534175E-02  6.62218387E-02  8.24842647E-02  4.04466583E-06 -2.90747000E-02
  3.14298677E-02  4.10128061E-03  3.80196923E-07  5.96864382E-03 -2.14158396E-03
 -3.99037240E-03 -1.91614742E-07  4.91037105E-03  3.72641979E-07 -2.89336327E-03
 -7.56152932E-03 -3.54054782E-07  5.96430968E-03  4.63774618E-07 -7.26000469E-03
 -1.42314162E-02 -1.82747625E-02  8.27814026E-02  3.07547962E-03  5.54408149E-03
 -8.94538014E-03 -9.36710647E-07  1.47209980E-02 -1.77984805E-02 -1.29447451E-02
 -1.28209637E-06  2.10991546E-02 -1.30537867E-02 -2.06846597E-02 -1.78172396E-06
  1.85527154E-02 -2.02711844E-02 -1.08441663E-03 -8.09946057E-07  6.25051922E-03
 -4.69221643E-04 -3.69666746E-03 -2.09447875E-07  1.27955902E-03 -2.50068648E-07
  1.18479928E-03 -8.20317850E-03 -3.85514491E-07  2.93826250E-03 -1.18799676E-07
 -5.82365616E-03 -6.36813097E-03 -9.18166179E-03  1.59082887E-02  2.29359527E-02
  2.44010206E-02 -5.82670481E-03 -6.37291997E-03 -9.18389580E-03 -1.62177310E-02
 -2.57219982E-02  8.48676765E-02  4.18238110E-06 -3.06802739E-02  6.62690027E-02
  1.34524177E-01  6.58823315E-06 -4.97593867E-02  6.01341167E-02  1.01684142E-01
  4.99907098E-06 -3.50076399E-02  3.01296870E-02  5.05700669E-03  4.55054578E-07
  5.65185110E-03 -2.55055528E-03 -4.97079678E-03 -2.52719309E-07  6.05428090E-03
  4.58098741E-07 -3.00695547E-03 -9.44230409E-03 -4.76096110E-07  7.38022530E-03
  5.57225187E-07 -1.42313974E-02 -2.21353672E-02 -2.15259749E-02  9.67527626E-02
  1.14710828E-01  2.43138007E-03  3.55141023E-03 -1.67359998E-02  1.77010306E-07
  8.63128064E-03 -8.75797873E-03 -2.59809901E-02  3.67236635E-07  1.34087537E-02
 -3.73257346E-03 -2.44706420E-02 -1.06378685E-07  8.46672979E-03  2.45623928E-03
 -1.24168632E-03 -2.94142353E-07 -6.66363866E-04 -6.93810731E-04 -2.38676465E-03
 -6.47389818E-08  1.47825973E-03 -1.84001308E-07 -5.09078901E-04 -5.05741525E-03
 -1.20981831E-07  2.41310843E-03 -1.45010311E-07 -7.59484022E-03 -9.18166179E-03
 -7.06720343E-03  1.87394506E-02  2.44010206E-02  1.76127075E-02 -7.59627316E-03
 -9.18389580E-03 -7.06825245E-03  8.44451696E-03  9.91584307E-03  3.89691835E-02
  1.92191217E-06 -7.16492609E-03 -1.63877870E-02  6.15844685E-02  3.05841017E-06
 -1.07508953E-02 -1.06035718E-02  4.81906355E-02  2.19996374E-06 -6.95687032E-03
 -2.28340114E-03  2.40502475E-03  9.23945792E-08 -4.46414547E-04 -5.00264499E-04
 -2.75988233E-03 -9.33142014E-08  2.87649548E-03  2.25704089E-07 -1.11980440E-04
 -5.42028239E-03 -1.77570178E-07  3.71389858E-03  2.46361647E-07 -1.82748956E-02
 -2.15263037E-02 -9.94385854E-03  3.41964690E-02  4.35497302E-02  2.39587556E-02
  2.57087675E-03  4.28719714E-03  2.98083448E-03  5.16368743E-03  7.82566516E-03
 -1.29205402E-02  4.22237217E-03  7.31418845E-03  1.03874547E-02 -1.15924949E-02
  7.62923392E-03  1.32161816E-02  1.15859697E-02 -2.21584383E-02  4.01595846E-04
  6.96863265E-04  6.68526819E-03  7.09800111E-05  1.46633629E-03  2.54006750E-03
 -4.73695294E-04  8.20792076E-04  1.56401457E-03  3.26633198E-03  5.65800122E-03
 -1.13884779E-03  1.97264044E-03 -5.25677755E-03 -5.82670481E-03 -7.59627316E-03
 -5.25498637E-03 -5.82365616E-03 -7.59484022E-03  1.07134734E-02  1.59082887E-02
  1.87394506E-02 -1.87064335E-02 -2.95792264E-02 -3.44833766E-02 -5.97338028E-02
 -2.47879663E-02  7.64133285E-02 -5.46694167E-02 -9.47009934E-02 -4.08534175E-02
  6.62218387E-02 -4.12386295E-02 -7.14354909E-02 -2.90747000E-02  3.14298677E-02
 -2.05031104E-03 -3.55200329E-03  5.96864382E-03 -2.14158396E-03  1.99502025E-03
  3.45585967E-03 -2.45550824E-03  4.25231975E-03 -2.89336327E-03  3.78045804E-03
  6.54865351E-03 -2.98255648E-03  5.16501181E-03 -7.26000469E-03 -1.42313974E-02
 -1.82748956E-02 -7.26000469E-03 -1.42314162E-02 -1.82747625E-02  8.27814026E-02
  3.07547962E-03  5.54408149E-03  4.47187886E-03  7.74739481E-03  1.47209980E-02
 -1.77984805E-02  6.47126221E-03  1.12111191E-02  2.10991546E-02 -1.30537867E-02
  1.03407868E-02  1.79143316E-02  1.85527154E-02 -2.02711844E-02  5.41506880E-04
  9.39537321E-04  6.25051922E-03 -4.69221643E-04  1.84815234E-03  3.20151266E-03
 -6.39562943E-04  1.10825565E-03  1.18479928E-03  4.10125538E-03  7.10435373E-03
 -1.46902837E-03  2.54466937E-03 -5.82670481E-03 -6.37291997E-03 -9.18389580E-03
 -5.82365616E-03 -6.36813097E-03 -9.18166179E-03  1.59082887E-02  2.29359527E-02
  2.44010206E-02 -1.62177310E-02 -2.57219982E-02 -4.24302162E-02 -7.34996550E-02
 -3.06802739E-02  6.62690027E-02 -6.72563828E-02 -1.16504649E-01 -4.97593867E-02
  6.01341167E-02 -5.08377418E-02 -8.80635498E-02 -3.50076399E-02  3.01296870E-02
 -2.52810926E-03 -4.37972379E-03  5.65185110E-03 -2.55055528E-03  2.48517953E-03
  4.30496265E-03 -3.02753718E-03  5.24293201E-03 -3.00695547E-03  4.72073973E-03
  8.17751326E-03 -3.69059522E-03  6.39118398E-03 -1.42314162E-02 -2.21353672E-02
 -2.15263037E-02 -1.42313974E-02 -2.21353672E-02 -2.15259749E-02  9.67527626E-02
  1.14710828E-01  2.43138007E-03  3.55141023E-03  8.36815320E-03  1.44937125E-02
  8.63128064E-03 -8.75797873E-03  1.29908131E-02  2.25000138E-02  1.34087537E-02
 -3.73257346E-03  1.22352289E-02  2.11922508E-02  8.46672979E-03  2.45623928E-03
  6.20588425E-04  1.07547897E-03 -6.66363866E-04 -6.93810731E-04  1.19332626E-03
  2.06703119E-03 -7.38970516E-04  1.28030248E-03 -5.09078901E-04  2.52860285E-03
  4.37991058E-03 -1.20642863E-03  2.08988570E-03 -7.59627316E-03 -9.18389580E-03
 -7.06825245E-03 -7.59484022E-03 -9.18166179E-03 -7.06720343E-03  1.87394506E-02
  2.44010206E-02  1.76127075E-02  8.44451696E-03  9.91584307E-03 -1.94829273E-02
 -3.37492639E-02 -7.16492609E-03 -1.63877870E-02 -3.07895856E-02 -5.33352434E-02
 -1.07508953E-02 -1.06035718E-02 -2.40934125E-02 -4.17354146E-02 -6.95687032E-03
 -2.28340114E-03 -1.20243236E-03 -2.08285873E-03 -4.46414547E-04 -5.00264499E-04
  1.37986035E-03  2.39017487E-03 -1.43844321E-03  2.49100531E-03 -1.11980440E-04
  2.70998742E-03  4.69419103E-03 -1.85716264E-03  3.21620733E-03 -1.82747625E-02
 -2.15259749E-02 -9.94385854E-03 -1.82748956E-02 -2.15263037E-02 -9.94385854E-03
  3.41964690E-02  4.35497302E-02  2.39587556E-02
Grdnt Energy                               R     -7.981770993655908E+01
Grdnt NVar                                 I               28
Grdnt IGetFC                               I                4
Internal Forces                            R   N=          28
 -9.14804211E-05 -9.14804211E-05 -9.14804211E-05 -1.12091295E-04 -9.14804211E-05
 -9.14804211E-05 -9.14804211E-05  4.75438335E-06  4.75438334E-06 -4.44356266E-06
  4.75438335E-06 -4.44356267E-06 -4.44356266E-06 -4.44356266E-06 -4.44356266E-06
 -4.44356266E-06  4.75438335E-06  4.75438335E-06  4.75438335E-06  4.26407425E-09
  4.26407407E-09  4.26407473E-09  4.26407490E-09  4.26407472E-09  4.26407538E-09
  4.26407513E-09  4.26407495E-09  4.26407560E-09
Internal Force Constants                   R   N=         406
  3.36714242E-01  2.78474904E-03  3.36721930E-01  2.78876491E-03  2.78475095E-03
  3.36714235E-01  5.57748187E-03  5.56855144E-03  5.57748902E-03  2.96109987E-01
 -1.00215303E-03  6.86435610E-04  6.81612395E-04  5.57748902E-03  3.36714235E-01
  6.82818043E-04 -1.00512798E-03  6.86435610E-04  5.56855144E-03  2.78475095E-03
  3.36721930E-01  6.85229176E-04  6.82818043E-04 -1.00215303E-03  5.57748186E-03
  2.78876491E-03  2.78474904E-03  3.36714242E-01  5.42922668E-03  5.43265222E-03
  4.30762246E-04 -1.62389611E-02 -1.24626066E-03 -1.24245114E-03  1.92946002E-04
  5.26029888E-02  5.43413737E-03  4.29852928E-04  5.42953404E-03 -1.62397387E-02
 -1.24387832E-03  1.92781224E-04 -1.24625957E-03  9.10329334E-03  5.26014972E-02
  9.20111394E-04 -5.73505455E-03 -5.73951699E-03  1.51766819E-02  3.99042033E-03
 -9.23554910E-04 -9.18474944E-04 -4.05319558E-02 -4.05135432E-02  1.03608789E-01
  4.30760709E-04  5.42804696E-03  5.43383361E-03 -1.62389649E-02  1.92945139E-04
 -1.24483596E-03 -1.24387390E-03  9.10382065E-03  9.10329366E-03  1.48686328E-02
  5.26029890E-02 -5.73350801E-03  9.14828881E-04 -5.73636720E-03  1.51793335E-02
 -9.20419359E-04  3.98709687E-03 -9.24934061E-04 -4.05175260E-02  1.48655629E-02
 -2.08786819E-02 -4.05349640E-02  1.03617283E-01 -5.74236791E-03 -5.73219977E-03
  9.20114863E-04  1.51767025E-02 -9.22987569E-04 -9.19040800E-04  3.99041645E-03
  1.48686323E-02 -4.05309826E-02 -2.08795932E-02 -4.05145188E-02 -2.08786843E-02
  1.03608794E-01  3.99041645E-03 -9.19040800E-04 -9.22987569E-04  1.51767025E-02
  9.20114862E-04 -5.73219977E-03 -5.74236791E-03 -3.83563780E-03 -3.84628930E-03
  1.72631418E-02  4.56527545E-03 -7.18269557E-03 -7.16754754E-03  1.03608794E-01
 -9.24934061E-04  3.98709687E-03 -9.20419359E-04  1.51793335E-02 -5.73636720E-03
  9.14828881E-04 -5.73350801E-03 -3.84107938E-03  4.56896691E-03 -7.16903837E-03
 -3.83110419E-03  1.72520759E-02 -7.18269557E-03 -2.08786843E-02  1.03617283E-01
 -9.18474944E-04 -9.23554910E-04  3.99042033E-03  1.51766819E-02 -5.73951699E-03
 -5.73505455E-03  9.20111393E-04  4.56527445E-03 -3.83631615E-03 -7.18120116E-03
 -3.84561379E-03 -7.16903837E-03  1.72631418E-02 -2.08795932E-02 -2.08786819E-02
  1.03608789E-01 -1.24387390E-03 -1.24483596E-03  1.92945139E-04 -1.62389649E-02
  5.43383361E-03  5.42804696E-03  4.30760709E-04  2.94917664E-03  1.91728843E-04
 -3.84561379E-03  1.88177893E-04 -3.83110419E-03  4.56527545E-03 -4.05145188E-02
 -4.05349640E-02  1.48686328E-02  5.26029890E-02 -1.24625957E-03  1.92781224E-04
 -1.24387832E-03 -1.62397387E-02  5.42953404E-03  4.29852928E-04  5.43413737E-03
  1.88889261E-04  2.95081488E-03 -3.83631615E-03  1.91728843E-04  4.56896691E-03
 -3.84628930E-03 -4.05309826E-02  1.48655629E-02 -4.05135432E-02  9.10329366E-03
  5.26014972E-02  1.92946002E-04 -1.24245114E-03 -1.24626066E-03 -1.62389611E-02
  4.30762246E-04  5.43265222E-03  5.42922668E-03  1.91017681E-04  1.88889261E-04
  4.56527445E-03  2.94917664E-03 -3.84107938E-03 -3.83563780E-03  1.48686323E-02
 -4.05175260E-02 -4.05319558E-02  9.10382065E-03  9.10329334E-03  5.26029888E-02
  2.12816925E-06  3.12438574E-03 -3.12416885E-03 -2.51832036E-06 -3.36330497E-06
 -3.12174686E-03  3.12680648E-03  6.61753835E-03 -6.60995338E-03 -9.84242854E-06
 -3.34086109E-06  2.77589681E-03 -2.77002102E-03 -7.48937626E-06 -2.77444416E-03
  2.77146854E-03 -6.60737865E-03  6.62011315E-03 -1.53749325E-06  1.39793831E-02
  5.05799587E-04  3.62858463E-03 -4.13287176E-03 -1.58597551E-06  3.63004514E-03
  5.03542114E-04 -4.13239646E-03  5.14539987E-03 -5.87450977E-03  1.96688556E-03
  7.35406287E-04  4.75425683E-03 -6.72702715E-03  4.75347971E-03  1.96630110E-03
 -6.72891309E-03  5.14715177E-03  7.36178635E-04 -5.87355933E-03  3.68464409E-03
  1.48013965E-02 -5.02903640E-04  4.13274522E-03 -3.62916147E-03 -6.62762375E-07
 -3.62916147E-03  4.13274522E-03 -5.02903640E-04  5.88097147E-03 -5.13589240E-03
 -1.99011939E-03 -7.36732737E-04  6.72922293E-03 -4.74690422E-03 -4.74690422E-03
  6.72922293E-03 -1.99011939E-03 -7.36732737E-04 -5.13589240E-03  5.88097147E-03
  3.68066466E-03  4.09236660E-03  1.47948294E-02 -3.62736465E-03 -5.04817372E-04
  4.13503776E-03 -3.44153344E-06 -5.07073596E-04 -3.62590745E-03  4.13550970E-03
 -5.13699245E-03 -7.37882345E-04 -4.74863613E-03  5.88054364E-03 -1.98702502E-03
  6.73036290E-03 -1.98761231E-03 -4.74941026E-03  6.72847350E-03 -5.13523963E-03
  5.88149579E-03 -7.37109086E-04  3.68252712E-03 -7.43080683E-03 -7.02179815E-03
  1.47971639E-02 -3.12369323E-03 -6.18482827E-07  3.12633485E-03 -2.50918860E-06
  3.12633485E-03 -6.18482829E-07 -3.12369323E-03 -6.60913093E-03 -2.43873303E-06
 -2.77190814E-03  6.61929079E-03 -8.66499337E-06  2.77335677E-03  2.77335677E-03
 -8.66499337E-06 -2.77190814E-03  6.61929079E-03 -2.43873302E-06 -6.60913093E-03
 -6.61221189E-03  3.68594559E-03 -6.61009620E-03  3.68382990E-03  1.39819874E-02
 -4.13239646E-03  5.03542114E-04  3.63004514E-03 -1.58597546E-06 -4.13287176E-03
  3.62858463E-03  5.05799587E-04 -5.87355933E-03  7.36178635E-04 -6.72891309E-03
  5.14715177E-03  1.96630110E-03  4.75347971E-03 -6.72702715E-03  4.75425683E-03
  1.96688556E-03  7.35406287E-04 -5.87450977E-03  5.14539987E-03 -6.61619133E-03
 -7.02308432E-03  4.09236660E-03  4.09283859E-03  3.68594559E-03  1.48013965E-02
  3.63183829E-03 -4.13010634E-03  5.01629315E-04 -4.37387825E-06  5.01629315E-04
 -4.13010634E-03  3.63183828E-03  7.35029391E-04  5.14605217E-03  4.75174551E-03
 -5.87398678E-03 -6.72777028E-03  1.96939381E-03  1.96939381E-03 -6.72777028E-03
  4.75174551E-03 -5.87398678E-03  5.14605217E-03  7.35029391E-04  3.68277823E-03
 -7.02391384E-03 -7.43350010E-03  4.09236449E-03 -6.61432758E-03 -7.02391384E-03
  1.47990566E-02  4.13550970E-03 -3.62590745E-03 -5.07073596E-04 -3.44153340E-06
  4.13503776E-03 -5.04817372E-04 -3.62736465E-03 -7.37109086E-04  5.88149579E-03
  6.72847350E-03 -5.13523963E-03 -4.74941026E-03 -1.98761231E-03  6.73036290E-03
 -1.98702502E-03 -4.74863613E-03  5.88054364E-03 -7.37882345E-04 -5.13699245E-03
 -6.61196078E-03  4.09283859E-03 -7.02179815E-03 -7.02096947E-03  3.68382990E-03
 -7.43080683E-03  4.09236449E-03  1.47971639E-02  3.12680648E-03 -3.12174686E-03
 -3.36330500E-06 -2.51832026E-06 -3.12416885E-03  3.12438574E-03  2.12816925E-06
 -1.53749327E-06  6.62011315E-03  2.77146854E-03 -6.60737865E-03 -2.77444416E-03
 -7.48937627E-06 -2.77002102E-03  2.77589681E-03 -9.84242849E-06 -3.34086111E-06
 -6.60995338E-03  6.61753835E-03 -6.61594022E-03 -6.61619133E-03  3.68066466E-03
 -6.61196078E-03 -6.61221189E-03  3.68464409E-03  3.68277823E-03  3.68252712E-03
  1.39793831E-02
Mulliken Charges                           R   N=           8
 -7.90761210E-01  2.63587070E-01  2.63587070E-01  2.63587070E-01 -7.90761210E-01
  2.63587070E-01  2.63587070E-01  2.63587070E-01
Optimization MaxStp                        I                2
Optimization MaxJob                        I                1
Optimization Job offset                    I                0
Optimization Num results per geometry      I                2
Optimization Num geometry variables        I               24
Optimization Reference Energy              R     -7.900000000000000E+01
Opt point       1 Results for each geome   R   N=           2
 -8.17709937E-01  0.00000000E+00
Opt point       1 Geometries               R   N=          24
 -1.99369851E-17  3.45352869E-17  1.43784962E+00  9.60207395E-01 -1.66332487E+00
  2.19219448E+00 -1.92058529E+00  9.84353579E-05  2.19219448E+00  9.60377890E-01
  1.66322643E+00  2.19219448E+00 -1.67638587E-16 -1.46337846E-17 -1.43784962E+00
 -9.60377890E-01  1.66322643E+00 -2.19219448E+00  1.92058529E+00  9.84353579E-05
 -2.19219448E+00 -9.60207395E-01 -1.66332487E+00 -2.19219448E+00
Opt point       1 Gradient at each geome   R   N=          24
  6.01559411E-16 -1.92840095E-15 -1.13638552E-06  4.17203123E-05 -7.22835769E-05
  3.77425603E-05 -8.34595701E-05  1.09381227E-08  3.77425603E-05  4.17392577E-05
  7.22726388E-05  3.77425603E-05 -2.55612288E-15  3.62268792E-15  1.13638552E-06
 -4.17392577E-05  7.22726388E-05 -3.77425603E-05  8.34595701E-05  1.09381207E-08
 -3.77425603E-05 -4.17203123E-05 -7.22835769E-05 -3.77425603E-05
Optimization Number of geometries          I   N=           1
           1
ONIOM Charges                              I   N=          16
           0           0           0           0           0           0
           0           0           0           0           0           0
           0           0           0           0
ONIOM Multiplicities                       I   N=          16
           1           0           0           0           0           0
           0           0           0           0           0           0
           0           0           0           0
Atom Layers                                I   N=           8
           1           1           1           1           1           1
           1           1
Atom Modifiers                             I   N=           8
           0           0           0           0           0           0
           0           0
Int Atom Modified Types                    I   N=           8
           0           0           0           0           0           0
           0           0
Force Field                                I                0
Atom Modified Types                        C   N=           8
                                                            
                                    
Link Atoms                                 I   N=           8
           0           0           0           0           0           0
           0           0
Atom Modified MM Charges                   R   N=           8
  0.00000000E+00  0.00000000E+00  0.00000000E+00  0.00000000E+00  0.00000000E+00
  0.00000000E+00  0.00000000E+00  0.00000000E+00
Link Distances                             R   N=          32
  0.00000000E+00  0.00000000E+00  0.00000000E+00  0.00000000E+00  0.00000000E+00
  0.00000000E+00  0.00000000E+00  0.00000000E+00  0.00000000E+00  0.00000000E+00
  0.00000000E+00  0.00000000E+00  0.00000000E+00  0.00000000E+00  0.00000000E+00
  0.00000000E+00  0.00000000E+00  0.00000000E+00  0.00000000E+00  0.00000000E+00
  0.00000000E+00  0.00000000E+00  0.00000000E+00  0.00000000E+00  0.00000000E+00
  0.00000000E+00  0.00000000E+00  0.00000000E+00  0.00000000E+00  0.00000000E+00
  0.00000000E+00  0.00000000E+00
Cartesian Gradient                         R   N=          24
  6.01559411E-16 -1.92840095E-15 -1.13638552E-06  4.17203123E-05 -7.22835769E-05
  3.77425603E-05 -8.34595701E-05  1.09381227E-08  3.77425603E-05  4.17392577E-05
  7.22726388E-05  3.77425603E-05 -2.55612288E-15  3.62268792E-15  1.13638552E-06
 -4.17392577E-05  7.22726388E-05 -3.77425603E-05  8.34595701E-05  1.09381207E-08
 -3.77425603E-05 -4.17203123E-05 -7.22835769E-05 -3.77425603E-05
Cartesian Force Constants                  R   N=         300
  5.68962981E-01 -1.29853930E-08  5.68880305E-01 -2.30723766E-05 -1.25558494E-08
  4.84430843E-01 -1.06466755E-01  9.89820808E-02 -4.31168225E-02  1.10876443E-01
  9.89642176E-02 -2.20748967E-01  7.47057693E-02 -1.09425705E-01  2.37239210E-01
 -4.25498154E-02  7.37400129E-02 -7.94855419E-02  4.73732667E-02 -8.21011535E-02
  8.93389835E-02 -2.77911523E-01  1.39111125E-05  8.62564446E-02 -1.39124480E-02
 -7.95895498E-04  4.55802741E-03  3.00413959E-01  5.24768426E-06 -4.93491919E-02
 -1.83811568E-05  2.60536262E-02  6.73845722E-04 -1.05755195E-02 -3.83047478E-06
  4.77016947E-02  8.51438161E-02 -2.27568764E-05 -7.95061835E-02 -1.14342219E-02
 -1.34147514E-03  3.43611526E-03 -9.47883180E-02  2.41243277E-05  8.93389835E-02
 -1.06483299E-01 -9.89829640E-02 -4.31486442E-02  7.96419048E-03  1.34263786E-02
  6.87886248E-03 -1.39096459E-02 -2.60552440E-02 -1.14376822E-02  1.10883078E-01
 -9.89824636E-02 -2.20732377E-01 -7.46873884E-02 -1.34231430E-02 -2.12027928E-02
 -9.23158905E-03  7.94277694E-04  6.71043602E-04  1.34039221E-03  1.09429536E-01
  2.37232575E-01 -4.25892295E-02 -7.37172472E-02 -7.94855238E-02  6.87965483E-03
  9.23512728E-03  3.43611526E-03  4.55535939E-03  1.05730642E-02  3.43611526E-03
  4.74150513E-02  8.20770292E-02  8.93389835E-02 -8.11123613E-02  1.44299775E-06
  2.69094057E-05  2.19133473E-04 -1.37944332E-03 -1.68361809E-02  2.61125631E-03
 -1.48810924E-06  3.36690006E-02  2.21114245E-04  1.37987821E-03 -1.68395096E-02
  5.68962981E-01 -1.44299775E-06 -8.11086113E-02  1.86271540E-08 -1.37847861E-03
  1.81690466E-03  2.91676901E-02 -7.83346612E-07 -5.71910243E-04 -1.91796418E-06
  1.38033002E-03  1.81493154E-03 -2.91657795E-02  1.29866974E-08  5.68880305E-01
  2.69094057E-05 -1.86271546E-08 -2.08641905E-01  6.38252146E-04 -1.09666224E-03
 -1.24311790E-02 -1.26550739E-03 -2.24607778E-06 -1.24299344E-02  6.34358923E-04
  1.09891035E-03 -1.24311876E-02 -2.30723759E-05  1.25567241E-08  4.84430843E-01
  2.21114245E-04 -1.38033002E-03  6.34358923E-04  1.11372979E-03 -3.77593367E-04
  3.15025274E-04  4.58696517E-04 -5.21960484E-04 -2.62359420E-04 -2.57500223E-04
  1.08258516E-04 -4.00128324E-04 -1.06483299E-01  9.89829641E-02 -4.31486442E-02
  1.10883078E-01 -1.37987821E-03  1.81493154E-03 -1.09891035E-03 -3.77359843E-04
  1.54960223E-03 -5.45346678E-04 -3.05120625E-04 -1.88189840E-05  6.12643668E-04
 -1.08258516E-04  6.95525607E-04  5.30007858E-04  9.89824636E-02 -2.20732377E-01
  7.46873884E-02 -1.09429536E-01  2.37232575E-01 -1.68395096E-02  2.91657795E-02
 -1.24311876E-02  3.14771441E-04 -5.45493229E-04 -7.17206691E-03  6.61744690E-04
  7.91119116E-05  1.43951336E-03 -4.00128324E-04 -5.30007858E-04  1.43806022E-03
 -4.25892295E-02  7.37172472E-02 -7.94855238E-02  4.74150513E-02 -8.20770292E-02
  8.93389835E-02  2.61125631E-03  7.83346612E-07 -1.26550739E-03  4.57269150E-04
 -3.04413773E-04  6.59064432E-04  1.76753845E-03 -1.16761928E-07 -6.29796714E-04
  4.58696517E-04  3.05120625E-04  6.61744690E-04 -2.77911523E-01 -1.39111125E-05
  8.62564446E-02 -1.39096459E-02 -7.94277694E-04  4.55535939E-03  3.00413959E-01
  1.48810924E-06 -5.71910243E-04  2.24607778E-06 -5.20930806E-04 -1.92437655E-05
  8.15173645E-05  1.16761928E-07  8.95793574E-04 -1.46550602E-07  5.21960484E-04
 -1.88189840E-05 -7.91119116E-05 -5.24768426E-06 -4.93491919E-02  1.83811568E-05
  2.60552440E-02  6.71043602E-04 -1.05730642E-02  3.83047478E-06  4.77016947E-02
  3.36690006E-02  1.91796418E-06 -1.24299344E-02 -2.58936107E-04  6.11525223E-04
  1.43806022E-03 -6.29796714E-04  1.46550602E-07 -7.17206691E-03 -2.62359420E-04
 -6.12643668E-04  1.43951336E-03  8.51438161E-02  2.27568764E-05 -7.95061835E-02
 -1.14376822E-02 -1.34039221E-03  3.43611526E-03 -9.47883180E-02 -2.41243277E-05
  8.93389835E-02  2.19133473E-04  1.37847861E-03  6.38252146E-04 -2.57576734E-04
 -1.08419930E-04 -3.99385270E-04  4.57269150E-04  5.20930806E-04 -2.58936107E-04
  1.11372979E-03  3.77359843E-04  3.14771441E-04 -1.06466755E-01 -9.89820808E-02
 -4.31168225E-02  7.96419048E-03  1.34231430E-02  6.87965483E-03 -1.39124480E-02
 -2.60536262E-02 -1.14342219E-02  1.10876443E-01  1.37944332E-03  1.81690466E-03
  1.09666225E-03  1.08419930E-04  6.97454267E-04 -5.33531757E-04  3.04413773E-04
 -1.92437655E-05 -6.11525223E-04  3.77593367E-04  1.54960223E-03  5.45493229E-04
 -9.89642176E-02 -2.20748967E-01 -7.47057693E-02 -1.34263786E-02 -2.12027928E-02
 -9.23512728E-03  7.95895498E-04  6.73845722E-04  1.34147514E-03  1.09425705E-01
  2.37239210E-01 -1.68361809E-02 -2.91676901E-02 -1.24311790E-02 -3.99385270E-04
  5.33531757E-04  1.43951336E-03  6.59064432E-04 -8.15173645E-05  1.43806022E-03
  3.15025274E-04  5.45346678E-04 -7.17206691E-03 -4.25498154E-02 -7.37400129E-02
 -7.94855419E-02  6.87886248E-03  9.23158905E-03  3.43611526E-03  4.55802741E-03
  1.05755195E-02  3.43611526E-03  4.73732667E-02  8.21011535E-02  8.93389835E-02
Nonadiabatic coupling                      R   N=          24
 -0.00000000E+00  0.00000000E+00  0.00000000E+00 -0.00000000E+00  0.00000000E+00
  0.00000000E+00 -0.00000000E+00  0.00000000E+00  0.00000000E+00 -0.00000000E+00
  0.00000000E+00  0.00000000E+00 -0.00000000E+00  0.00000000E+00  0.00000000E+00
 -0.00000000E+00  0.00000000E+00  0.00000000E+00 -0.00000000E+00  0.00000000E+00
  0.00000000E+00 -0.00000000E+00  0.00000000E+00  0.00000000E+00
Dipole Moment                              R   N=           3
  3.18097302E-16  5.13167523E-16  2.22044614E-15
Dipole Derivatives                         R   N=          72
  9.43182138E-02  4.42110791E-06 -2.65563153E-05 -4.31232371E-06  9.46238964E-02
  2.16303497E-07 -6.21650322E-06  3.93736570E-08  5.15610839E-02  2.14913938E-02
  9.17066070E-02 -5.28989201E-02  9.17095471E-02 -8.45788789E-02  9.17555763E-02
 -2.81123875E-02  4.88030256E-02 -1.72787300E-02 -1.37381894E-01  4.13058462E-05
  1.05877268E-01  4.57157112E-05  7.44547827E-02 -3.81716264E-05  5.62791362E-02
 -2.95890592E-05 -1.71411220E-02  2.14157812E-02 -9.17546632E-02 -5.29650679E-02
 -9.17486552E-02 -8.45034642E-02 -9.17173966E-02 -2.81636402E-02 -4.87734487E-02
 -1.72787788E-02  9.43182100E-02 -4.41925463E-06 -2.65579943E-05  4.31418373E-06
  9.46238926E-02 -2.15236912E-07 -6.21608930E-06 -3.80532990E-08  5.15610818E-02
  2.14157831E-02  9.17546621E-02 -5.29650694E-02  9.17486535E-02 -8.45034629E-02
  9.17173952E-02 -2.81636410E-02  4.87734481E-02 -1.72787793E-02 -1.37381893E-01
 -4.13075375E-05  1.05877267E-01 -4.57167854E-05  7.44547830E-02  3.81698547E-05
  5.62791367E-02  2.95879605E-05 -1.71411214E-02  2.14913931E-02 -9.17066061E-02
 -5.28989189E-02 -9.17095462E-02 -8.45788775E-02 -9.17555741E-02 -2.81123871E-02
 -4.88030253E-02 -1.72787306E-02
Polarizability                             R   N=           6
  2.53303900E+01 -2.52675036E-09  2.53285187E+01 -1.40301324E-03  2.85817558E-09
  2.79678612E+01
Quadrupole Moment                          R   N=           6
  2.02700999E-01  2.02700999E-01 -4.05401998E-01  1.38777878E-16 -2.78074072E-16
  4.11499694E-15
QEq coupling tensors                       R   N=          48
  1.87288751E-02 -5.91020288E-15  1.87288751E-02  4.02212985E-14  2.11115848E-14
 -3.74577502E-02  5.52561739E-02  1.71426911E-01 -1.42736603E-01 -7.66781121E-02
  1.32825434E-01  8.74804294E-02 -2.41698469E-01  1.99319561E-05  1.54218039E-01
  1.53369256E-01 -7.52388862E-06  8.74804294E-02  5.52216508E-02 -1.71446843E-01
 -1.42702080E-01 -7.66911439E-02 -1.32817910E-01  8.74804294E-02  1.87288751E-02
 -1.23217408E-14  1.87288751E-02  2.01297313E-14 -5.06678034E-14 -3.74577502E-02
  5.52216508E-02  1.71446843E-01 -1.42702080E-01 -7.66911439E-02  1.32817910E-01
  8.74804294E-02 -2.41698469E-01 -1.99319561E-05  1.54218039E-01  1.53369256E-01
  7.52388862E-06  8.74804294E-02  5.52561739E-02 -1.71426911E-01 -1.42736603E-01
 -7.66781121E-02 -1.32825434E-01  8.74804294E-02
Number of Normal Modes                     I               18
Vib-LE2Fix                                 I               14
Vib-NDFDPol                                I                0
Vib-NumROA                                 I                0
Vib-NDim                                   I                8
Vib-NDim0                                  I                8
Vib-LFlags                                 I                8
Vib-IFlags                                 I   N=         144
           0           0           1           0           0           0
           0           0           0           0           2           0
           0           0           0           0           0           0
           3           0           0           0           0           0
           0           0           4           0           0           0
           0           0           0           0           5           0
           0           0           0           0           0           0
           6           0           0           0           0           0
           0           0           7           0           0           0
           0           0           0           0           8           0
           0           0           0           0           0           0
           9           0           0           0           0           0
           0           0          10           0           0           0
           0           0           0           0          11           0
           0           0           0           0           0           0
          12           0           0           0           0           0
           0           0          13           0           0           0
           0           0           0           0          14           0
           0           0           0           0           0           0
          15           0           0           0           0           0
           0           0          16           0           0           0
           0           0           0           0          17           0
           0           0           0           0           0           0
          18           0           0           0           0           0
Vib-AtMass                                 R   N=           8
  1.20000000E+01  1.00782504E+00  1.00782504E+00  1.00782504E+00  1.20000000E+01
  1.00782504E+00  1.00782504E+00  1.00782504E+00
Vib-E2                                     R   N=         252
  3.12292607E+02  8.34044746E+02  8.34069336E+02  1.01807954E+03  1.23205767E+03
  1.23207825E+03  1.41994821E+03  1.43873857E+03  1.52669837E+03  1.52669969E+03
  1.52773987E+03  1.52774240E+03  3.03757577E+03  3.03969620E+03  3.09077480E+03
  3.09079760E+03  3.11531781E+03  3.11533788E+03  1.00782504E+00  1.05922575E+00
  1.05922292E+00  3.15670043E+00  1.47422833E+00  1.47424133E+00  1.19801587E+00
  1.27030973E+00  1.01683921E+00  1.01684009E+00  1.06078004E+00  1.06078071E+00
  1.03429590E+00  1.03755028E+00  1.10123151E+00  1.10123781E+00  1.10252219E+00
  1.10252460E+00  5.79106916E-02  4.34127638E-01  4.34152076E-01  1.92773348E+00
  1.31849057E+00  1.31854623E+00  1.42317328E+00  1.54925748E+00  1.39639722E+00
  1.39640084E+00  1.45872816E+00  1.45873391E+00  5.62275611E+00  5.64832547E+00
  6.19817104E+00  6.19829795E+00  6.30437816E+00  6.30447319E+00  7.32537447E-06
  3.55926276E+00  3.55810679E+00  1.02253096E-13  1.57262858E-05  1.57239454E-05
  2.70146741E+00  2.12091288E-14  2.52983962E-03  2.54619533E-03  1.27521569E+01
  1.27582472E+01  6.45439555E+01  1.15578445E-12  6.58330740E-07  6.87423769E-07
  6.52874381E+01  6.51687989E+01  0.00000000E+00  0.00000000E+00  0.00000000E+00
  0.00000000E+00  0.00000000E+00  0.00000000E+00  0.00000000E+00  0.00000000E+00
  0.00000000E+00  0.00000000E+00  0.00000000E+00  0.00000000E+00  0.00000000E+00
  0.00000000E+00  0.00000000E+00  0.00000000E+00  0.00000000E+00  0.00000000E+00
  0.00000000E+00  0.00000000E+00  0.00000000E+00  0.00000000E+00  0.00000000E+00
  0.00000000E+00  0.00000000E+00  0.00000000E+00  0.00000000E+00  0.00000000E+00
  0.00000000E+00  0.00000000E+00  0.00000000E+00  0.00000000E+00  0.00000000E+00
  0.00000000E+00  0.00000000E+00  0.00000000E+00  0.00000000E+00  0.00000000E+00
  0.00000000E+00  0.00000000E+00  0.00000000E+00  0.00000000E+00  0.00000000E+00
  0.00000000E+00  0.00000000E+00  0.00000000E+00  0.00000000E+00  0.00000000E+00
  0.00000000E+00  0.00000000E+00  0.00000000E+00  0.00000000E+00  0.00000000E+00
  0.00000000E+00  0.00000000E+00  0.00000000E+00  0.00000000E+00  0.00000000E+00
  0.00000000E+00  0.00000000E+00  0.00000000E+00  0.00000000E+00  0.00000000E+00
  0.00000000E+00  0.00000000E+00  0.00000000E+00  0.00000000E+00  0.00000000E+00
  0.00000000E+00  0.00000000E+00  0.00000000E+00  0.00000000E+00  0.00000000E+00
  0.00000000E+00  0.00000000E+00  0.00000000E+00  0.00000000E+00  0.00000000E+00
  0.00000000E+00  0.00000000E+00  0.00000000E+00  0.00000000E+00  0.00000000E+00
  0.00000000E+00  0.00000000E+00  0.00000000E+00  0.00000000E+00  0.00000000E+00
  0.00000000E+00  0.00000000E+00  1.00000000E+02  1.00000000E+02  1.00000000E+02
  1.00000000E+02  1.00000000E+02  1.00000000E+02  1.00000000E+02  1.00000000E+02
  1.00000000E+02  1.00000000E+02  1.00000000E+02  1.00000000E+02  1.00000000E+02
  1.00000000E+02  1.00000000E+02  1.00000000E+02  1.00000000E+02  1.00000000E+02
  0.00000000E+00  0.00000000E+00  0.00000000E+00  0.00000000E+00  0.00000000E+00
  0.00000000E+00  0.00000000E+00  0.00000000E+00  0.00000000E+00  0.00000000E+00
  0.00000000E+00  0.00000000E+00  0.00000000E+00  0.00000000E+00  0.00000000E+00
  0.00000000E+00  0.00000000E+00  0.00000000E+00  0.00000000E+00  0.00000000E+00
  0.00000000E+00  0.00000000E+00  0.00000000E+00  0.00000000E+00  0.00000000E+00
  0.00000000E+00  0.00000000E+00  0.00000000E+00  0.00000000E+00  0.00000000E+00
  0.00000000E+00  0.00000000E+00  0.00000000E+00  0.00000000E+00  0.00000000E+00
  0.00000000E+00  0.00000000E+00  0.00000000E+00  0.00000000E+00  0.00000000E+00
  0.00000000E+00  0.00000000E+00  0.00000000E+00  0.00000000E+00  0.00000000E+00
  0.00000000E+00  0.00000000E+00  0.00000000E+00  0.00000000E+00  0.00000000E+00
  0.00000000E+00  0.00000000E+00  0.00000000E+00  0.00000000E+00  0.00000000E+00
  0.00000000E+00  0.00000000E+00  0.00000000E+00  0.00000000E+00  0.00000000E+00
  0.00000000E+00  0.00000000E+00  0.00000000E+00  0.00000000E+00  0.00000000E+00
  0.00000000E+00  0.00000000E+00  0.00000000E+00  0.00000000E+00  0.00000000E+00
  0.00000000E+00  0.00000000E+00
Vib-Modes                                  R   N=         432
 -7.06475694E-09  5.50532118E-06  4.76165721E-06 -3.53542494E-01 -2.04172954E-01
 -1.59984483E-04 -3.58357407E-05  4.08218276E-01 -1.29582871E-04  3.53578347E-01
 -2.04110873E-01 -9.92719712E-05  7.06474599E-09  5.50532116E-06 -4.76165715E-06
 -3.53578347E-01 -2.04110873E-01  9.92719712E-05  3.58357408E-05  4.08218276E-01
  1.29582871E-04  3.53542494E-01 -2.04172954E-01  1.59984482E-04 -2.16867902E-05
 -4.83534789E-02  6.46259971E-08  3.03555692E-02  1.74540459E-01  4.37943755E-01
 -3.88356576E-05  2.26867397E-01 -8.74406147E-05 -3.00664605E-02  1.74328730E-01
 -4.37856201E-01  2.16862910E-05 -4.83534789E-02 -6.46259857E-08  3.00664627E-02
  1.74328731E-01  4.37856198E-01  3.88372782E-05  2.26867397E-01  8.74458345E-05
 -3.03555671E-02  1.74540458E-01 -4.37943757E-01 -4.83521472E-02  2.16912752E-05
  3.45938034E-06  2.09262465E-01  3.02121865E-02 -2.52761880E-01  1.56984041E-01
 -2.05690081E-04  5.05634070E-01  2.09474224E-01 -3.02567915E-02 -2.52913380E-01
 -4.83521472E-02 -2.16907760E-05  3.45937840E-06  2.09474223E-01  3.02567897E-02
 -2.52913385E-01  1.56984041E-01  2.05687739E-04  5.05634070E-01  2.09262465E-01
 -3.02121883E-02 -2.52761875E-01 -3.03798337E-05  3.44418422E-08  3.12643065E-01
 -7.81120297E-03  1.34137796E-02  3.65790549E-01  1.55345659E-02  1.02857126E-04
  3.65958038E-01 -7.63264797E-03 -1.35170469E-02  3.65791000E-01  3.03798349E-05
  3.44420373E-08 -3.12643065E-01  7.63264797E-03 -1.35170469E-02 -3.65791000E-01
 -1.55345659E-02  1.02857125E-04 -3.65958038E-01  7.81120297E-03  1.34137796E-02
 -3.65790549E-01  1.45654519E-01 -4.24968048E-05  2.75299096E-05 -2.15108407E-01
 -9.09719900E-02  2.46988167E-01 -5.76013668E-02  3.88941449E-04 -4.94039791E-01
 -2.15489735E-01  9.10890559E-02  2.47199612E-01 -1.45654519E-01 -4.24980193E-05
 -2.75299086E-05  2.15489736E-01  9.10890568E-02 -2.47199608E-01  5.76013668E-02
  3.88943682E-04  4.94039791E-01  2.15108406E-01 -9.09719891E-02 -2.46988171E-01
  4.25031231E-05  1.45656551E-01  3.69418859E-09 -9.13166461E-02 -1.10370608E-01
 -4.27950554E-01  5.15374111E-05 -2.67862034E-01  1.22050264E-04  9.07590261E-02
 -1.09989144E-01  4.27828459E-01  4.25043375E-05 -1.45656551E-01  3.69414928E-09
  9.07590243E-02  1.09989143E-01  4.27828461E-01  5.15369307E-05  2.67862034E-01
  1.22046144E-04 -9.13166479E-02  1.10370609E-01 -4.27950552E-01 -1.78799318E-06
  5.35420274E-09 -9.30117846E-02 -8.29096191E-02  1.43629642E-01  3.69147337E-01
  1.65855206E-01 -8.54107932E-06  3.69180714E-01 -8.29242977E-02 -1.43621148E-01
  3.69147329E-01 -1.78799434E-06 -5.35430823E-09 -9.30117846E-02 -8.29242977E-02
  1.43621148E-01  3.69147329E-01  1.65855206E-01  8.54108080E-06  3.69180714E-01
 -8.29096190E-02 -1.43629642E-01  3.69147337E-01  5.60744267E-06 -4.77099460E-09
  1.09268549E-01  8.78463648E-02 -1.51925373E-01 -3.63162248E-01 -1.75495619E-01
 -1.35702886E-04 -3.63168675E-01  8.76111367E-02  1.52061133E-01 -3.63162149E-01
 -5.60744230E-06 -4.77099187E-09 -1.09268549E-01 -8.76111367E-02  1.52061133E-01
  3.63162149E-01  1.75495619E-01 -1.35702885E-04  3.63168675E-01 -8.78463649E-02
 -1.51925373E-01  3.63162248E-01  6.82980998E-04 -2.02376016E-02  6.00934906E-09
  2.54805166E-01  2.78495372E-02 -2.57014807E-01  1.86297195E-03  4.81801993E-01
  3.47059408E-03 -2.64800285E-01  3.57714083E-02  2.53544142E-01  6.82979744E-04
  2.02376017E-02  6.00930100E-09 -2.64800265E-01 -3.57713922E-02  2.53544151E-01
  1.86296463E-03 -4.81801994E-01  3.47057581E-03  2.54805187E-01 -2.78495533E-02
 -2.57014799E-01 -2.02385093E-02 -6.85325782E-04  4.03502106E-06  3.35782554E-01
  2.60225344E-01  1.44359654E-01 -1.18193427E-01  7.30905965E-03 -2.94774876E-01
  3.27834552E-01 -2.59374337E-01  1.50390140E-01  2.02385093E-02 -6.85324528E-04
 -4.03502085E-06 -3.27834568E-01 -2.59374340E-01 -1.50390124E-01  1.18193427E-01
  7.30902980E-03  2.94774876E-01 -3.35782538E-01  2.60225342E-01 -1.44359670E-01
  2.26897959E-04 -4.90785844E-02 -7.65498150E-08  2.71209689E-01  3.15212372E-02
 -2.00780808E-01  1.83355532E-03  5.13593074E-01  4.67259911E-03 -2.80940104E-01
  3.92559828E-02  1.96108670E-01 -2.26897195E-04 -4.90785844E-02  7.65500282E-08
  2.80940099E-01  3.92559785E-02 -1.96108672E-01 -1.83355339E-03  5.13593073E-01
 -4.67259554E-03 -2.71209694E-01  3.15212414E-02  2.00780806E-01 -4.90789005E-02
 -2.25867742E-04 -7.08990756E-07  3.58043534E-01  2.76484063E-01  1.10536730E-01
 -1.24004094E-01  7.07394529E-03 -2.29132606E-01  3.50334617E-01 -2.75688407E-01
  1.18604318E-01 -4.90789005E-02  2.25866979E-04 -7.08991959E-07  3.50334621E-01
  2.75688408E-01  1.18604314E-01 -1.24004094E-01 -7.07393730E-03 -2.29132606E-01
  3.58043530E-01 -2.76484062E-01  1.10536733E-01  2.66117607E-06  5.33247502E-09
  3.46998227E-02 -1.91884946E-01  3.32395294E-01 -1.37725352E-01  3.83772325E-01
 -1.96660072E-05 -1.37714101E-01 -1.91919065E-01 -3.32375698E-01 -1.37725389E-01
  2.66117178E-06 -5.33764721E-09  3.46998226E-02 -1.91919064E-01  3.32375697E-01
 -1.37725389E-01  3.83772324E-01  1.96660060E-05 -1.37714100E-01 -1.91884946E-01
 -3.32395294E-01 -1.37725352E-01  5.86461402E-06  4.82199875E-09  3.67710373E-02
 -1.91276853E-01  3.31331964E-01 -1.40964342E-01  3.82502809E-01 -1.28619640E-05
 -1.40933051E-01 -1.91299181E-01 -3.31319160E-01 -1.40964368E-01 -5.86461091E-06
  4.82981421E-09 -3.67710373E-02  1.91299181E-01 -3.31319160E-01  1.40964368E-01
 -3.82502810E-01 -1.28619620E-05  1.40933052E-01  1.91276854E-01  3.31331965E-01
  1.40964342E-01  2.25564409E-05 -6.51825946E-02  3.32621725E-09 -2.39358121E-01
  3.98309960E-01 -1.78640031E-01 -2.14707129E-04 -1.63322801E-02  7.78094691E-05
  2.39304252E-01  3.98093030E-01  1.78562182E-01  2.25432554E-05  6.51825946E-02
  3.33197959E-09  2.39304277E-01 -3.98093078E-01  1.78562203E-01 -2.14598574E-04
  1.63322801E-02  7.77677330E-05 -2.39358096E-01 -3.98309911E-01 -1.78640011E-01
 -6.51847920E-02 -2.26400124E-05  5.42248432E-06  1.21722310E-01 -2.39143725E-01
  1.03030534E-01  5.36419568E-01 -3.57137587E-05 -2.06240955E-01  1.21939797E-01
  2.39449010E-01  1.03165795E-01  6.51847920E-02 -2.26268273E-05 -5.42248193E-06
 -1.21939748E-01  2.39448930E-01 -1.03165759E-01 -5.36419568E-01 -3.57104551E-05
  2.06240955E-01 -1.21722358E-01 -2.39143806E-01 -1.03030570E-01  2.13997267E-05
 -6.56313916E-02  2.76677715E-09 -2.37839288E-01  3.97896879E-01 -1.81579898E-01
 -2.14443338E-04 -1.41121498E-02  8.33868866E-05  2.37791136E-01  3.97677004E-01
  1.81496495E-01 -2.13846516E-05 -6.56313917E-02 -2.77009417E-09 -2.37791165E-01
  3.97677059E-01 -1.81496519E-01  2.14320397E-04 -1.41121498E-02 -8.33387259E-05
  2.37839260E-01  3.97896824E-01  1.81579874E-01 -6.56322282E-02 -2.13136163E-05
  1.73004241E-06  1.23072867E-01 -2.37646192E-01  1.04731087E-01  5.35106727E-01
 -3.93816374E-05 -2.09626768E-01  1.23292100E-01  2.37947157E-01  1.04875081E-01
 -6.56322282E-02  2.12985414E-05  1.73004055E-06  1.23292046E-01 -2.37947066E-01
  1.04875039E-01  5.35106727E-01  3.93783960E-05 -2.09626768E-01  1.23072921E-01
  2.37646283E-01  1.04731129E-01
ClPar MaxAn                                I              200
ClPar NIntPar                              I                4
ClPar NRealPar                             I               16
ClPar NBits                                I               30
ClPar LenBitVec                            I                1
ClPar Read BitMap                          I   N=         200
           0           0           0           0           0           0
           0           0           0           0           0           0
           0           0           0           0           0           0
           0           0           0           0           0           0
           0           0           0           0           0           0
           0           0           0           0           0           0
           0           0           0           0           0           0
           0           0           0           0           0           0
           0           0           0           0           0           0
           0           0           0           0           0           0
           0           0           0           0           0           0
           0           0           0           0           0           0
           0           0           0           0           0           0
           0           0           0           0           0           0
           0           0           0           0           0           0
           0           0           0           0           0           0
           0           0           0           0           0           0
           0           0           0           0           0           0
           0           0           0           0           0           0
           0           0           0           0           0           0
           0           0           0           0           0           0
           0           0           0           0           0           0
           0           0           0           0           0           0
           0           0           0           0           0           0
           0           0           0           0           0           0
           0           0           0           0           0           0
           0           0           0           0           0           0
           0           0           0           0           0           0
           0           0           0           0           0           0
           0           0           0           0           0           0
           0           0           0           0           0           0
           0           0           0           0           0           0
           0           0           0           0           0           0
           0           0
ClPar Default BitMap                       I   N=         200
        2016        2016        2016        2016        2016        2016
        2016        2016        2016        2016        2016        2016
        2016        2016        2016        2016        2016        2016
        2016        2016        2016        2016        2016        2016
        2016        2016        2016        2016        2016        2016
        2016        2016        2016        2016        2016        2016
        2016        2016        2016        2016        2016        2016
        2016        2016        2016        2016        2016        2016
        2016        2016        2016        2016        2016        2016
        2016        2016        2016        2016        2016        2016
        2016        2016        2016        2016        2016        2016
        2016        2016        2016        2016        2016        2016
        2016        2016        2016        2016        2016        2016
        2016        2016        2016        2016        2016        2016
        2016        2016         480         480         480         480
         480         480         480         480         480         480
         480         480         480         480         480         480
         480         480         480         480         480         480
         480         480         480         480         480         480
         480         480         480         480         480         480
         480         480         480         480         480         480
         480         480         480         480         480         480
         480         480         480         480         480         480
         480         480         480         480         480         480
         480         480         480         480         480         480
         480         480         480         480         480         480
         480         480         480         480         480         480
         480         480         480         480         480         480
         480         480         480         480         480         480
         480         480         480         480         480         480
         480         480         480         480         480         480
         480         480         480         480         480         480
         480         480         480         480         480         480
         480         480
ClPar Int Params                           I   N=         800
           0           0           0           0           0           0
           0           0           0           0           0           0
           0           0           0           0           0           0
           0           0           0           0           0           0
           0           0           0           0           0           0
           0           0           0           0           0           0
           0           0           0           0           0           0
           0           0           0           0           0           0
           0           0           0           0           0           0
           0           0           0           0           0           0
           0           0           0           0           0           0
           0           0           0           0           0           0
           0           0           0           0           0           0
           0           0           0           0           0           0
           0           0           0           0           0           0
           0           0           0           0           0           0
           0           0           0           0           0           0
           0           0           0           0           0           0
           0           0           0           0           0           0
           0           0           0           0           0           0
           0           0           0           0           0           0
           0           0           0           0           0           0
           0           0           0           0           0           0
           0           0           0           0           0           0
           0           0           0           0           0           0
           0           0           0           0           0           0
           0           0           0           0           0           0
           0           0           0           0           0           0
           0           0           0           0           0           0
           0           0           0           0           0           0
           0           0           0           0           0           0
           0           0           0           0           0           0
           0           0           0           0           0           0
           0           0           0           0           0           0
           0           0           0           0           0           0
           0           0           0           0           0           0
           0           0           0           0           0           0
           0           0           0           0           0           0
           0           0           0           0           0           0
           0           0           0           0           0           0
           0           0           0           0           0           0
           0           0           0           0           0           0
           0           0           0           0           0           0
           0           0           0           0           0           0
           0           0           0           0           0           0
           0           0           0           0           0           0
           0           0           0           0           0           0
           0           0           0           0           0           0
           0           0           0           0           0           0
           0           0           0           0           0           0
           0           0           0           0           0           0
           0           0           0           0           0           0
           0           0           0           0           0           0
           0           0           0           0           0           0
           0           0           0           0           0           0
           0           0           0           0           0           0
           0           0           0           0           0           0
           0           0           0           0           0           0
           0           0           0           0           0           0
           0           0           0           0           0           0
           0           0           0           0           0           0
           0           0           0           0           0           0
           0           0           0           0           0           0
           0           0           0           0           0           0
           0           0           0           0           0           0
           0           0           0           0           0           0
           0           0           0           0           0           0
           0           0           0           0           0           0
           0           0           0           0           0           0
           0           0           0           0           0           0
           0           0           0           0           0           0
           0           0           0           0           0           0
           0           0           0           0           0           0
           0           0           0           0           0           0
           0           0           0           0           0           0
           0           0           0           0           0           0
           0           0           0           0           0           0
           0           0           0           0           0           0
           0           0           0           0           0           0
           0           0           0           0           0           0
           0           0           0           0           0           0
           0           0           0           0           0           0
           0           0           0           0           0           0
           0           0           0           0           0           0
           0           0           0           0           0           0
           0           0           0           0           0           0
           0           0           0           0           0           0
           0           0           0           0           0           0
           0           0           0           0           0           0
           0           0           0           0           0           0
           0           0           0           0           0           0
           0           0           0           0           0           0
           0           0           0           0           0           0
           0           0           0           0           0           0
           0           0           0           0           0           0
           0           0           0           0           0           0
           0           0           0           0           0           0
           0           0           0           0           0           0
           0           0           0           0           0           0
           0           0           0           0           0           0
           0           0           0           0           0           0
           0           0           0           0           0           0
           0           0           0           0           0           0
           0           0           0           0           0           0
           0           0           0           0           0           0
           0           0           0           0           0           0
           0           0           0           0           0           0
           0           0           0           0           0           0
           0           0           0           0           0           0
           0           0           0           0           0           0
           0           0           0           0           0           0
           0           0           0           0           0           0
           0           0           0           0           0           0
           0           0           0           0           0           0
           0           0           0           0           0           0
           0           0           0           0           0           0
           0           0           0           0           0           0
           0           0           0           0           0           0
           0           0           0           0           0           0
           0           0           0           0           0           0
           0           0           0           0           0           0
           0           0           0           0           0           0
           0           0           0           0           0           0
           0           0           0           0           0           0
           0           0           0           0           0           0
           0           0           0           0           0           0
           0           0           0           0           0           0
           0           0           0           0           0           0
           0           0           0           0           0           0
           0           0           0           0           0           0
           0           0           0           0           0           0
           0           0           0           0           0           0
           0           0           0           0           0           0
           0           0
ClPar Real Params                          R   N=        3200
  0.00000000E+00  0.00000000E+00  0.00000000E+00  0.00000000E+00  0.00000000E+00
  0.00000000E+00  0.00000000E+00  0.00000000E+00  0.00000000E+00  0.00000000E+00
  0.00000000E+00  0.00000000E+00  0.00000000E+00  0.00000000E+00  0.00000000E+00
  0.00000000E+00  0.00000000E+00  0.00000000E+00  0.00000000E+00  0.00000000E+00
  0.00000000E+00  0.00000000E+00  0.00000000E+00  0.00000000E+00  0.00000000E+00
  0.00000000E+00  0.00000000E+00  0.00000000E+00  0.00000000E+00  0.00000000E+00
  0.00000000E+00  0.00000000E+00  0.00000000E+00  0.00000000E+00  0.00000000E+00
  0.00000000E+00  0.00000000E+00  0.00000000E+00  0.00000000E+00  0.00000000E+00
  0.00000000E+00  0.00000000E+00  0.00000000E+00  0.00000000E+00  0.00000000E+00
  0.00000000E+00  0.00000000E+00  0.00000000E+00  0.00000000E+00  0.00000000E+00
  0.00000000E+00  0.00000000E+00  0.00000000E+00  0.00000000E+00  0.00000000E+00
  0.00000000E+00  0.00000000E+00  0.00000000E+00  0.00000000E+00  0.00000000E+00
  0.00000000E+00  0.00000000E+00  0.00000000E+00  0.00000000E+00  0.00000000E+00
  0.00000000E+00  0.00000000E+00  0.00000000E+00  0.00000000E+00  0.00000000E+00
  0.00000000E+00  0.00000000E+00  0.00000000E+00  0.00000000E+00  0.00000000E+00
  0.00000000E+00  0.00000000E+00  0.00000000E+00  0.00000000E+00  0.00000000E+00
  0.00000000E+00  0.00000000E+00  0.00000000E+00  0.00000000E+00  0.00000000E+00
  0.00000000E+00  0.00000000E+00  0.00000000E+00  0.00000000E+00  0.00000000E+00
  0.00000000E+00  0.00000000E+00  0.00000000E+00  0.00000000E+00  0.00000000E+00
  0.00000000E+00  0.00000000E+00  0.00000000E+00  0.00000000E+00  0.00000000E+00
  0.00000000E+00  0.00000000E+00  0.00000000E+00  0.00000000E+00  0.00000000E+00
  0.00000000E+00  0.00000000E+00  0.00000000E+00  0.00000000E+00  0.00000000E+00
  0.00000000E+00  0.00000000E+00  0.00000000E+00  0.00000000E+00  0.00000000E+00
  0.00000000E+00  0.00000000E+00  0.00000000E+00  0.00000000E+00  0.00000000E+00
  0.00000000E+00  0.00000000E+00  0.00000000E+00  0.00000000E+00  0.00000000E+00
  0.00000000E+00  0.00000000E+00  0.00000000E+00  0.00000000E+00  0.00000000E+00
  0.00000000E+00  0.00000000E+00  0.00000000E+00  0.00000000E+00  0.00000000E+00
  0.00000000E+00  0.00000000E+00  0.00000000E+00  0.00000000E+00  0.00000000E+00
  0.00000000E+00  0.00000000E+00  0.00000000E+00  0.00000000E+00  0.00000000E+00
  0.00000000E+00  0.00000000E+00  0.00000000E+00  0.00000000E+00  0.00000000E+00
  0.00000000E+00  0.00000000E+00  0.00000000E+00  0.00000000E+00  0.00000000E+00
  0.00000000E+00  0.00000000E+00  0.00000000E+00  0.00000000E+00  0.00000000E+00
  0.00000000E+00  0.00000000E+00  0.00000000E+00  0.00000000E+00  0.00000000E+00
  0.00000000E+00  0.00000000E+00  0.00000000E+00  0.00000000E+00  0.00000000E+00
  0.00000000E+00  0.00000000E+00  0.00000000E+00  0.00000000E+00  0.00000000E+00
  0.00000000E+00  0.00000000E+00  0.00000000E+00  0.00000000E+00  0.00000000E+00
  0.00000000E+00  0.00000000E+00  0.00000000E+00  0.00000000E+00  0.00000000E+00
  0.00000000E+00  0.00000000E+00  0.00000000E+00  0.00000000E+00  0.00000000E+00
  0.00000000E+00  0.00000000E+00  0.00000000E+00  0.00000000E+00  0.00000000E+00
  0.00000000E+00  0.00000000E+00  0.00000000E+00  0.00000000E+00  0.00000000E+00
  2.26000000E-01  4.43000000E-01  1.01000000E-01  1.47000000E-01  1.92000000E-01
  2.40000000E-01  2.75000000E-01  3.03000000E-01  3.25000000E-01  4.13000000E-01
  9.60000000E-02  1.35000000E-01  1.73000000E-01  2.11000000E-01  2.48000000E-01
  2.86000000E-01  3.23000000E-01  3.60000000E-01  8.20000000E-02  1.04000000E-01
  1.17000000E-01  1.23000000E-01  1.29000000E-01  1.34000000E-01  1.40000000E-01
  1.44000000E-01  1.48000000E-01  1.52000000E-01  1.55000000E-01  1.76000000E-01
  1.98000000E-01  2.19000000E-01  2.39000000E-01  2.60000000E-01  2.80000000E-01
  3.00000000E-01  7.90000000E-02  9.90000000E-02  1.19000000E-01  1.26000000E-01
  1.33000000E-01  1.40000000E-01  1.47000000E-01  1.53000000E-01  1.58000000E-01
  1.63000000E-01  1.57000000E-01  1.70000000E-01  1.87000000E-01  2.03000000E-01
  2.19000000E-01  2.34000000E-01  2.50000000E-01  2.65000000E-01  7.40000000E-02
  9.20000000E-02  1.05000000E-01  1.06000000E-01  1.07000000E-01  1.08000000E-01
  1.09000000E-01  1.10000000E-01  1.11000000E-01  1.12000000E-01  1.13000000E-01
  1.14000000E-01  1.15000000E-01  1.16000000E-01  1.17000000E-01  1.17000000E-01
  1.26000000E-01  1.36000000E-01  1.46000000E-01  1.55000000E-01  1.65000000E-01
  1.73000000E-01  1.82000000E-01  1.90000000E-01  1.62000000E-01  1.78000000E-01
  1.10000000E-01  1.35000000E-01  1.59000000E-01  1.83000000E-01  2.07000000E-01
  2.31000000E-01  6.90000000E-02  9.40000000E-02  1.02000000E-01  1.03000000E-01
  1.05000000E-01  1.07000000E-01  1.09000000E-01  1.11000000E-01  1.13000000E-01
  1.15000000E-01  1.17000000E-01  1.19000000E-01  1.20000000E-01  1.22000000E-01
  1.24000000E-01  1.26000000E-01  1.28000000E-01  1.28000000E-01  1.28000000E-01
  1.28000000E-01  1.28000000E-01  1.28000000E-01  1.28000000E-01  1.28000000E-01
  1.28000000E-01  1.28000000E-01  1.28000000E-01  1.28000000E-01  1.28000000E-01
  1.28000000E-01  1.28000000E-01  1.28000000E-01  1.28000000E-01  1.28000000E-01
  1.28000000E-01  1.28000000E-01  1.28000000E-01  1.28000000E-01  1.28000000E-01
  1.28000000E-01  1.28000000E-01  1.28000000E-01  1.28000000E-01  1.28000000E-01
  1.28000000E-01  1.28000000E-01  1.28000000E-01  1.28000000E-01  1.28000000E-01
  1.28000000E-01  1.28000000E-01  1.28000000E-01  1.28000000E-01  1.28000000E-01
  1.28000000E-01  1.28000000E-01  1.28000000E-01  1.28000000E-01  1.28000000E-01
  1.28000000E-01  1.28000000E-01  1.28000000E-01  1.28000000E-01  1.28000000E-01
  1.28000000E-01  1.28000000E-01  1.28000000E-01  1.28000000E-01  1.28000000E-01
  1.28000000E-01  1.28000000E-01  1.28000000E-01  1.28000000E-01  1.28000000E-01
  1.28000000E-01  1.28000000E-01  1.28000000E-01  1.28000000E-01  1.28000000E-01
  1.28000000E-01  1.28000000E-01  1.28000000E-01  1.28000000E-01  1.28000000E-01
  1.28000000E-01  1.28000000E-01  1.28000000E-01  1.28000000E-01  1.28000000E-01
  1.28000000E-01  1.28000000E-01  1.28000000E-01  1.28000000E-01  1.28000000E-01
  1.28000000E-01  1.28000000E-01  1.28000000E-01  1.28000000E-01  1.28000000E-01
  1.28000000E-01  1.28000000E-01  1.28000000E-01  1.28000000E-01  1.28000000E-01
  1.28000000E-01  1.28000000E-01  1.28000000E-01  1.28000000E-01  1.28000000E-01
  1.28000000E-01  1.28000000E-01  1.28000000E-01  1.28000000E-01  1.28000000E-01
  5.47000000E-01  5.92000000E-01  5.99000000E-01  6.68000000E-01  6.98000000E-01
  7.18000000E-01  7.26000000E-01  7.36000000E-01  7.43000000E-01  7.45000000E-01
  6.07000000E-01  6.66000000E-01  6.93000000E-01  7.09000000E-01  7.20000000E-01
  7.29000000E-01  7.35000000E-01  7.40000000E-01  6.08000000E-01  7.34000000E-01
  7.46000000E-01  7.55000000E-01  7.61000000E-01  7.65000000E-01  7.67000000E-01
  7.60000000E-01  7.49000000E-01  7.33000000E-01  7.08000000E-01  6.48000000E-01
  6.88000000E-01  7.09000000E-01  7.22000000E-01  7.31000000E-01  7.38000000E-01
  7.44000000E-01  6.09000000E-01  7.30000000E-01  7.41000000E-01  7.52000000E-01
  7.58000000E-01  7.63000000E-01  7.66000000E-01  7.58000000E-01  7.48000000E-01
  7.33000000E-01  7.01000000E-01  6.45000000E-01  6.86000000E-01  7.08000000E-01
  7.22000000E-01  7.31000000E-01  7.38000000E-01  7.44000000E-01  6.08000000E-01
  7.28000000E-01  7.32000000E-01  7.32000000E-01  7.32000000E-01  7.32000000E-01
  7.32000000E-01  7.32000000E-01  7.32000000E-01  7.32000000E-01  7.32000000E-01
  7.31000000E-01  7.31000000E-01  7.31000000E-01  7.31000000E-01  7.46000000E-01
  7.37000000E-01  7.46000000E-01  7.51000000E-01  7.55000000E-01  7.58000000E-01
  7.47000000E-01  7.32000000E-01  7.11000000E-01  7.41000000E-01  7.07000000E-01
  7.47000000E-01  7.43000000E-01  7.42000000E-01  7.42000000E-01  7.43000000E-01
  7.44000000E-01  6.05000000E-01  7.24000000E-01  7.26000000E-01  7.26000000E-01
  7.27000000E-01  7.27000000E-01  7.27000000E-01  7.28000000E-01  7.28000000E-01
  7.28000000E-01  7.28000000E-01  7.28000000E-01  7.29000000E-01  7.29000000E-01
  7.29000000E-01  7.29000000E-01  7.29000000E-01  7.29000000E-01  7.29000000E-01
  7.29000000E-01  7.29000000E-01  7.29000000E-01  7.29000000E-01  7.29000000E-01
  7.29000000E-01  7.29000000E-01  7.29000000E-01  7.29000000E-01  7.29000000E-01
  7.29000000E-01  7.29000000E-01  7.29000000E-01  7.29000000E-01  7.29000000E-01
  7.29000000E-01  7.29000000E-01  7.29000000E-01  7.29000000E-01  7.29000000E-01
  7.29000000E-01  7.29000000E-01  7.29000000E-01  7.29000000E-01  7.29000000E-01
  7.29000000E-01  7.29000000E-01  7.29000000E-01  7.29000000E-01  7.29000000E-01
  7.29000000E-01  7.29000000E-01  7.29000000E-01  7.29000000E-01  7.29000000E-01
  7.29000000E-01  7.29000000E-01  7.29000000E-01  7.29000000E-01  7.29000000E-01
  7.29000000E-01  7.29000000E-01  7.29000000E-01  7.29000000E-01  7.29000000E-01
  7.29000000E-01  7.29000000E-01  7.29000000E-01  7.29000000E-01  7.29000000E-01
  7.29000000E-01  7.29000000E-01  7.29000000E-01  7.29000000E-01  7.29000000E-01
  7.29000000E-01  7.29000000E-01  7.29000000E-01  7.29000000E-01  7.29000000E-01
  7.29000000E-01  7.29000000E-01  7.29000000E-01  7.29000000E-01  7.29000000E-01
  7.29000000E-01  7.29000000E-01  7.29000000E-01  7.29000000E-01  7.29000000E-01
  7.29000000E-01  7.29000000E-01  7.29000000E-01  7.29000000E-01  7.29000000E-01
  7.29000000E-01  7.29000000E-01  7.29000000E-01  7.29000000E-01  7.29000000E-01
  7.29000000E-01  7.29000000E-01  7.29000000E-01  7.29000000E-01  7.29000000E-01
  7.29000000E-01  7.29000000E-01  7.29000000E-01  7.29000000E-01  7.29000000E-01
  7.29000000E-01  7.29000000E-01  7.29000000E-01  7.29000000E-01  7.29000000E-01
  1.00000000E+00  1.70400000E+00  3.23000000E-01  3.89000000E-01  4.67000000E-01
  5.67000000E-01  6.36000000E-01  6.64000000E-01  6.96000000E-01  8.79000000E-01
  3.07000000E-01  3.48000000E-01  4.00000000E-01  4.54000000E-01  5.09000000E-01
  5.65000000E-01  6.21000000E-01  6.77000000E-01  2.56000000E-01  3.50000000E-01
  3.64000000E-01  3.62000000E-01  3.62000000E-01  3.62000000E-01  3.62000000E-01
  3.65000000E-01  3.69000000E-01  3.75000000E-01  3.86000000E-01  4.46000000E-01
  4.55000000E-01  4.74000000E-01  4.96000000E-01  5.20000000E-01  5.45000000E-01
  5.70000000E-01  2.45000000E-01  3.22000000E-01  3.55000000E-01  3.59000000E-01
  3.64000000E-01  3.70000000E-01  3.76000000E-01  3.85000000E-01  3.95000000E-01
  4.08000000E-01  3.76000000E-01  4.23000000E-01  4.22000000E-01  4.32000000E-01
  4.45000000E-01  4.59000000E-01  4.75000000E-01  4.91000000E-01  2.28000000E-01
  2.92000000E-01  2.89000000E-01  2.92000000E-01  2.95000000E-01  2.98000000E-01
  3.00000000E-01  3.03000000E-01  3.06000000E-01  3.09000000E-01  3.12000000E-01
  3.15000000E-01  3.18000000E-01  3.21000000E-01  3.24000000E-01  3.61000000E-01
  3.69000000E-01  3.70000000E-01  3.72000000E-01  3.75000000E-01  3.78000000E-01
  3.85000000E-01  3.94000000E-01  4.07000000E-01  5.26000000E-01  6.21000000E-01
  3.36000000E-01  3.54000000E-01  3.71000000E-01  3.86000000E-01  4.02000000E-01
  4.17000000E-01  2.09000000E-01  2.94000000E-01  2.65000000E-01  2.72000000E-01
  2.78000000E-01  2.84000000E-01  2.91000000E-01  2.97000000E-01  3.03000000E-01
  3.10000000E-01  3.16000000E-01  3.22000000E-01  3.29000000E-01  3.35000000E-01
  3.41000000E-01  3.48000000E-01  3.54000000E-01  3.54000000E-01  3.54000000E-01
  3.54000000E-01  3.54000000E-01  3.54000000E-01  3.54000000E-01  3.54000000E-01
  3.54000000E-01  3.54000000E-01  3.54000000E-01  3.54000000E-01  3.54000000E-01
  3.54000000E-01  3.54000000E-01  3.54000000E-01  3.54000000E-01  3.54000000E-01
  3.54000000E-01  3.54000000E-01  3.54000000E-01  3.54000000E-01  3.54000000E-01
  3.54000000E-01  3.54000000E-01  3.54000000E-01  3.54000000E-01  3.54000000E-01
  3.54000000E-01  3.54000000E-01  3.54000000E-01  3.54000000E-01  3.54000000E-01
  3.54000000E-01  3.54000000E-01  3.54000000E-01  3.54000000E-01  3.54000000E-01
  3.54000000E-01  3.54000000E-01  3.54000000E-01  3.54000000E-01  3.54000000E-01
  3.54000000E-01  3.54000000E-01  3.54000000E-01  3.54000000E-01  3.54000000E-01
  3.54000000E-01  3.54000000E-01  3.54000000E-01  3.54000000E-01  3.54000000E-01
  3.54000000E-01  3.54000000E-01  3.54000000E-01  3.54000000E-01  3.54000000E-01
  3.54000000E-01  3.54000000E-01  3.54000000E-01  3.54000000E-01  3.54000000E-01
  3.54000000E-01  3.54000000E-01  3.54000000E-01  3.54000000E-01  3.54000000E-01
  3.54000000E-01  3.54000000E-01  3.54000000E-01  3.54000000E-01  3.54000000E-01
  3.54000000E-01  3.54000000E-01  3.54000000E-01  3.54000000E-01  3.54000000E-01
  3.54000000E-01  3.54000000E-01  3.54000000E-01  3.54000000E-01  3.54000000E-01
  3.54000000E-01  3.54000000E-01  3.54000000E-01  3.54000000E-01  3.54000000E-01
  3.54000000E-01  3.54000000E-01  3.54000000E-01  3.54000000E-01  3.54000000E-01
  3.54000000E-01  3.54000000E-01  3.54000000E-01  3.54000000E-01  3.54000000E-01
  2.74000000E-01  2.96000000E-01  5.80000000E-02  4.40000000E-02  3.90000000E-02
  3.90000000E-02  3.60000000E-02  3.20000000E-02  2.90000000E-02  3.30000000E-02
  5.50000000E-02  3.90000000E-02  3.30000000E-02  3.00000000E-02  2.80000000E-02
  2.60000000E-02  2.50000000E-02  2.50000000E-02  4.50000000E-02  4.40000000E-02
  3.30000000E-02  2.50000000E-02  2.10000000E-02  1.80000000E-02  1.50000000E-02
  1.80000000E-02  2.10000000E-02  2.50000000E-02  3.30000000E-02  5.00000000E-02
  3.80000000E-02  3.10000000E-02  2.70000000E-02  2.40000000E-02  2.20000000E-02
  2.10000000E-02  4.30000000E-02  4.00000000E-02  3.20000000E-02  2.50000000E-02
  2.10000000E-02  1.80000000E-02  1.60000000E-02  1.90000000E-02  2.20000000E-02
  2.80000000E-02  3.10000000E-02  4.70000000E-02  3.40000000E-02  2.80000000E-02
  2.40000000E-02  2.10000000E-02  1.90000000E-02  1.80000000E-02  3.90000000E-02
  3.60000000E-02  2.50000000E-02  2.50000000E-02  2.50000000E-02  2.60000000E-02
  2.60000000E-02  2.60000000E-02  2.70000000E-02  2.70000000E-02  2.70000000E-02
  2.70000000E-02  2.80000000E-02  2.80000000E-02  2.80000000E-02  3.30000000E-02
  3.30000000E-02  2.60000000E-02  2.10000000E-02  1.80000000E-02  1.60000000E-02
  1.80000000E-02  2.20000000E-02  2.60000000E-02  4.90000000E-02  8.20000000E-02
  3.00000000E-02  2.40000000E-02  2.10000000E-02  1.80000000E-02  1.60000000E-02
  1.50000000E-02  3.50000000E-02  3.60000000E-02  2.20000000E-02  2.30000000E-02
  2.40000000E-02  2.40000000E-02  2.50000000E-02  2.50000000E-02  2.60000000E-02
  2.70000000E-02  2.70000000E-02  2.80000000E-02  2.80000000E-02  2.90000000E-02
  3.00000000E-02  3.00000000E-02  3.10000000E-02  3.10000000E-02  3.10000000E-02
  3.10000000E-02  3.10000000E-02  3.10000000E-02  3.10000000E-02  3.10000000E-02
  3.10000000E-02  3.10000000E-02  3.10000000E-02  3.10000000E-02  3.10000000E-02
  3.10000000E-02  3.10000000E-02  3.10000000E-02  3.10000000E-02  3.10000000E-02
  3.10000000E-02  3.10000000E-02  3.10000000E-02  3.10000000E-02  3.10000000E-02
  3.10000000E-02  3.10000000E-02  3.10000000E-02  3.10000000E-02  3.10000000E-02
  3.10000000E-02  3.10000000E-02  3.10000000E-02  3.10000000E-02  3.10000000E-02
  3.10000000E-02  3.10000000E-02  3.10000000E-02  3.10000000E-02  3.10000000E-02
  3.10000000E-02  3.10000000E-02  3.10000000E-02  3.10000000E-02  3.10000000E-02
  3.10000000E-02  3.10000000E-02  3.10000000E-02  3.10000000E-02  3.10000000E-02
  3.10000000E-02  3.10000000E-02  3.10000000E-02  3.10000000E-02  3.10000000E-02
  3.10000000E-02  3.10000000E-02  3.10000000E-02  3.10000000E-02  3.10000000E-02
  3.10000000E-02  3.10000000E-02  3.10000000E-02  3.10000000E-02  3.10000000E-02
  3.10000000E-02  3.10000000E-02  3.10000000E-02  3.10000000E-02  3.10000000E-02
  3.10000000E-02  3.10000000E-02  3.10000000E-02  3.10000000E-02  3.10000000E-02
  3.10000000E-02  3.10000000E-02  3.10000000E-02  3.10000000E-02  3.10000000E-02
  3.10000000E-02  3.10000000E-02  3.10000000E-02  3.10000000E-02  3.10000000E-02
  3.10000000E-02  3.10000000E-02  3.10000000E-02  3.10000000E-02  3.10000000E-02
  3.10000000E-02  3.10000000E-02  3.10000000E-02  3.10000000E-02  3.10000000E-02
  3.10000000E-02  3.10000000E-02  3.10000000E-02  3.10000000E-02  3.10000000E-02
 -5.92770000E-01 -9.17860000E-01 -2.48668000E+00 -8.36430000E-01 -3.18470000E-01
 -4.55790000E-01 -5.70730000E-01 -6.77940000E-01 -7.69860000E-01 -8.51140000E-01
 -1.51908000E+00 -3.18830000E-01 -2.17900000E-01 -3.01260000E-01 -3.72750000E-01
 -4.15890000E-01 -4.45930000E-01 -5.91320000E-01 -9.56370000E-01 -2.88450000E-01
 -4.87320000E-01 -6.34280000E-01 -7.17490000E-01 -7.91980000E-01 -8.68490000E-01
 -9.17520000E-01 -9.54890000E-01 -9.88460000E-01 -1.50055000E+00 -2.92560000E-01
 -2.14960000E-01 -2.91180000E-01 -3.42080000E-01 -3.84480000E-01 -4.34940000E-01
 -5.24310000E-01 -8.10070000E-01 -2.58460000E-01 -4.35550000E-01 -5.32740000E-01
 -6.08450000E-01 -6.10260000E-01 -7.58920000E-01 -8.90130000E-01 -8.45780000E-01
 -8.69340000E-01 -1.38234000E+00 -2.64850000E-01 -1.97280000E-01 -2.65040000E-01
 -2.94470000E-01 -3.16570000E-01 -3.63590000E-01 -4.57840000E-01 -8.61830000E-01
 -1.33004000E+00 -6.82880000E-01 -6.25540000E-01 -6.35430000E-01 -8.79690000E-01
 -9.02690000E-01 -9.59650000E-01 -1.01869000E+00 -6.81170000E-01 -7.96500000E-01
 -9.04950000E-01 -8.34790000E-01 -9.01560000E-01 -9.74130000E-01 -1.03326000E+00
 -7.15490000E-01 -7.83960000E-01 -8.28380000E-01 -5.61040000E-01 -1.03841000E+00
 -8.62500000E-01 -9.59300000E-01 -1.01755000E+00 -7.64900000E-01 -1.29467000E+00
 -1.92740000E-01 -2.56010000E-01 -3.19820000E-01 -1.94660000E-01 -2.60090000E-01
 -4.27990000E-01  0.00000000E+00  0.00000000E+00  0.00000000E+00  0.00000000E+00
  0.00000000E+00  0.00000000E+00  0.00000000E+00  0.00000000E+00  0.00000000E+00
  0.00000000E+00  0.00000000E+00  0.00000000E+00  0.00000000E+00  0.00000000E+00
  0.00000000E+00  0.00000000E+00  0.00000000E+00  0.00000000E+00  0.00000000E+00
  0.00000000E+00  0.00000000E+00  0.00000000E+00  0.00000000E+00  0.00000000E+00
  0.00000000E+00  0.00000000E+00  0.00000000E+00  0.00000000E+00  0.00000000E+00
  0.00000000E+00  0.00000000E+00  0.00000000E+00  0.00000000E+00  0.00000000E+00
  0.00000000E+00  0.00000000E+00  0.00000000E+00  0.00000000E+00  0.00000000E+00
  0.00000000E+00  0.00000000E+00  0.00000000E+00  0.00000000E+00  0.00000000E+00
  0.00000000E+00  0.00000000E+00  0.00000000E+00  0.00000000E+00  0.00000000E+00
  0.00000000E+00  0.00000000E+00  0.00000000E+00  0.00000000E+00  0.00000000E+00
  0.00000000E+00  0.00000000E+00  0.00000000E+00  0.00000000E+00  0.00000000E+00
  0.00000000E+00  0.00000000E+00  0.00000000E+00  0.00000000E+00  0.00000000E+00
  0.00000000E+00  0.00000000E+00  0.00000000E+00  0.00000000E+00  0.00000000E+00
  0.00000000E+00  0.00000000E+00  0.00000000E+00  0.00000000E+00  0.00000000E+00
  0.00000000E+00  0.00000000E+00  0.00000000E+00  0.00000000E+00  0.00000000E+00
  0.00000000E+00  0.00000000E+00  0.00000000E+00  0.00000000E+00  0.00000000E+00
  0.00000000E+00  0.00000000E+00  0.00000000E+00  0.00000000E+00  0.00000000E+00
  0.00000000E+00  0.00000000E+00  0.00000000E+00  0.00000000E+00  0.00000000E+00
  0.00000000E+00  0.00000000E+00  0.00000000E+00  0.00000000E+00  0.00000000E+00
  0.00000000E+00  0.00000000E+00  0.00000000E+00  0.00000000E+00  0.00000000E+00
  0.00000000E+00  0.00000000E+00  0.00000000E+00  0.00000000E+00  0.00000000E+00
  0.00000000E+00  0.00000000E+00  0.00000000E+00  0.00000000E+00  0.00000000E+00
  1.90440000E+00  1.36430000E+00  4.84000000E-01  7.31600000E+00  9.24030000E+00
  8.78200000E+00  5.61290000E+00  4.83340000E+00  3.24870000E+00  2.71090000E+00
  2.01130000E+00  1.50282000E+01  1.46788000E+01  2.13546000E+01  2.38290000E+01
  1.98022000E+01  1.50468000E+01  1.09745000E+01  1.27219000E+01  1.51949000E+01
  1.57342000E+01  2.79222000E+01  1.61366000E+01  2.21252000E+01  2.45676000E+01
  1.96016000E+01  1.79818000E+01  1.72396000E+01  5.01500000E+00  1.92898000E+01
  2.34477000E+01  2.23993000E+01  2.96586000E+01  2.60081000E+01  2.15580000E+01
  1.69594000E+01  1.56479000E+01  1.86897000E+01  1.93530000E+01  3.43444000E+01
  1.98480000E+01  2.72140000E+01  3.02182000E+01  2.41099000E+01  2.21176000E+01
  2.12047000E+01  7.56690000E+00  2.37264000E+01  2.93879000E+01  3.01278000E+01
  4.19382000E+01  3.85203000E+01  3.39511000E+01  2.75774000E+01  1.56460000E+01
  1.04460000E+01  2.01830000E+01  4.99540000E+01  4.76430000E+01  1.18690000E+01
  1.08670000E+01  9.96100000E+00  9.18700000E+00  3.67980000E+01  1.34070000E+01
  9.38200000E+00  9.81700000E+00  8.90800000E+00  8.40700000E+00  8.05800000E+00
  1.29600000E+01  2.67920000E+01  2.49300000E+01  3.45630000E+01  1.11860000E+01
  1.09440000E+01  1.01270000E+01  9.40400000E+00  1.36660000E+01  7.81000000E+00
  6.93600000E+01  5.86630000E+01  4.79690000E+01  4.52740000E+01  3.92290000E+01
  3.30660000E+01  0.00000000E+00  0.00000000E+00  0.00000000E+00  0.00000000E+00
  0.00000000E+00  0.00000000E+00  0.00000000E+00  0.00000000E+00  0.00000000E+00
  0.00000000E+00  0.00000000E+00  0.00000000E+00  0.00000000E+00  0.00000000E+00
  0.00000000E+00  0.00000000E+00  0.00000000E+00  0.00000000E+00  0.00000000E+00
  0.00000000E+00  0.00000000E+00  0.00000000E+00  0.00000000E+00  0.00000000E+00
  0.00000000E+00  0.00000000E+00  0.00000000E+00  0.00000000E+00  0.00000000E+00
  0.00000000E+00  0.00000000E+00  0.00000000E+00  0.00000000E+00  0.00000000E+00
  0.00000000E+00  0.00000000E+00  0.00000000E+00  0.00000000E+00  0.00000000E+00
  0.00000000E+00  0.00000000E+00  0.00000000E+00  0.00000000E+00  0.00000000E+00
  0.00000000E+00  0.00000000E+00  0.00000000E+00  0.00000000E+00  0.00000000E+00
  0.00000000E+00  0.00000000E+00  0.00000000E+00  0.00000000E+00  0.00000000E+00
  0.00000000E+00  0.00000000E+00  0.00000000E+00  0.00000000E+00  0.00000000E+00
  0.00000000E+00  0.00000000E+00  0.00000000E+00  0.00000000E+00  0.00000000E+00
  0.00000000E+00  0.00000000E+00  0.00000000E+00  0.00000000E+00  0.00000000E+00
  0.00000000E+00  0.00000000E+00  0.00000000E+00  0.00000000E+00  0.00000000E+00
  0.00000000E+00  0.00000000E+00  0.00000000E+00  0.00000000E+00  0.00000000E+00
  0.00000000E+00  0.00000000E+00  0.00000000E+00  0.00000000E+00  0.00000000E+00
  0.00000000E+00  0.00000000E+00  0.00000000E+00  0.00000000E+00  0.00000000E+00
  0.00000000E+00  0.00000000E+00  0.00000000E+00  0.00000000E+00  0.00000000E+00
  0.00000000E+00  0.00000000E+00  0.00000000E+00  0.00000000E+00  0.00000000E+00
  0.00000000E+00  0.00000000E+00  0.00000000E+00  0.00000000E+00  0.00000000E+00
  0.00000000E+00  0.00000000E+00  0.00000000E+00  0.00000000E+00  0.00000000E+00
  0.00000000E+00  0.00000000E+00  0.00000000E+00  0.00000000E+00  0.00000000E+00
  0.00000000E+00  0.00000000E+00  0.00000000E+00  0.00000000E+00  0.00000000E+00
  0.00000000E+00  0.00000000E+00  0.00000000E+00  0.00000000E+00  0.00000000E+00
  0.00000000E+00  0.00000000E+00  0.00000000E+00  0.00000000E+00  0.00000000E+00
  0.00000000E+00  0.00000000E+00  0.00000000E+00  0.00000000E+00  0.00000000E+00
  0.00000000E+00  0.00000000E+00  0.00000000E+00  0.00000000E+00  0.00000000E+00
  0.00000000E+00  0.00000000E+00  0.00000000E+00  0.00000000E+00  0.00000000E+00
  0.00000000E+00  0.00000000E+00  0.00000000E+00  0.00000000E+00  0.00000000E+00
  0.00000000E+00  0.00000000E+00  0.00000000E+00  0.00000000E+00  0.00000000E+00
  0.00000000E+00  0.00000000E+00  0.00000000E+00  0.00000000E+00  0.00000000E+00
  0.00000000E+00  0.00000000E+00  0.00000000E+00  0.00000000E+00  0.00000000E+00
  0.00000000E+00  0.00000000E+00  0.00000000E+00  0.00000000E+00  0.00000000E+00
  0.00000000E+00  0.00000000E+00  0.00000000E+00  0.00000000E+00  0.00000000E+00
  0.00000000E+00  0.00000000E+00  0.00000000E+00  0.00000000E+00  0.00000000E+00
  0.00000000E+00  0.00000000E+00  0.00000000E+00  0.00000000E+00  0.00000000E+00
  0.00000000E+00  0.00000000E+00  0.00000000E+00  0.00000000E+00  0.00000000E+00
  0.00000000E+00  0.00000000E+00  0.00000000E+00  0.00000000E+00  0.00000000E+00
  0.00000000E+00  0.00000000E+00  0.00000000E+00  0.00000000E+00  0.00000000E+00
  0.00000000E+00  0.00000000E+00  0.00000000E+00  0.00000000E+00  0.00000000E+00
  0.00000000E+00  0.00000000E+00  0.00000000E+00  0.00000000E+00  0.00000000E+00
  0.00000000E+00  0.00000000E+00  0.00000000E+00  0.00000000E+00  0.00000000E+00
  0.00000000E+00  0.00000000E+00  0.00000000E+00  0.00000000E+00  0.00000000E+00
  0.00000000E+00  0.00000000E+00  0.00000000E+00  0.00000000E+00  0.00000000E+00
  0.00000000E+00  0.00000000E+00  0.00000000E+00  0.00000000E+00  0.00000000E+00
  0.00000000E+00  0.00000000E+00  0.00000000E+00  0.00000000E+00  0.00000000E+00
  0.00000000E+00  0.00000000E+00  0.00000000E+00  0.00000000E+00  0.00000000E+00
  0.00000000E+00  0.00000000E+00  0.00000000E+00  0.00000000E+00  0.00000000E+00
  0.00000000E+00  0.00000000E+00  0.00000000E+00  0.00000000E+00  0.00000000E+00
  0.00000000E+00  0.00000000E+00  0.00000000E+00  0.00000000E+00  0.00000000E+00
  0.00000000E+00  0.00000000E+00  0.00000000E+00  0.00000000E+00  0.00000000E+00
  0.00000000E+00  0.00000000E+00  0.00000000E+00  0.00000000E+00  0.00000000E+00
  0.00000000E+00  0.00000000E+00  0.00000000E+00  0.00000000E+00  0.00000000E+00
  0.00000000E+00  0.00000000E+00  0.00000000E+00  0.00000000E+00  0.00000000E+00
  0.00000000E+00  0.00000000E+00  0.00000000E+00  0.00000000E+00  0.00000000E+00
  0.00000000E+00  0.00000000E+00  0.00000000E+00  0.00000000E+00  0.00000000E+00
  0.00000000E+00  0.00000000E+00  0.00000000E+00  0.00000000E+00  0.00000000E+00
  0.00000000E+00  0.00000000E+00  0.00000000E+00  0.00000000E+00  0.00000000E+00
  0.00000000E+00  0.00000000E+00  0.00000000E+00  0.00000000E+00  0.00000000E+00
  0.00000000E+00  0.00000000E+00  0.00000000E+00  0.00000000E+00  0.00000000E+00
  0.00000000E+00  0.00000000E+00  0.00000000E+00  0.00000000E+00  0.00000000E+00
  0.00000000E+00  0.00000000E+00  0.00000000E+00  0.00000000E+00  0.00000000E+00
  0.00000000E+00  0.00000000E+00  0.00000000E+00  0.00000000E+00  0.00000000E+00
  0.00000000E+00  0.00000000E+00  0.00000000E+00  0.00000000E+00  0.00000000E+00
  0.00000000E+00  0.00000000E+00  0.00000000E+00  0.00000000E+00  0.00000000E+00
  0.00000000E+00  0.00000000E+00  0.00000000E+00  0.00000000E+00  0.00000000E+00
  0.00000000E+00  0.00000000E+00  0.00000000E+00  0.00000000E+00  0.00000000E+00
  0.00000000E+00  0.00000000E+00  0.00000000E+00  0.00000000E+00  0.00000000E+00
  0.00000000E+00  0.00000000E+00  0.00000000E+00  0.00000000E+00  0.00000000E+00
  0.00000000E+00  0.00000000E+00  0.00000000E+00  0.00000000E+00  0.00000000E+00
  0.00000000E+00  0.00000000E+00  0.00000000E+00  0.00000000E+00  0.00000000E+00
  0.00000000E+00  0.00000000E+00  0.00000000E+00  0.00000000E+00  0.00000000E+00
  0.00000000E+00  0.00000000E+00  0.00000000E+00  0.00000000E+00  0.00000000E+00
  0.00000000E+00  0.00000000E+00  0.00000000E+00  0.00000000E+00  0.00000000E+00
  0.00000000E+00  0.00000000E+00  0.00000000E+00  0.00000000E+00  0.00000000E+00
  0.00000000E+00  0.00000000E+00  0.00000000E+00  0.00000000E+00  0.00000000E+00
  0.00000000E+00  0.00000000E+00  0.00000000E+00  0.00000000E+00  0.00000000E+00
  0.00000000E+00  0.00000000E+00  0.00000000E+00  0.00000000E+00  0.00000000E+00
  0.00000000E+00  0.00000000E+00  0.00000000E+00  0.00000000E+00  0.00000000E+00
  0.00000000E+00  0.00000000E+00  0.00000000E+00  0.00000000E+00  0.00000000E+00
  0.00000000E+00  0.00000000E+00  0.00000000E+00  0.00000000E+00  0.00000000E+00
  0.00000000E+00  0.00000000E+00  0.00000000E+00  0.00000000E+00  0.00000000E+00
  0.00000000E+00  0.00000000E+00  0.00000000E+00  0.00000000E+00  0.00000000E+00
  0.00000000E+00  0.00000000E+00  0.00000000E+00  0.00000000E+00  0.00000000E+00
  0.00000000E+00  0.00000000E+00  0.00000000E+00  0.00000000E+00  0.00000000E+00
  0.00000000E+00  0.00000000E+00  0.00000000E+00  0.00000000E+00  0.00000000E+00
  0.00000000E+00  0.00000000E+00  0.00000000E+00  0.00000000E+00  0.00000000E+00
  0.00000000E+00  0.00000000E+00  0.00000000E+00  0.00000000E+00  0.00000000E+00
  0.00000000E+00  0.00000000E+00  0.00000000E+00  0.00000000E+00  0.00000000E+00
  0.00000000E+00  0.00000000E+00  0.00000000E+00  0.00000000E+00  0.00000000E+00
  0.00000000E+00  0.00000000E+00  0.00000000E+00  0.00000000E+00  0.00000000E+00
  0.00000000E+00  0.00000000E+00  0.00000000E+00  0.00000000E+00  0.00000000E+00
  0.00000000E+00  0.00000000E+00  0.00000000E+00  0.00000000E+00  0.00000000E+00
  0.00000000E+00  0.00000000E+00  0.00000000E+00  0.00000000E+00  0.00000000E+00
  0.00000000E+00  0.00000000E+00  0.00000000E+00  0.00000000E+00  0.00000000E+00
  0.00000000E+00  0.00000000E+00  0.00000000E+00  0.00000000E+00  0.00000000E+00
  0.00000000E+00  0.00000000E+00  0.00000000E+00  0.00000000E+00  0.00000000E+00
  0.00000000E+00  0.00000000E+00  0.00000000E+00  0.00000000E+00  0.00000000E+00
  0.00000000E+00  0.00000000E+00  0.00000000E+00  0.00000000E+00  0.00000000E+00
  0.00000000E+00  0.00000000E+00  0.00000000E+00  0.00000000E+00  0.00000000E+00
  0.00000000E+00  0.00000000E+00  0.00000000E+00  0.00000000E+00  0.00000000E+00
  0.00000000E+00  0.00000000E+00  0.00000000E+00  0.00000000E+00  0.00000000E+00
  0.00000000E+00  0.00000000E+00  0.00000000E+00  0.00000000E+00  0.00000000E+00
  0.00000000E+00  0.00000000E+00  0.00000000E+00  0.00000000E+00  0.00000000E+00
  0.00000000E+00  0.00000000E+00  0.00000000E+00  0.00000000E+00  0.00000000E+00
  0.00000000E+00  0.00000000E+00  0.00000000E+00  0.00000000E+00  0.00000000E+00
  0.00000000E+00  0.00000000E+00  0.00000000E+00  0.00000000E+00  0.00000000E+00
  0.00000000E+00  0.00000000E+00  0.00000000E+00  0.00000000E+00  0.00000000E+00
  0.00000000E+00  0.00000000E+00  0.00000000E+00  0.00000000E+00  0.00000000E+00
  0.00000000E+00  0.00000000E+00  0.00000000E+00  0.00000000E+00  0.00000000E+00
  0.00000000E+00  0.00000000E+00  0.00000000E+00  0.00000000E+00  0.00000000E+00
  0.00000000E+00  0.00000000E+00  0.00000000E+00  0.00000000E+00  0.00000000E+00
  0.00000000E+00  0.00000000E+00  0.00000000E+00  0.00000000E+00  0.00000000E+00
  0.00000000E+00  0.00000000E+00  0.00000000E+00  0.00000000E+00  0.00000000E+00
  0.00000000E+00  0.00000000E+00  0.00000000E+00  0.00000000E+00  0.00000000E+00
  0.00000000E+00  0.00000000E+00  0.00000000E+00  0.00000000E+00  0.00000000E+00
  0.00000000E+00  0.00000000E+00  0.00000000E+00  0.00000000E+00  0.00000000E+00
  0.00000000E+00  0.00000000E+00  0.00000000E+00  0.00000000E+00  0.00000000E+00
  0.00000000E+00  0.00000000E+00  0.00000000E+00  0.00000000E+00  0.00000000E+00
  0.00000000E+00  0.00000000E+00  0.00000000E+00  0.00000000E+00  0.00000000E+00
  0.00000000E+00  0.00000000E+00  0.00000000E+00  0.00000000E+00  0.00000000E+00
  0.00000000E+00  0.00000000E+00  0.00000000E+00  0.00000000E+00  0.00000000E+00
  0.00000000E+00  0.00000000E+00  0.00000000E+00  0.00000000E+00  0.00000000E+00
  0.00000000E+00  0.00000000E+00  0.00000000E+00  0.00000000E+00  0.00000000E+00
  0.00000000E+00  0.00000000E+00  0.00000000E+00  0.00000000E+00  0.00000000E+00
  0.00000000E+00  0.00000000E+00  0.00000000E+00  0.00000000E+00  0.00000000E+00
  0.00000000E+00  0.00000000E+00  0.00000000E+00  0.00000000E+00  0.00000000E+00
  0.00000000E+00  0.00000000E+00  0.00000000E+00  0.00000000E+00  0.00000000E+00
  0.00000000E+00  0.00000000E+00  0.00000000E+00  0.00000000E+00  0.00000000E+00
  0.00000000E+00  0.00000000E+00  0.00000000E+00  0.00000000E+00  0.00000000E+00
  0.00000000E+00  0.00000000E+00  0.00000000E+00  0.00000000E+00  0.00000000E+00
  0.00000000E+00  0.00000000E+00  0.00000000E+00  0.00000000E+00  0.00000000E+00
  0.00000000E+00  0.00000000E+00  0.00000000E+00  0.00000000E+00  0.00000000E+00
  0.00000000E+00  0.00000000E+00  0.00000000E+00  0.00000000E+00  0.00000000E+00
  0.00000000E+00  0.00000000E+00  0.00000000E+00  0.00000000E+00  0.00000000E+00
  0.00000000E+00  0.00000000E+00  0.00000000E+00  0.00000000E+00  0.00000000E+00
  0.00000000E+00  0.00000000E+00  0.00000000E+00  0.00000000E+00  0.00000000E+00
  0.00000000E+00  0.00000000E+00  0.00000000E+00  0.00000000E+00  0.00000000E+00
  0.00000000E+00  0.00000000E+00  0.00000000E+00  0.00000000E+00  0.00000000E+00
  0.00000000E+00  0.00000000E+00  0.00000000E+00  0.00000000E+00  0.00000000E+00
  0.00000000E+00  0.00000000E+00  0.00000000E+00  0.00000000E+00  0.00000000E+00
  0.00000000E+00  0.00000000E+00  0.00000000E+00  0.00000000E+00  0.00000000E+00
  0.00000000E+00  0.00000000E+00  0.00000000E+00  0.00000000E+00  0.00000000E+00
  0.00000000E+00  0.00000000E+00  0.00000000E+00  0.00000000E+00  0.00000000E+00
  0.00000000E+00  0.00000000E+00  0.00000000E+00  0.00000000E+00  0.00000000E+00
  0.00000000E+00  0.00000000E+00  0.00000000E+00  0.00000000E+00  0.00000000E+00
  0.00000000E+00  0.00000000E+00  0.00000000E+00  0.00000000E+00  0.00000000E+00
  0.00000000E+00  0.00000000E+00  0.00000000E+00  0.00000000E+00  0.00000000E+00
  0.00000000E+00  0.00000000E+00  0.00000000E+00  0.00000000E+00  0.00000000E+00
  0.00000000E+00  0.00000000E+00  0.00000000E+00  0.00000000E+00  0.00000000E+00
  0.00000000E+00  0.00000000E+00  0.00000000E+00  0.00000000E+00  0.00000000E+00
  0.00000000E+00  0.00000000E+00  0.00000000E+00  0.00000000E+00  0.00000000E+00
  0.00000000E+00  0.00000000E+00  0.00000000E+00  0.00000000E+00  0.00000000E+00
  0.00000000E+00  0.00000000E+00  0.00000000E+00  0.00000000E+00  0.00000000E+00
  0.00000000E+00  0.00000000E+00  0.00000000E+00  0.00000000E+00  0.00000000E+00
  0.00000000E+00  0.00000000E+00  0.00000000E+00  0.00000000E+00  0.00000000E+00
  0.00000000E+00  0.00000000E+00  0.00000000E+00  0.00000000E+00  0.00000000E+00
  0.00000000E+00  0.00000000E+00  0.00000000E+00  0.00000000E+00  0.00000000E+00
  0.00000000E+00  0.00000000E+00  0.00000000E+00  0.00000000E+00  0.00000000E+00
  0.00000000E+00  0.00000000E+00  0.00000000E+00  0.00000000E+00  0.00000000E+00
  0.00000000E+00  0.00000000E+00  0.00000000E+00  0.00000000E+00  0.00000000E+00
  0.00000000E+00  0.00000000E+00  0.00000000E+00  0.00000000E+00  0.00000000E+00
  0.00000000E+00  0.00000000E+00  0.00000000E+00  0.00000000E+00  0.00000000E+00
  0.00000000E+00  0.00000000E+00  0.00000000E+00  0.00000000E+00  0.00000000E+00
  0.00000000E+00  0.00000000E+00  0.00000000E+00  0.00000000E+00  0.00000000E+00
  0.00000000E+00  0.00000000E+00  0.00000000E+00  0.00000000E+00  0.00000000E+00
  0.00000000E+00  0.00000000E+00  0.00000000E+00  0.00000000E+00  0.00000000E+00
  0.00000000E+00  0.00000000E+00  0.00000000E+00  0.00000000E+00  0.00000000E+00
  0.00000000E+00  0.00000000E+00  0.00000000E+00  0.00000000E+00  0.00000000E+00
  0.00000000E+00  0.00000000E+00  0.00000000E+00  0.00000000E+00  0.00000000E+00
  0.00000000E+00  0.00000000E+00  0.00000000E+00  0.00000000E+00  0.00000000E+00
  0.00000000E+00  0.00000000E+00  0.00000000E+00  0.00000000E+00  0.00000000E+00
  0.00000000E+00  0.00000000E+00  0.00000000E+00  0.00000000E+00  0.00000000E+00
  0.00000000E+00  0.00000000E+00  0.00000000E+00  0.00000000E+00  0.00000000E+00
  0.00000000E+00  0.00000000E+00  0.00000000E+00  0.00000000E+00  0.00000000E+00
  0.00000000E+00  0.00000000E+00  0.00000000E+00  0.00000000E+00  0.00000000E+00
  0.00000000E+00  0.00000000E+00  0.00000000E+00  0.00000000E+00  0.00000000E+00
  0.00000000E+00  0.00000000E+00  0.00000000E+00  0.00000000E+00  0.00000000E+00
  0.00000000E+00  0.00000000E+00  0.00000000E+00  0.00000000E+00  0.00000000E+00
  0.00000000E+00  0.00000000E+00  0.00000000E+00  0.00000000E+00  0.00000000E+00
  0.00000000E+00  0.00000000E+00  0.00000000E+00  0.00000000E+00  0.00000000E+00
  0.00000000E+00  0.00000000E+00  0.00000000E+00  0.00000000E+00  0.00000000E+00
  0.00000000E+00  0.00000000E+00  0.00000000E+00  0.00000000E+00  0.00000000E+00
  0.00000000E+00  0.00000000E+00  0.00000000E+00  0.00000000E+00  0.00000000E+00
  0.00000000E+00  0.00000000E+00  0.00000000E+00  0.00000000E+00  0.00000000E+00
  0.00000000E+00  0.00000000E+00  0.00000000E+00  0.00000000E+00  0.00000000E+00
  0.00000000E+00  0.00000000E+00  0.00000000E+00  0.00000000E+00  0.00000000E+00
  0.00000000E+00  0.00000000E+00  0.00000000E+00  0.00000000E+00  0.00000000E+00
  0.00000000E+00  0.00000000E+00  0.00000000E+00  0.00000000E+00  0.00000000E+00
  0.00000000E+00  0.00000000E+00  0.00000000E+00  0.00000000E+00  0.00000000E+00
  0.00000000E+00  0.00000000E+00  0.00000000E+00  0.00000000E+00  0.00000000E+00
  0.00000000E+00  0.00000000E+00  0.00000000E+00  0.00000000E+00  0.00000000E+00
  0.00000000E+00  0.00000000E+00  0.00000000E+00  0.00000000E+00  0.00000000E+00
  0.00000000E+00  0.00000000E+00  0.00000000E+00  0.00000000E+00  0.00000000E+00
  0.00000000E+00  0.00000000E+00  0.00000000E+00  0.00000000E+00  0.00000000E+00
  0.00000000E+00  0.00000000E+00  0.00000000E+00  0.00000000E+00  0.00000000E+00
  0.00000000E+00  0.00000000E+00  0.00000000E+00  0.00000000E+00  0.00000000E+00
  0.00000000E+00  0.00000000E+00  0.00000000E+00  0.00000000E+00  0.00000000E+00
  0.00000000E+00  0.00000000E+00  0.00000000E+00  0.00000000E+00  0.00000000E+00
  0.00000000E+00  0.00000000E+00  0.00000000E+00  0.00000000E+00  0.00000000E+00
  0.00000000E+00  0.00000000E+00  0.00000000E+00  0.00000000E+00  0.00000000E+00
  0.00000000E+00  0.00000000E+00  0.00000000E+00  0.00000000E+00  0.00000000E+00
  0.00000000E+00  0.00000000E+00  0.00000000E+00  0.00000000E+00  0.00000000E+00
  0.00000000E+00  0.00000000E+00  0.00000000E+00  0.00000000E+00  0.00000000E+00
  0.00000000E+00  0.00000000E+00  0.00000000E+00  0.00000000E+00  0.00000000E+00
  0.00000000E+00  0.00000000E+00  0.00000000E+00  0.00000000E+00  0.00000000E+00
  0.00000000E+00  0.00000000E+00  0.00000000E+00  0.00000000E+00  0.00000000E+00
  0.00000000E+00  0.00000000E+00  0.00000000E+00  0.00000000E+00  0.00000000E+00
  0.00000000E+00  0.00000000E+00  0.00000000E+00  0.00000000E+00  0.00000000E+00
  0.00000000E+00  0.00000000E+00  0.00000000E+00  0.00000000E+00  0.00000000E+00
  0.00000000E+00  0.00000000E+00  0.00000000E+00  0.00000000E+00  0.00000000E+00
  0.00000000E+00  0.00000000E+00  0.00000000E+00  0.00000000E+00  0.00000000E+00
  0.00000000E+00  0.00000000E+00  0.00000000E+00  0.00000000E+00  0.00000000E+00
  0.00000000E+00  0.00000000E+00  0.00000000E+00  0.00000000E+00  0.00000000E+00
  0.00000000E+00  0.00000000E+00  0.00000000E+00  0.00000000E+00  0.00000000E+00
  0.00000000E+00  0.00000000E+00  0.00000000E+00  0.00000000E+00  0.00000000E+00
  0.00000000E+00  0.00000000E+00  0.00000000E+00  0.00000000E+00  0.00000000E+00
  0.00000000E+00  0.00000000E+00  0.00000000E+00  0.00000000E+00  0.00000000E+00
  0.00000000E+00  0.00000000E+00  0.00000000E+00  0.00000000E+00  0.00000000E+00
  0.00000000E+00  0.00000000E+00  0.00000000E+00  0.00000000E+00  0.00000000E+00
  0.00000000E+00  0.00000000E+00  0.00000000E+00  0.00000000E+00  0.00000000E+00
  0.00000000E+00  0.00000000E+00  0.00000000E+00  0.00000000E+00  0.00000000E+00
  0.00000000E+00  0.00000000E+00  0.00000000E+00  0.00000000E+00  0.00000000E+00
  0.00000000E+00  0.00000000E+00  0.00000000E+00  0.00000000E+00  0.00000000E+00
  0.00000000E+00  0.00000000E+00  0.00000000E+00  0.00000000E+00  0.00000000E+00
  0.00000000E+00  0.00000000E+00  0.00000000E+00  0.00000000E+00  0.00000000E+00
  0.00000000E+00  0.00000000E+00  0.00000000E+00  0.00000000E+00  0.00000000E+00
  0.00000000E+00  0.00000000E+00  0.00000000E+00  0.00000000E+00  0.00000000E+00
  0.00000000E+00  0.00000000E+00  0.00000000E+00  0.00000000E+00  0.00000000E+00
  0.00000000E+00  0.00000000E+00  0.00000000E+00  0.00000000E+00  0.00000000E+00
  0.00000000E+00  0.00000000E+00  0.00000000E+00  0.00000000E+00  0.00000000E+00
  0.00000000E+00  0.00000000E+00  0.00000000E+00  0.00000000E+00  0.00000000E+00
  0.00000000E+00  0.00000000E+00  0.00000000E+00  0.00000000E+00  0.00000000E+00
  0.00000000E+00  0.00000000E+00  0.00000000E+00  0.00000000E+00  0.00000000E+00
  0.00000000E+00  0.00000000E+00  0.00000000E+00  0.00000000E+00  0.00000000E+00
  0.00000000E+00  0.00000000E+00  0.00000000E+00  0.00000000E+00  0.00000000E+00
  0.00000000E+00  0.00000000E+00  0.00000000E+00  0.00000000E+00  0.00000000E+00
  0.00000000E+00  0.00000000E+00  0.00000000E+00  0.00000000E+00  0.00000000E+00
  0.00000000E+00  0.00000000E+00  0.00000000E+00  0.00000000E+00  0.00000000E+00
  0.00000000E+00  0.00000000E+00  0.00000000E+00  0.00000000E+00  0.00000000E+00
  0.00000000E+00  0.00000000E+00  0.00000000E+00  0.00000000E+00  0.00000000E+00
  0.00000000E+00  0.00000000E+00  0.00000000E+00  0.00000000E+00  0.00000000E+00
  0.00000000E+00  0.00000000E+00  0.00000000E+00  0.00000000E+00  0.00000000E+00
  0.00000000E+00  0.00000000E+00  0.00000000E+00  0.00000000E+00  0.00000000E+00
  0.00000000E+00  0.00000000E+00  0.00000000E+00  0.00000000E+00  0.00000000E+00
  0.00000000E+00  0.00000000E+00  0.00000000E+00  0.00000000E+00  0.00000000E+00
  0.00000000E+00  0.00000000E+00  0.00000000E+00  0.00000000E+00  0.00000000E+00
  0.00000000E+00  0.00000000E+00  0.00000000E+00  0.00000000E+00  0.00000000E+00
  0.00000000E+00  0.00000000E+00  0.00000000E+00  0.00000000E+00  0.00000000E+00
  0.00000000E+00  0.00000000E+00  0.00000000E+00  0.00000000E+00  0.00000000E+00
  0.00000000E+00  0.00000000E+00  0.00000000E+00  0.00000000E+00  0.00000000E+00
  0.00000000E+00  0.00000000E+00  0.00000000E+00  0.00000000E+00  0.00000000E+00
  0.00000000E+00  0.00000000E+00  0.00000000E+00  0.00000000E+00  0.00000000E+00
  0.00000000E+00  0.00000000E+00  0.00000000E+00  0.00000000E+00  0.00000000E+00
  0.00000000E+00  0.00000000E+00  0.00000000E+00  0.00000000E+00  0.00000000E+00
  0.00000000E+00  0.00000000E+00  0.00000000E+00  0.00000000E+00  0.00000000E+00
  0.00000000E+00  0.00000000E+00  0.00000000E+00  0.00000000E+00  0.00000000E+00
  0.00000000E+00  0.00000000E+00  0.00000000E+00  0.00000000E+00  0.00000000E+00
  0.00000000E+00  0.00000000E+00  0.00000000E+00  0.00000000E+00  0.00000000E+00
  0.00000000E+00  0.00000000E+00  0.00000000E+00  0.00000000E+00  0.00000000E+00
  0.00000000E+00  0.00000000E+00  0.00000000E+00  0.00000000E+00  0.00000000E+00
  0.00000000E+00  0.00000000E+00  0.00000000E+00  0.00000000E+00  0.00000000E+00
  0.00000000E+00  0.00000000E+00  0.00000000E+00  0.00000000E+00  0.00000000E+00
  0.00000000E+00  0.00000000E+00  0.00000000E+00  0.00000000E+00  0.00000000E+00
  0.00000000E+00  0.00000000E+00  0.00000000E+00  0.00000000E+00  0.00000000E+00
  0.00000000E+00  0.00000000E+00  0.00000000E+00  0.00000000E+00  0.00000000E+00
  0.00000000E+00  0.00000000E+00  0.00000000E+00  0.00000000E+00  0.00000000E+00
  0.00000000E+00  0.00000000E+00  0.00000000E+00  0.00000000E+00  0.00000000E+00
  0.00000000E+00  0.00000000E+00  0.00000000E+00  0.00000000E+00  0.00000000E+00
  0.00000000E+00  0.00000000E+00  0.00000000E+00  0.00000000E+00  0.00000000E+00
  0.00000000E+00  0.00000000E+00  0.00000000E+00  0.00000000E+00  0.00000000E+00
  0.00000000E+00  0.00000000E+00  0.00000000E+00  0.00000000E+00  0.00000000E+00
  0.00000000E+00  0.00000000E+00  0.00000000E+00  0.00000000E+00  0.00000000E+00
  0.00000000E+00  0.00000000E+00  0.00000000E+00  0.00000000E+00  0.00000000E+00
  0.00000000E+00  0.00000000E+00  0.00000000E+00  0.00000000E+00  0.00000000E+00
  0.00000000E+00  0.00000000E+00  0.00000000E+00  0.00000000E+00  0.00000000E+00
  0.00000000E+00  0.00000000E+00  0.00000000E+00  0.00000000E+00  0.00000000E+00
  0.00000000E+00  0.00000000E+00  0.00000000E+00  0.00000000E+00  0.00000000E+00
  0.00000000E+00  0.00000000E+00  0.00000000E+00  0.00000000E+00  0.00000000E+00
  0.00000000E+00  0.00000000E+00  0.00000000E+00  0.00000000E+00  0.00000000E+00
  0.00000000E+00  0.00000000E+00  0.00000000E+00  0.00000000E+00  0.00000000E+00
  0.00000000E+00  0.00000000E+00  0.00000000E+00  0.00000000E+00  0.00000000E+00
  0.00000000E+00  0.00000000E+00  0.00000000E+00  0.00000000E+00  0.00000000E+00
  0.00000000E+00  0.00000000E+00  0.00000000E+00  0.00000000E+00  0.00000000E+00
  0.00000000E+00  0.00000000E+00  0.00000000E+00  0.00000000E+00  0.00000000E+00
  0.00000000E+00  0.00000000E+00  0.00000000E+00  0.00000000E+00  0.00000000E+00
  0.00000000E+00  0.00000000E+00  0.00000000E+00  0.00000000E+00  0.00000000E+00
  0.00000000E+00  0.00000000E+00  0.00000000E+00  0.00000000E+00  0.00000000E+00
  0.00000000E+00  0.00000000E+00  0.00000000E+00  0.00000000E+00  0.00000000E+00
  0.00000000E+00  0.00000000E+00  0.00000000E+00  0.00000000E+00  0.00000000E+00
  0.00000000E+00  0.00000000E+00  0.00000000E+00  0.00000000E+00  0.00000000E+00
  0.00000000E+00  0.00000000E+00  0.00000000E+00  0.00000000E+00  0.00000000E+00
  0.00000000E+00  0.00000000E+00  0.00000000E+00  0.00000000E+00  0.00000000E+00
  0.00000000E+00  0.00000000E+00  0.00000000E+00  0.00000000E+00  0.00000000E+00
  0.00000000E+00  0.00000000E+00  0.00000000E+00  0.00000000E+00  0.00000000E+00
  0.00000000E+00  0.00000000E+00  0.00000000E+00  0.00000000E+00  0.00000000E+00
  0.00000000E+00  0.00000000E+00  0.00000000E+00  0.00000000E+00  0.00000000E+00
  0.00000000E+00  0.00000000E+00  0.00000000E+00  0.00000000E+00  0.00000000E+00
  0.00000000E+00  0.00000000E+00  0.00000000E+00  0.00000000E+00  0.00000000E+00
  0.00000000E+00  0.00000000E+00  0.00000000E+00  0.00000000E+00  0.00000000E+00
  0.00000000E+00  0.00000000E+00  0.00000000E+00  0.00000000E+00  0.00000000E+00
  0.00000000E+00  0.00000000E+00  0.00000000E+00  0.00000000E+00  0.00000000E+00
  0.00000000E+00  0.00000000E+00  0.00000000E+00  0.00000000E+00  0.00000000E+00
  0.00000000E+00  0.00000000E+00  0.00000000E+00  0.00000000E+00  0.00000000E+00
  0.00000000E+00  0.00000000E+00  0.00000000E+00  0.00000000E+00  0.00000000E+00
  0.00000000E+00  0.00000000E+00  0.00000000E+00  0.00000000E+00  0.00000000E+00
  0.00000000E+00  0.00000000E+00  0.00000000E+00  0.00000000E+00  0.00000000E+00
  0.00000000E+00  0.00000000E+00  0.00000000E+00  0.00000000E+00  0.00000000E+00
  0.00000000E+00  0.00000000E+00  0.00000000E+00  0.00000000E+00  0.00000000E+00
  0.00000000E+00  0.00000000E+00  0.00000000E+00  0.00000000E+00  0.00000000E+00
  0.00000000E+00  0.00000000E+00  0.00000000E+00  0.00000000E+00  0.00000000E+00
  0.00000000E+00  0.00000000E+00  0.00000000E+00  0.00000000E+00  0.00000000E+00
  0.00000000E+00  0.00000000E+00  0.00000000E+00  0.00000000E+00  0.00000000E+00
  0.00000000E+00  0.00000000E+00  0.00000000E+00  0.00000000E+00  0.00000000E+00
  0.00000000E+00  0.00000000E+00  0.00000000E+00  0.00000000E+00  0.00000000E+00
  0.00000000E+00  0.00000000E+00  0.00000000E+00  0.00000000E+00  0.00000000E+00
  0.00000000E+00  0.00000000E+00  0.00000000E+00  0.00000000E+00  0.00000000E+00
  0.00000000E+00  0.00000000E+00  0.00000000E+00  0.00000000E+00  0.00000000E+00
  0.00000000E+00  0.00000000E+00  0.00000000E+00  0.00000000E+00  0.00000000E+00
  0.00000000E+00  0.00000000E+00  0.00000000E+00  0.00000000E+00  0.00000000E+00
  0.00000000E+00  0.00000000E+00  0.00000000E+00  0.00000000E+00  0.00000000E+00
  0.00000000E+00  0.00000000E+00  0.00000000E+00  0.00000000E+00  0.00000000E+00
  0.00000000E+00  0.00000000E+00  0.00000000E+00  0.00000000E+00  0.00000000E+00
  0.00000000E+00  0.00000000E+00  0.00000000E+00  0.00000000E+00  0.00000000E+00
  0.00000000E+00  0.00000000E+00  0.00000000E+00  0.00000000E+00  0.00000000E+00
  0.00000000E+00  0.00000000E+00  0.00000000E+00  0.00000000E+00  0.00000000E+00
  0.00000000E+00  0.00000000E+00  0.00000000E+00  0.00000000E+00  0.00000000E+00
  0.00000000E+00  0.00000000E+00  0.00000000E+00  0.00000000E+00  0.00000000E+00
  0.00000000E+00  0.00000000E+00  0.00000000E+00  0.00000000E+00  0.00000000E+00
  0.00000000E+00  0.00000000E+00  0.00000000E+00  0.00000000E+00  0.00000000E+00
  0.00000000E+00  0.00000000E+00  0.00000000E+00  0.00000000E+00  0.00000000E+00
  0.00000000E+00  0.00000000E+00  0.00000000E+00  0.00000000E+00  0.00000000E+00
  0.00000000E+00  0.00000000E+00  0.00000000E+00  0.00000000E+00  0.00000000E+00
  0.00000000E+00  0.00000000E+00  0.00000000E+00  0.00000000E+00  0.00000000E+00
  0.00000000E+00  0.00000000E+00  0.00000000E+00  0.00000000E+00  0.00000000E+00
  0.00000000E+00  0.00000000E+00  0.00000000E+00  0.00000000E+00  0.00000000E+00
  0.00000000E+00  0.00000000E+00  0.00000000E+00  0.00000000E+00  0.00000000E+00
  0.00000000E+00  0.00000000E+00  0.00000000E+00  0.00000000E+00  0.00000000E+00
  0.00000000E+00  0.00000000E+00  0.00000000E+00  0.00000000E+00  0.00000000E+00
  0.00000000E+00  0.00000000E+00  0.00000000E+00  0.00000000E+00  0.00000000E+00
  0.00000000E+00  0.00000000E+00  0.00000000E+00  0.00000000E+00  0.00000000E+00
  0.00000000E+00  0.00000000E+00  0.00000000E+00  0.00000000E+00  0.00000000E+00
  0.00000000E+00  0.00000000E+00  0.00000000E+00  0.00000000E+00  0.00000000E+00
  0.00000000E+00  0.00000000E+00  0.00000000E+00  0.00000000E+00  0.00000000E+00
  0.00000000E+00  0.00000000E+00  0.00000000E+00  0.00000000E+00  0.00000000E+00
  0.00000000E+00  0.00000000E+00  0.00000000E+00  0.00000000E+00  0.00000000E+00
  0.00000000E+00  0.00000000E+00  0.00000000E+00  0.00000000E+00  0.00000000E+00
  0.00000000E+00  0.00000000E+00  0.00000000E+00  0.00000000E+00  0.00000000E+00
  0.00000000E+00  0.00000000E+00  0.00000000E+00  0.00000000E+00  0.00000000E+00
  0.00000000E+00  0.00000000E+00  0.00000000E+00  0.00000000E+00  0.00000000E+00
  0.00000000E+00  0.00000000E+00  0.00000000E+00  0.00000000E+00  0.00000000E+00
  0.00000000E+00  0.00000000E+00  0.00000000E+00  0.00000000E+00  0.00000000E+00
  0.00000000E+00  0.00000000E+00  0.00000000E+00  0.00000000E+00  0.00000000E+00
  0.00000000E+00  0.00000000E+00  0.00000000E+00  0.00000000E+00  0.00000000E+00
  0.00000000E+00  0.00000000E+00  0.00000000E+00  0.00000000E+00  0.00000000E+00
  0.00000000E+00  0.00000000E+00  0.00000000E+00  0.00000000E+00  0.00000000E+00
  0.00000000E+00  0.00000000E+00  0.00000000E+00  0.00000000E+00  0.00000000E+00
  0.00000000E+00  0.00000000E+00  0.00000000E+00  0.00000000E+00  0.00000000E+00
  0.00000000E+00  0.00000000E+00  0.00000000E+00  0.00000000E+00  0.00000000E+00
  0.00000000E+00  0.00000000E+00  0.00000000E+00  0.00000000E+00  0.00000000E+00
  0.00000000E+00  0.00000000E+00  0.00000000E+00  0.00000000E+00  0.00000000E+00
  0.00000000E+00  0.00000000E+00  0.00000000E+00  0.00000000E+00  0.00000000E+00
  0.00000000E+00  0.00000000E+00  0.00000000E+00  0.00000000E+00  0.00000000E+00
  0.00000000E+00  0.00000000E+00  0.00000000E+00  0.00000000E+00  0.00000000E+00
  0.00000000E+00  0.00000000E+00  0.00000000E+00  0.00000000E+00  0.00000000E+00
  0.00000000E+00  0.00000000E+00  0.00000000E+00  0.00000000E+00  0.00000000E+00
  0.00000000E+00  0.00000000E+00  0.00000000E+00  0.00000000E+00  0.00000000E+00
  0.00000000E+00  0.00000000E+00  0.00000000E+00  0.00000000E+00  0.00000000E+00
  0.00000000E+00  0.00000000E+00  0.00000000E+00  0.00000000E+00  0.00000000E+00
  0.00000000E+00  0.00000000E+00  0.00000000E+00  0.00000000E+00  0.00000000E+00
  0.00000000E+00  0.00000000E+00  0.00000000E+00  0.00000000E+00  0.00000000E+00
  0.00000000E+00  0.00000000E+00  0.00000000E+00  0.00000000E+00  0.00000000E+00
  0.00000000E+00  0.00000000E+00  0.00000000E+00  0.00000000E+00  0.00000000E+00
  0.00000000E+00  0.00000000E+00  0.00000000E+00  0.00000000E+00  0.00000000E+00
  0.00000000E+00  0.00000000E+00  0.00000000E+00  0.00000000E+00  0.00000000E+00
  0.00000000E+00  0.00000000E+00  0.00000000E+00  0.00000000E+00  0.00000000E+00
  0.00000000E+00  0.00000000E+00  0.00000000E+00  0.00000000E+00  0.00000000E+00
  0.00000000E+00  0.00000000E+00  0.00000000E+00  0.00000000E+00  0.00000000E+00
  0.00000000E+00  0.00000000E+00  0.00000000E+00  0.00000000E+00  0.00000000E+00
  0.00000000E+00  0.00000000E+00  0.00000000E+00  0.00000000E+00  0.00000000E+00
  0.00000000E+00  0.00000000E+00  0.00000000E+00  0.00000000E+00  0.00000000E+00
  0.00000000E+00  0.00000000E+00  0.00000000E+00  0.00000000E+00  0.00000000E+00
Gaussian Version                           C   N=           2
EM64M-G16RevA.03        
