Title Card Required                                                     
Freq      RwB97XD                                                     6-311+G(2d)         
Number of atoms                            I                3
Info1-9                                    I   N=           9
          12          12        1002           0           0         100
           6          18        -802
Full Title                                 C   N=           2
Title Card Required     
Route                                      C   N=           3
# opt wb97xd/6-311+g(2d) freq       
Charge                                     I                0
Multiplicity                               I                1
Number of electrons                        I               24
Number of alpha electrons                  I               12
Number of beta electrons                   I               12
Number of basis functions                  I               81
Number of independent functions            I               81
Number of point charges in /Mol/           I                0
Number of translation vectors              I                0
Atomic numbers                             I   N=           3
           6           9           9
Nuclear charges                            R   N=           3
  6.00000000E+00  9.00000000E+00  9.00000000E+00
Current cartesian coordinates              R   N=           9
  0.00000000E+00  1.12385036E+00  0.00000000E+00  1.94178052E+00 -3.74628756E-01
  0.00000000E+00 -1.94178052E+00 -3.74604189E-01  0.00000000E+00
Number of symbols in /Mol/                 I                0
Int Atom Types                             I   N=           3
           0           0           0
Force Field                                I                0
Atom Types                                 C   N=           3
                                    
MM charges                                 R   N=           3
  0.00000000E+00  0.00000000E+00  0.00000000E+00
Integer atomic weights                     I   N=           3
          12          19          19
Real atomic weights                        R   N=           3
  1.20000000E+01  1.89984032E+01  1.89984032E+01
Atom fragment info                         I   N=           3
           0           0           0
Atom residue num                           I   N=           3
           0           0           0
Nuclear spins                              I   N=           3
           0           1           1
Nuclear ZEff                               R   N=           3
 -3.60000000E+00 -6.75000000E+00 -6.75000000E+00
Nuclear ZNuc                               R   N=           3
  6.00000000E+00  9.00000000E+00  9.00000000E+00
Nuclear QMom                               R   N=           3
  0.00000000E+00  0.00000000E+00  0.00000000E+00
Nuclear GFac                               R   N=           3
  0.00000000E+00  2.62886700E+00  2.62886700E+00
MicOpt                                     I   N=           3
          -1          -1          -1
Number of residues                         I                0
Number of secondary structures             I                0
Redundant internal dimensions              I   N=           4
           3           2           1           0
Redundant internal coordinate indices      I   N=          12
           1           2           0           0           1           3
           0           0           2           1           3           0
Redundant internal coordinates             R   N=           3
  2.45274362E+00  2.45272861E+00  1.82710585E+00
ZRed-IntVec                                I   N=           3
           0           0           0
ZRed-FPVec                                 R   N=           3
  0.00000000E+00  0.00000000E+00  0.00000000E+00
ZRed-Constraint1                           R   N=           3
  2.45274362E+00  2.45272861E+00  1.82710585E+00
ZRed-Constraint2                           R   N=           3
  2.45274362E+00  2.45272861E+00  1.82710585E+00
SymInf integers                            I   N=          26
           1           2           1           1           1           1
           1          -1           0           0           0           0
           0           0           0           0           0           0
           0           0           0           0           0           0
           0           0
RotTr to input orientation                 R   N=          12
  1.00000000E+00  0.00000000E+00  0.00000000E+00  0.00000000E+00  1.00000000E+00
  0.00000000E+00  0.00000000E+00  0.00000000E+00  1.00000000E+00 -0.00000000E+00
  2.36215766E-07 -0.00000000E+00
Number of contracted shells                I               21
Number of primitive shells                 I               42
Pure/Cartesian d shells                    I                0
Pure/Cartesian f shells                    I                0
Highest angular momentum                   I                2
Largest degree of contraction              I                6
Shell types                                I   N=          21
           0          -1          -1          -1          -1          -2
          -2           0          -1          -1          -1          -1
          -2          -2           0          -1          -1          -1
          -1          -2          -2
Number of primitives per shell             I   N=          21
           6           3           1           1           1           1
           1           6           3           1           1           1
           1           1           6           3           1           1
           1           1           1
Shell to atom map                          I   N=          21
           1           1           1           1           1           1
           1           2           2           2           2           2
           2           2           3           3           3           3
           3           3           3
Primitive exponents                        R   N=          42
  4.56324000E+03  6.82024000E+02  1.54973000E+02  4.44553000E+01  1.30290000E+01
  1.82773000E+00  2.09642000E+01  4.80331000E+00  1.45933000E+00  4.83456000E-01
  1.45585000E-01  4.38000000E-02  1.25200000E+00  3.13000000E-01  1.14271000E+04
  1.72235000E+03  3.95746000E+02  1.15139000E+02  3.36026000E+01  4.91901000E+00
  5.54441000E+01  1.26323000E+01  3.71756000E+00  1.16545000E+00  3.21892000E-01
  1.07600000E-01  3.50000000E+00  8.75000000E-01  1.14271000E+04  1.72235000E+03
  3.95746000E+02  1.15139000E+02  3.36026000E+01  4.91901000E+00  5.54441000E+01
  1.26323000E+01  3.71756000E+00  1.16545000E+00  3.21892000E-01  1.07600000E-01
  3.50000000E+00  8.75000000E-01
Contraction coefficients                   R   N=          42
  1.96665025E-03  1.52306019E-02  7.61269097E-02  2.60801033E-01  6.16462078E-01
  2.21006028E-01  1.14660081E-01  9.19999648E-01 -3.03068213E-03  1.00000000E+00
  1.00000000E+00  1.00000000E+00  1.00000000E+00  1.00000000E+00  1.80093016E-03
  1.37419012E-02  6.81334059E-02  2.33325020E-01  5.89086051E-01  2.99505026E-01
  1.14536016E-01  9.20512125E-01 -3.37804046E-03  1.00000000E+00  1.00000000E+00
  1.00000000E+00  1.00000000E+00  1.00000000E+00  1.80093016E-03  1.37419012E-02
  6.81334059E-02  2.33325020E-01  5.89086051E-01  2.99505026E-01  1.14536016E-01
  9.20512125E-01 -3.37804046E-03  1.00000000E+00  1.00000000E+00  1.00000000E+00
  1.00000000E+00  1.00000000E+00
P(S=P) Contraction coefficients            R   N=          42
  0.00000000E+00  0.00000000E+00  0.00000000E+00  0.00000000E+00  0.00000000E+00
  0.00000000E+00  4.02486927E-02  2.37593957E-01  8.15853851E-01  1.00000000E+00
  1.00000000E+00  1.00000000E+00  0.00000000E+00  0.00000000E+00  0.00000000E+00
  0.00000000E+00  0.00000000E+00  0.00000000E+00  0.00000000E+00  0.00000000E+00
  3.54608874E-02  2.37450915E-01  8.20457708E-01  1.00000000E+00  1.00000000E+00
  1.00000000E+00  0.00000000E+00  0.00000000E+00  0.00000000E+00  0.00000000E+00
  0.00000000E+00  0.00000000E+00  0.00000000E+00  0.00000000E+00  3.54608874E-02
  2.37450915E-01  8.20457708E-01  1.00000000E+00  1.00000000E+00  1.00000000E+00
  0.00000000E+00  0.00000000E+00
Coordinates of each shell                  R   N=          63
  0.00000000E+00  1.12385013E+00  0.00000000E+00  0.00000000E+00  1.12385013E+00
  0.00000000E+00  0.00000000E+00  1.12385013E+00  0.00000000E+00  0.00000000E+00
  1.12385013E+00  0.00000000E+00  0.00000000E+00  1.12385013E+00  0.00000000E+00
  0.00000000E+00  1.12385013E+00  0.00000000E+00  0.00000000E+00  1.12385013E+00
  0.00000000E+00  1.94178052E+00 -3.74628992E-01  0.00000000E+00  1.94178052E+00
 -3.74628992E-01  0.00000000E+00  1.94178052E+00 -3.74628992E-01  0.00000000E+00
  1.94178052E+00 -3.74628992E-01  0.00000000E+00  1.94178052E+00 -3.74628992E-01
  0.00000000E+00  1.94178052E+00 -3.74628992E-01  0.00000000E+00  1.94178052E+00
 -3.74628992E-01  0.00000000E+00 -1.94178052E+00 -3.74604425E-01  0.00000000E+00
 -1.94178052E+00 -3.74604425E-01  0.00000000E+00 -1.94178052E+00 -3.74604425E-01
  0.00000000E+00 -1.94178052E+00 -3.74604425E-01  0.00000000E+00 -1.94178052E+00
 -3.74604425E-01  0.00000000E+00 -1.94178052E+00 -3.74604425E-01  0.00000000E+00
 -1.94178052E+00 -3.74604425E-01  0.00000000E+00
Num ILSW                                   I              100
ILSW                                       I   N=         100
           0           0           0           0           2           0
           0           0           0           0        4639          -1
           5           0           0           0           2           0
           0           0           1           0           1           0
           1           0           0           0           0           0
           0           0      100000           0          -1           0
           0           0           0           0           0           0
           0           0           0           1           0           0
           0 -2000000000           1           0           0           0
           0           0         121          52           0           0
           0           0          58           0           0           0
           0           0           0           0           0           1
           0           0           0           0           0           0
           0           0           0           0           0           0
           0           0           0           0           0           0
           0           0           0           0           0           0
           0           0           0           0
Num RLSW                                   I               52
RLSW                                       R   N=          52
  1.00000000E+00  1.00000000E+00  1.00000000E+00  1.00000000E+00  1.00000000E+00
  0.00000000E+00  2.00000000E-01  2.22036000E-01  0.00000000E+00  7.77964000E-01
  0.00000000E+00  2.00000000E-01  0.00000000E+00  0.00000000E+00  1.00000000E+00
  0.00000000E+00  0.00000000E+00  1.00000000E+00  0.00000000E+00  0.00000000E+00
  0.00000000E+00  0.00000000E+00  1.00000000E+00  0.00000000E+00  0.00000000E+00
  0.00000000E+00  0.00000000E+00  1.00000000E+00  0.00000000E+00  0.00000000E+00
  0.00000000E+00  0.00000000E+00  1.00000000E+00  0.00000000E+00  0.00000000E+00
  0.00000000E+00  0.00000000E+00  0.00000000E+00  1.00000000E+00  1.00000000E+00
  0.00000000E+00  1.00000000E+00  0.00000000E+00  0.00000000E+00  0.00000000E+00
  0.00000000E+00  0.00000000E+00  0.00000000E+00  0.00000000E+00  0.00000000E+00
  0.00000000E+00  0.00000000E+00
MxBond                                     I                2
NBond                                      I   N=           3
           2           1           1
IBond                                      I   N=           6
           2           3           1           0           1           0
RBond                                      R   N=           6
  1.00000000E+00  1.00000000E+00  1.00000000E+00  0.00000000E+00  1.00000000E+00
  0.00000000E+00
Virial Ratio                               R      2.002358523870623E+00
SCF Energy                                 R     -2.377085679377926E+02
Total Energy                               R     -2.377085679377926E+02
RMS Force                                  R      3.398225109141584E-06
RMS Density                                R      7.493932247797686E-10
NImag                                      I                0
Job Status                                 I                1
Nuclear derivative order                   I                2
External E-field                           R   N=          35
  0.00000000E+00  0.00000000E+00  0.00000000E+00  0.00000000E+00  0.00000000E+00
  0.00000000E+00  0.00000000E+00  0.00000000E+00  0.00000000E+00  0.00000000E+00
  0.00000000E+00  0.00000000E+00  0.00000000E+00  0.00000000E+00  0.00000000E+00
  0.00000000E+00  0.00000000E+00  0.00000000E+00  0.00000000E+00  0.00000000E+00
  0.00000000E+00  0.00000000E+00  0.00000000E+00  0.00000000E+00  0.00000000E+00
  0.00000000E+00  0.00000000E+00  0.00000000E+00  0.00000000E+00  0.00000000E+00
  0.00000000E+00  0.00000000E+00  0.00000000E+00  0.00000000E+00  0.00000000E+00
IOpCl                                      I                0
IROHF                                      I                0
Alpha Orbital Energies                     R   N=          81
 -2.48953013E+01 -2.48952931E+01 -1.04982028E+01 -1.45923984E+00 -1.38062911E+00
 -8.17663674E-01 -7.09355943E-01 -6.61744376E-01 -6.55829889E-01 -5.81560859E-01
 -5.54981083E-01 -4.01602762E-01 -1.66924170E-02  8.70606588E-02  1.02518804E-01
  1.14780220E-01  1.14838665E-01  2.70835195E-01  2.85290282E-01  2.89043837E-01
  3.18712308E-01  3.19579625E-01  3.29026154E-01  3.32745554E-01  3.79852786E-01
  3.96521556E-01  4.72959392E-01  5.86809076E-01  5.89266732E-01  6.79711397E-01
  8.14834004E-01  8.22749310E-01  8.38645853E-01  9.49654449E-01  1.13797335E+00
  1.21582533E+00  1.28882473E+00  1.34795702E+00  1.36611962E+00  1.37165281E+00
  1.39484676E+00  1.48470975E+00  1.85966435E+00  1.94141737E+00  2.02095466E+00
  2.03699086E+00  2.06306248E+00  2.11110059E+00  2.28465458E+00  2.30567002E+00
  2.31298387E+00  2.46059431E+00  2.70612361E+00  2.83399900E+00  2.86646537E+00
  3.21513149E+00  3.29229937E+00  3.34374350E+00  3.34983659E+00  3.42940770E+00
  3.64606386E+00  4.21767960E+00  6.32358586E+00  6.32941212E+00  6.33559952E+00
  6.40187384E+00  6.54906456E+00  6.81555751E+00  9.05632893E+00  9.06407920E+00
  9.08052502E+00  9.09098912E+00  9.25759345E+00  9.29491528E+00  9.30643923E+00
  9.43915915E+00  9.65357399E+00  9.75935935E+00  2.39370607E+01  6.68544044E+01
  6.68733546E+01
Alpha MO coefficients                      R   N=        6561
  8.50697672E-06 -3.33009975E-05  6.39288180E-05  2.02913601E-05  0.00000000E+00
  8.03011916E-05 -1.65414793E-03 -3.17801426E-04  0.00000000E+00  1.81383546E-03
 -1.12835173E-03 -7.97341313E-04  0.00000000E+00 -2.12937688E-04  7.50385554E-04
  1.64604251E-04  0.00000000E+00  5.74688535E-06  0.00000000E+00  0.00000000E+00
  1.20537114E-05  1.30454026E-04 -2.81883619E-04  0.00000000E+00  0.00000000E+00
  3.77561839E-05  9.95716709E-04 -2.93404343E-01 -2.52606515E-01  3.84961197E-04
 -2.81175142E-04  0.00000000E+00 -6.35290160E-03  8.17224546E-06  7.72522488E-05
  0.00000000E+00  4.39909952E-03 -8.18874340E-04  6.20560787E-04  0.00000000E+00
 -3.06944393E-03  9.83282904E-04 -2.94590366E-04  0.00000000E+00  5.97978689E-05
  0.00000000E+00  0.00000000E+00 -4.02302995E-05  1.08351309E-04 -1.77154376E-04
  0.00000000E+00  0.00000000E+00  8.65580392E-05 -3.10400210E-04  4.62791140E-01
  3.98435540E-01  6.19516791E-04  4.37285305E-04  0.00000000E+00  1.00949336E-02
 -3.50161404E-05 -1.01348987E-04  0.00000000E+00 -7.59051098E-03 -1.59496824E-03
 -1.05165242E-03  0.00000000E+00  3.04592092E-03  7.57630805E-04  1.36863066E-04
  0.00000000E+00 -8.93538351E-05  0.00000000E+00  0.00000000E+00  5.98663432E-05
  1.68412195E-04  2.77451500E-04  0.00000000E+00  0.00000000E+00 -1.54421957E-04
 -4.68230829E-04  3.79785651E-05 -1.48668047E-04 -1.43230443E-05  9.05965839E-05
  0.00000000E+00  3.58398082E-04  3.70514792E-04 -1.41876431E-03  0.00000000E+00
  8.09731828E-03  2.52699231E-04 -3.55951117E-03  0.00000000E+00 -9.50641159E-04
 -1.68082572E-04  7.34861638E-04  0.00000000E+00  2.56431671E-05  0.00000000E+00
  0.00000000E+00  5.38123516E-05 -2.92265096E-05 -1.25839950E-03  0.00000000E+00
  0.00000000E+00  1.68507368E-04 -2.23039497E-04  4.62791828E-01  3.98429996E-01
 -6.36038542E-04  4.28925418E-04  0.00000000E+00  1.01949432E-02  9.93957109E-05
 -7.37795268E-05  0.00000000E+00 -8.46643476E-03  2.00265516E-03 -1.14955399E-03
  0.00000000E+00  6.32528601E-04  3.08674554E-04 -3.03706173E-04  0.00000000E+00
 -8.26770957E-05  0.00000000E+00  0.00000000E+00  5.50346267E-05 -1.65061668E-04
  2.74791286E-04  0.00000000E+00  0.00000000E+00 -1.78455492E-04  4.39507299E-04
  2.93405425E-01  2.52597769E-01  4.11047223E-04  2.67992399E-04  0.00000000E+00
  6.51066342E-03 -9.33871377E-05 -3.37743185E-05  0.00000000E+00 -5.78082648E-03
 -1.46197509E-03 -7.74970310E-04  0.00000000E+00 -7.37393048E-04 -6.98669228E-04
 -4.00366264E-04  0.00000000E+00 -4.92681605E-05  0.00000000E+00  0.00000000E+00
  3.26157062E-05  1.03066779E-04  1.72961847E-04  0.00000000E+00  0.00000000E+00
 -1.24483090E-04 -2.65090361E-04  5.63958113E-01  4.63405012E-01 -3.79515410E-08
 -3.36234643E-03  0.00000000E+00  1.50493093E-02 -8.94848422E-08 -1.34187390E-03
  0.00000000E+00 -1.17457644E-02  3.93514433E-09  1.73328170E-03  0.00000000E+00
 -3.12146048E-04  2.21000338E-09  5.71496718E-05  0.00000000E+00 -9.20792599E-04
  0.00000000E+00  0.00000000E+00  3.30616362E-04  2.83873603E-08 -1.87172110E-04
  0.00000000E+00  0.00000000E+00  1.81240193E-04  2.52695725E-08 -4.73919163E-05
 -1.15619527E-04 -2.03033684E-04  1.34760248E-04  0.00000000E+00  9.39038788E-04
  9.37315930E-05  4.40216269E-05  0.00000000E+00 -2.23376644E-03  1.49371092E-03
 -1.48105762E-03  0.00000000E+00  4.12960826E-03 -1.93975318E-03  1.74907096E-03
  0.00000000E+00 -1.53509724E-04  0.00000000E+00  0.00000000E+00  6.24568409E-05
 -2.58653007E-04  6.78975408E-04  0.00000000E+00  0.00000000E+00 -2.62804320E-04
  1.11982086E-03 -4.73938492E-05 -1.15622638E-04  2.03046461E-04  1.34768159E-04
  0.00000000E+00  9.39068001E-04 -9.37557846E-05  4.40020937E-05  0.00000000E+00
 -2.23393849E-03 -1.49381260E-03 -1.48111507E-03  0.00000000E+00  4.12972633E-03
  1.93982484E-03  1.74908667E-03  0.00000000E+00 -1.53512575E-04  0.00000000E+00
  0.00000000E+00  6.24623653E-05  2.58657047E-04  6.78997962E-04  0.00000000E+00
  0.00000000E+00 -2.62831617E-04 -1.11985570E-03 -4.81644979E-02 -7.41003613E-02
 -3.60364008E-06 -5.44523981E-02  0.00000000E+00  1.92641897E-01 -3.63876521E-06
 -6.57466157E-02  0.00000000E+00 -4.63786207E-02  6.71358423E-08  3.42733586E-02
  0.00000000E+00  1.27561231E-02 -4.61685695E-07 -1.05710099E-02  0.00000000E+00
 -1.38218380E-02  0.00000000E+00  0.00000000E+00  2.91680215E-03  1.02257946E-06
  4.08175903E-03  0.00000000E+00  0.00000000E+00 -5.82927235E-03  6.45687282E-07
 -8.13297042E-02 -1.31866741E-01 -3.31806725E-02  1.87047492E-02  0.00000000E+00
  3.89279946E-01 -5.48425993E-02  3.18332806E-02  0.00000000E+00  3.10497094E-01
 -3.88790485E-02  2.36996203E-02  0.00000000E+00  4.74998100E-04 -4.59261806E-03
  2.42342537E-03  0.00000000E+00 -1.09064088E-03  0.00000000E+00  0.00000000E+00
  1.11142955E-03 -1.73403369E-03 -5.38693912E-03  0.00000000E+00  0.00000000E+00
  3.40148298E-03 -1.05103235E-02 -8.13363877E-02 -1.31877603E-01  3.31829370E-02
  1.87063016E-02  0.00000000E+00  3.89312321E-01  5.48464606E-02  3.18359375E-02
  0.00000000E+00  3.10521030E-01  3.88811340E-02  2.37007417E-02  0.00000000E+00
  4.72338866E-04  4.59186359E-03  2.42320011E-03  0.00000000E+00 -1.09072194E-03
  0.00000000E+00  0.00000000E+00  1.11147825E-03  1.73420911E-03 -5.38735727E-03
  0.00000000E+00  0.00000000E+00  3.40191583E-03  1.05110484E-02 -1.43383848E-06
 -2.24694459E-06  7.23378324E-02 -1.84811435E-06  0.00000000E+00  6.03535906E-06
  7.97741154E-02 -2.42897405E-06  0.00000000E+00 -1.31377313E-06  1.21039869E-02
  1.05764247E-06  0.00000000E+00  5.03133125E-07  1.09682641E-02 -4.46415621E-07
  0.00000000E+00 -4.07636532E-07  0.00000000E+00  0.00000000E+00 -1.42958065E-07
 -2.25682435E-02  2.07564854E-07  0.00000000E+00  0.00000000E+00 -4.11162853E-07
 -1.41617038E-02 -8.89839405E-02 -1.44600478E-01 -1.96206918E-02  1.94380044E-02
  0.00000000E+00  4.30975102E-01 -3.47006104E-02  3.34890170E-02  0.00000000E+00
  3.31277330E-01 -2.40854942E-02  1.84741013E-02  0.00000000E+00 -4.66020410E-02
  1.63418226E-02 -5.87429567E-03  0.00000000E+00 -5.92764200E-04  0.00000000E+00
  0.00000000E+00 -7.24857289E-05 -1.75671571E-03 -5.06186018E-03  0.00000000E+00
  0.00000000E+00  3.16110036E-03 -9.66964056E-03  8.89776491E-02  1.44590283E-01
 -1.96186489E-02 -1.94368894E-02  0.00000000E+00 -4.30945080E-01 -3.46972389E-02
 -3.34870471E-02  0.00000000E+00 -3.31252273E-01 -2.40824891E-02 -1.84721466E-02
  0.00000000E+00  4.66019871E-02  1.63419816E-02  5.87415572E-03  0.00000000E+00
  5.92715891E-04  0.00000000E+00  0.00000000E+00  7.25319077E-05 -1.75665097E-03
  5.06143775E-03  0.00000000E+00  0.00000000E+00 -3.16096397E-03 -9.66881860E-03
 -7.78026370E-02 -1.24625255E-01 -2.63279728E-06 -6.22544475E-02  0.00000000E+00
  3.65780334E-01 -3.56200538E-06 -9.96457692E-02  0.00000000E+00  1.96915211E-01
 -9.88829286E-07 -1.28768847E-02  0.00000000E+00 -1.04524782E-02  1.62504516E-07
  5.40257262E-03  0.00000000E+00 -1.00315106E-02  0.00000000E+00  0.00000000E+00
  3.82009884E-05  5.49356044E-07 -4.34195697E-03  0.00000000E+00  0.00000000E+00
 -6.81770476E-03  6.79639239E-07  3.91206673E-02  6.43286080E-02 -1.39418503E-01
  8.43971041E-02  0.00000000E+00 -2.01400332E-01 -2.03734331E-01  1.22996453E-01
  0.00000000E+00 -2.11457248E-01 -1.34974774E-01  8.45318253E-02  0.00000000E+00
 -3.38503813E-02  2.44457564E-03 -5.03947750E-03  0.00000000E+00 -2.20406425E-03
  0.00000000E+00  0.00000000E+00  1.74349646E-03 -3.10523358E-03 -6.32680673E-03
  0.00000000E+00  0.00000000E+00  4.47707762E-03 -1.09586968E-02  3.91217004E-02
  6.43303065E-02  1.39425047E-01  8.44005782E-02  0.00000000E+00 -2.01405602E-01
  2.03743871E-01  1.23001530E-01  0.00000000E+00 -2.11464997E-01  1.34980550E-01
  8.45347059E-02  0.00000000E+00 -3.38517375E-02 -2.44462184E-03 -5.03944234E-03
  0.00000000E+00 -2.20417797E-03  0.00000000E+00  0.00000000E+00  1.74359191E-03
  3.10539793E-03 -6.32708386E-03  0.00000000E+00  0.00000000E+00  4.47736290E-03
  1.09590202E-02  8.78545734E-07  1.46658914E-06 -1.50856259E-01  2.51272298E-06
  0.00000000E+00 -4.24989940E-06 -2.13859011E-01  4.23262977E-06  0.00000000E+00
 -3.70782455E-06 -7.94015737E-02  1.60405793E-06  0.00000000E+00  1.62979050E-08
  2.63249763E-03  8.28835785E-08  0.00000000E+00  7.95592366E-08  0.00000000E+00
  0.00000000E+00  7.99536411E-07  2.67250294E-02  3.86900601E-08  0.00000000E+00
  0.00000000E+00  1.17201199E-06  3.31577655E-02 -2.14023874E-02 -3.51594682E-02
  1.18043545E-01 -1.59016089E-01  0.00000000E+00  1.10269371E-01  1.73836328E-01
 -2.33884423E-01  0.00000000E+00  1.43681167E-01  1.15887573E-01 -1.67277451E-01
  0.00000000E+00  5.05569256E-02 -1.45111996E-03 -1.72614844E-03  0.00000000E+00
  2.02056892E-03  0.00000000E+00  0.00000000E+00  9.11459043E-05  3.85814388E-03
  7.86126059E-03  0.00000000E+00  0.00000000E+00  1.91859835E-03  1.29438997E-02
  2.14011222E-02  3.51573743E-02  1.18036083E-01  1.59018925E-01  0.00000000E+00
 -1.10262582E-01  1.73825458E-01  2.33888615E-01  0.00000000E+00 -1.43675674E-01
  1.15878646E-01  1.67280539E-01  0.00000000E+00 -5.05551995E-02 -1.45109725E-03
  1.72668140E-03  0.00000000E+00 -2.02053891E-03  0.00000000E+00  0.00000000E+00
 -9.12476949E-05  3.85816902E-03 -7.86100622E-03  0.00000000E+00  0.00000000E+00
 -1.91925574E-03  1.29438075E-02  0.00000000E+00  0.00000000E+00  0.00000000E+00
  0.00000000E+00  1.09363284E-01  0.00000000E+00  0.00000000E+00  0.00000000E+00
  1.73769239E-01  0.00000000E+00  0.00000000E+00  0.00000000E+00  9.01403162E-02
  0.00000000E+00  0.00000000E+00  0.00000000E+00  1.08457459E-02  0.00000000E+00
 -8.10011163E-07 -1.70417172E-02  0.00000000E+00  0.00000000E+00  0.00000000E+00
 -9.11894862E-07 -3.10962600E-02  0.00000000E+00  0.00000000E+00  0.00000000E+00
  0.00000000E+00  0.00000000E+00  0.00000000E+00  1.96736512E-01  0.00000000E+00
  0.00000000E+00  0.00000000E+00  2.87640996E-01  0.00000000E+00  0.00000000E+00
  0.00000000E+00  2.38286647E-01  0.00000000E+00  0.00000000E+00  0.00000000E+00
  7.32473177E-03  0.00000000E+00 -2.26516145E-03  1.46587089E-03  0.00000000E+00
  0.00000000E+00  0.00000000E+00 -1.68436700E-02  1.08685826E-02  0.00000000E+00
  0.00000000E+00  0.00000000E+00  0.00000000E+00  0.00000000E+00  0.00000000E+00
  1.96748844E-01  0.00000000E+00  0.00000000E+00  0.00000000E+00  2.87659187E-01
  0.00000000E+00  0.00000000E+00  0.00000000E+00  2.38301599E-01  0.00000000E+00
  0.00000000E+00  0.00000000E+00  7.32537655E-03  0.00000000E+00  2.26529292E-03
  1.46594499E-03  0.00000000E+00  0.00000000E+00  0.00000000E+00  1.68447176E-02
  1.08691850E-02  0.00000000E+00  0.00000000E+00 -3.11801521E-02 -4.98087191E-02
  3.16618283E-06  7.95056256E-02  0.00000000E+00  1.47419842E-01  4.28465467E-06
  1.25247534E-01  0.00000000E+00  1.11176872E-01  1.81032138E-06  6.69258718E-02
  0.00000000E+00  2.48671826E-03 -3.96431597E-07  7.30522041E-03  0.00000000E+00
  1.66202625E-03  0.00000000E+00  0.00000000E+00  2.33763344E-02 -1.09051375E-06
  9.45517734E-03  0.00000000E+00  0.00000000E+00  3.63171451E-02 -1.18625584E-06
 -1.24229045E-03 -2.07117817E-03  1.19760065E-01  1.59796894E-01  0.00000000E+00
  6.64501239E-03  1.72691325E-01  2.34359189E-01  0.00000000E+00  1.18380447E-02
  1.40124421E-01  1.91374179E-01  0.00000000E+00 -3.25935187E-03  1.18297929E-02
  8.01241371E-03  0.00000000E+00  1.80116058E-04  0.00000000E+00  0.00000000E+00
 -2.64346279E-03 -8.15015062E-04  4.93580454E-04  0.00000000E+00  0.00000000E+00
 -1.53373313E-02 -7.73872432E-03 -1.24286875E-03 -2.07212561E-03 -1.19770129E-01
  1.59796754E-01  0.00000000E+00  6.64803246E-03 -1.72706221E-01  2.34358895E-01
  0.00000000E+00  1.18420496E-02 -1.40135966E-01  1.91374752E-01  0.00000000E+00
 -3.25640986E-03 -1.18291695E-02  8.01252956E-03  0.00000000E+00  1.80202517E-04
  0.00000000E+00  0.00000000E+00 -2.64354088E-03  8.14915541E-04  4.94006142E-04
  0.00000000E+00  0.00000000E+00 -1.53379634E-02  7.73840424E-03  0.00000000E+00
  0.00000000E+00  0.00000000E+00  0.00000000E+00  2.28043284E-06  0.00000000E+00
  0.00000000E+00  0.00000000E+00  4.01587460E-06  0.00000000E+00  0.00000000E+00
  0.00000000E+00  2.71495644E-06  0.00000000E+00  0.00000000E+00  0.00000000E+00
  2.50063719E-07  0.00000000E+00  1.94090688E-02 -3.67467875E-07  0.00000000E+00
  0.00000000E+00  0.00000000E+00  2.95647067E-02 -1.08153593E-06  0.00000000E+00
  0.00000000E+00  0.00000000E+00  0.00000000E+00  0.00000000E+00  0.00000000E+00
  2.28478725E-01  0.00000000E+00  0.00000000E+00  0.00000000E+00  3.33785206E-01
  0.00000000E+00  0.00000000E+00  0.00000000E+00  2.87746522E-01  0.00000000E+00
  0.00000000E+00  0.00000000E+00  2.67066206E-02  0.00000000E+00 -1.17515954E-03
  1.03286638E-03  0.00000000E+00  0.00000000E+00  0.00000000E+00 -1.40338220E-02
  1.03811211E-02  0.00000000E+00  0.00000000E+00  0.00000000E+00  0.00000000E+00
  0.00000000E+00  0.00000000E+00 -2.28467879E-01  0.00000000E+00  0.00000000E+00
  0.00000000E+00 -3.33769568E-01  0.00000000E+00  0.00000000E+00  0.00000000E+00
 -2.87733070E-01  0.00000000E+00  0.00000000E+00  0.00000000E+00 -2.67055231E-02
  0.00000000E+00 -1.17507903E-03 -1.03280743E-03  0.00000000E+00  0.00000000E+00
  0.00000000E+00 -1.40331622E-02 -1.03805963E-02  0.00000000E+00  0.00000000E+00
 -2.45565341E-07 -3.67072519E-07 -1.38648713E-02  9.03637290E-07  0.00000000E+00
  1.12153338E-06 -3.99641893E-03  1.83666674E-06  0.00000000E+00  9.53948197E-07
  1.20907260E-03  1.29802254E-06  0.00000000E+00  1.22927598E-07  2.05237133E-02
 -4.60321475E-08  0.00000000E+00  4.14409242E-08  0.00000000E+00  0.00000000E+00
  3.04770294E-07  1.70543514E-02  1.71691504E-07  0.00000000E+00  0.00000000E+00
  9.71123747E-07  1.58820686E-02  1.81898846E-03  3.08667699E-03  1.92691669E-01
  1.37249503E-01  0.00000000E+00 -9.87461042E-03  2.83662578E-01  1.97066381E-01
  0.00000000E+00 -1.58894382E-02  2.47798046E-01  1.77654569E-01  0.00000000E+00
  2.09956058E-02  1.40500041E-03  1.64028711E-02  0.00000000E+00  3.12144963E-04
  0.00000000E+00  0.00000000E+00 -1.11312157E-03  5.01105635E-04  3.06593682E-03
  0.00000000E+00  0.00000000E+00 -1.71631432E-02  2.57480764E-03 -1.81925200E-03
 -3.08712170E-03  1.92684846E-01 -1.37246077E-01  0.00000000E+00  9.87620375E-03
  2.83652923E-01 -1.97061489E-01  0.00000000E+00  1.58907302E-02  2.47789420E-01
 -1.77650745E-01  0.00000000E+00 -2.09958037E-02  1.40388865E-03 -1.64020754E-02
  0.00000000E+00 -3.12142347E-04  0.00000000E+00  0.00000000E+00  1.11306757E-03
  5.01119657E-04 -3.06579075E-03  0.00000000E+00  0.00000000E+00  1.71628314E-02
  2.57467086E-03 -7.45810042E-02 -1.21301138E-01  1.35090759E-06  1.92833220E-01
  0.00000000E+00  3.53434252E-01  1.22460121E-06  2.65996755E-01  0.00000000E+00
  6.43576839E-01 -3.86033664E-07  1.44902641E-01  0.00000000E+00  9.59698237E-02
  2.92048885E-08  6.71803398E-03  0.00000000E+00  1.70746800E-02  0.00000000E+00
  0.00000000E+00 -5.54005152E-03  2.49374345E-08  1.52579311E-02  0.00000000E+00
  0.00000000E+00  4.59039348E-03  4.74878886E-08  1.11582134E-02  1.87429042E-02
  1.81710641E-02 -1.26467319E-01  0.00000000E+00 -6.32358256E-02  3.12502890E-02
 -1.87151401E-01  0.00000000E+00 -1.00357501E-01  3.02736140E-02 -1.80030108E-01
  0.00000000E+00 -5.99077417E-02  9.00942334E-03 -5.09599467E-02  0.00000000E+00
  5.18637977E-04  0.00000000E+00  0.00000000E+00 -1.14227838E-03  5.46336267E-04
  3.27843751E-03  0.00000000E+00  0.00000000E+00 -3.63738300E-03  6.11132209E-03
  1.11582779E-02  1.87430239E-02 -1.81704527E-02 -1.26466426E-01  0.00000000E+00
 -6.32363543E-02 -3.12494752E-02 -1.87150180E-01  0.00000000E+00 -1.00358244E-01
 -3.02725343E-02 -1.80029059E-01  0.00000000E+00 -5.99100349E-02 -9.01013176E-03
 -5.09602281E-02  0.00000000E+00  5.18663287E-04  0.00000000E+00  0.00000000E+00
 -1.14232539E-03 -5.46345997E-04  3.27842085E-03  0.00000000E+00  0.00000000E+00
 -3.63745402E-03 -6.11119703E-03  0.00000000E+00  0.00000000E+00  0.00000000E+00
  0.00000000E+00  2.71245455E-01  0.00000000E+00  0.00000000E+00  0.00000000E+00
  4.35567072E-01  0.00000000E+00  0.00000000E+00  0.00000000E+00  5.41912921E-01
  0.00000000E+00  0.00000000E+00  0.00000000E+00  1.98198573E-01  0.00000000E+00
  3.04283936E-08 -1.49316018E-03  0.00000000E+00  0.00000000E+00  0.00000000E+00
 -2.74210052E-07 -1.35330863E-02  0.00000000E+00  0.00000000E+00  0.00000000E+00
  0.00000000E+00  0.00000000E+00  0.00000000E+00 -1.23507673E-01  0.00000000E+00
  0.00000000E+00  0.00000000E+00 -1.80023598E-01  0.00000000E+00  0.00000000E+00
  0.00000000E+00 -1.89994742E-01  0.00000000E+00  0.00000000E+00  0.00000000E+00
 -1.42108211E-01  0.00000000E+00 -2.26677227E-03  1.81564136E-03  0.00000000E+00
  0.00000000E+00  0.00000000E+00 -9.04533124E-03  1.00144292E-02  0.00000000E+00
  0.00000000E+00  0.00000000E+00  0.00000000E+00  0.00000000E+00  0.00000000E+00
 -1.23508701E-01  0.00000000E+00  0.00000000E+00  0.00000000E+00 -1.80025183E-01
  0.00000000E+00  0.00000000E+00  0.00000000E+00 -1.89997015E-01  0.00000000E+00
  0.00000000E+00  0.00000000E+00 -1.42109497E-01  0.00000000E+00  2.26683968E-03
  1.81566398E-03  0.00000000E+00  0.00000000E+00  0.00000000E+00  9.04550525E-03
  1.00144260E-02  0.00000000E+00  0.00000000E+00  1.10296037E-02  1.99279468E-02
 -7.02244739E-07 -6.60898070E-02  0.00000000E+00 -1.32065551E-01 -1.51111351E-06
 -8.94105131E-02  0.00000000E+00  8.73891750E-01 -1.11804203E-05 -6.57360635E-01
  0.00000000E+00  2.19642802E+00 -2.40881045E-05 -7.85215099E-01  0.00000000E+00
  7.55171834E-03  0.00000000E+00  0.00000000E+00 -1.14359024E-03 -9.52220588E-08
 -3.89700221E-02  0.00000000E+00  0.00000000E+00  9.11320165E-04  5.41511918E-07
  1.48229085E-02  2.54116407E-02  6.49795794E-03  2.45500261E-02  0.00000000E+00
 -9.83686697E-02  7.56139713E-03  3.73030404E-02  0.00000000E+00 -1.06453363E-01
  8.26949820E-02 -4.48083456E-03  0.00000000E+00 -1.31199379E+00  2.78714690E-01
 -1.08706683E-01  0.00000000E+00 -2.46621893E-04  0.00000000E+00  0.00000000E+00
  9.37363632E-04 -5.05878787E-04  6.95142308E-03  0.00000000E+00  0.00000000E+00
 -1.06446989E-03  4.66142848E-03  1.48232914E-02  2.54123040E-02 -6.49706596E-03
  2.45496970E-02  0.00000000E+00 -9.83713866E-02 -7.55995519E-03  3.73023443E-02
  0.00000000E+00 -1.06457103E-01 -8.26961905E-02 -4.48094930E-03  0.00000000E+00
 -1.31203340E+00 -2.78720111E-01 -1.08713938E-01  0.00000000E+00 -2.46638621E-04
  0.00000000E+00  0.00000000E+00  9.37378886E-04  5.05875175E-04  6.95147725E-03
  0.00000000E+00  0.00000000E+00 -1.06451852E-03 -4.66140630E-03 -4.00726726E-07
 -6.58847778E-07  5.29500584E-02 -1.31364803E-06  0.00000000E+00  1.78431381E-06
  7.90343922E-02 -2.73172056E-06  0.00000000E+00  1.26058703E-05  2.22755532E-01
 -7.09373809E-06  0.00000000E+00  2.34597085E-05  1.45051026E+00 -3.55217354E-05
  0.00000000E+00  1.75036423E-07  0.00000000E+00  0.00000000E+00  1.32932856E-07
  8.26785728E-03  9.43959186E-08  0.00000000E+00  0.00000000E+00  5.52147222E-07
  3.62395768E-02  1.43246087E-02  2.48081355E-02 -1.50096943E-02 -3.15820898E-02
  0.00000000E+00 -1.02577998E-01 -2.64303846E-02 -5.33846007E-02  0.00000000E+00
 -6.42134499E-04 -1.74268334E-04 -2.10591510E-02  0.00000000E+00 -7.40516548E-01
 -2.21248711E-02 -2.33881376E-01  0.00000000E+00 -4.69530308E-04  0.00000000E+00
  0.00000000E+00 -2.33930712E-04 -3.75341660E-04 -2.18857058E-04  0.00000000E+00
  0.00000000E+00 -1.94819502E-03 -6.84819357E-04 -1.43239043E-02 -2.48069304E-02
 -1.50111951E-02  3.15827106E-02  0.00000000E+00  1.02573390E-01 -2.64326405E-02
  5.33857693E-02  0.00000000E+00  6.38685676E-04 -1.78100014E-04  2.10578846E-02
  0.00000000E+00  7.40479147E-01 -2.21302584E-02  2.33882886E-01  0.00000000E+00
  4.69518904E-04  0.00000000E+00  0.00000000E+00  2.33943363E-04 -3.75296082E-04
  2.19089735E-04  0.00000000E+00  0.00000000E+00  1.94818540E-03 -6.84942177E-04
  2.78312168E-02  4.65632862E-02  8.44934152E-09 -3.90975253E-02  0.00000000E+00
 -1.81134780E-01  1.15610286E-08 -7.59326041E-03  0.00000000E+00  6.36327640E-02
 -5.09362094E-06 -4.30131465E-01  0.00000000E+00  6.27500304E-01  2.77860485E-05
  1.19796973E+00  0.00000000E+00 -3.06548445E-03  0.00000000E+00  0.00000000E+00
 -3.72808386E-03  1.52317295E-07 -4.67424025E-02  0.00000000E+00  0.00000000E+00
 -1.60914689E-02  1.69577191E-06 -5.83527589E-03 -1.02019388E-02 -2.08731341E-02
  3.64516423E-04  0.00000000E+00  4.40048559E-02 -3.67077996E-02 -6.41048154E-03
  0.00000000E+00 -3.73023717E-02  1.51671210E-02  3.15143017E-02  0.00000000E+00
 -1.13490075E-01  7.73990657E-02 -1.85936044E-01  0.00000000E+00  5.20474426E-05
  0.00000000E+00  0.00000000E+00  9.06092122E-04  7.71457467E-04  6.38541244E-04
  0.00000000E+00  0.00000000E+00  1.58106971E-04  1.74231655E-03 -5.83566686E-03
 -1.02026273E-02  2.08723233E-02  3.64901582E-04  0.00000000E+00  4.40079254E-02
  3.67064985E-02 -6.40970005E-03  0.00000000E+00 -3.73056435E-02 -1.51687639E-02
  3.15135811E-02  0.00000000E+00 -1.13482478E-01 -7.74061555E-02 -1.85931295E-01
  0.00000000E+00  5.20491187E-05  0.00000000E+00  0.00000000E+00  9.06092533E-04
 -7.71469470E-04  6.38535858E-04  0.00000000E+00  0.00000000E+00  1.58153167E-04
 -1.74237926E-03  0.00000000E+00  0.00000000E+00  0.00000000E+00  0.00000000E+00
 -1.11631214E-01  0.00000000E+00  0.00000000E+00  0.00000000E+00 -1.34540583E-01
  0.00000000E+00  0.00000000E+00  0.00000000E+00 -3.87073520E-01  0.00000000E+00
  0.00000000E+00  0.00000000E+00  1.30175158E+00  0.00000000E+00  7.28607886E-08
  6.86079981E-03  0.00000000E+00  0.00000000E+00  0.00000000E+00  2.75720414E-07
  2.16784605E-02  0.00000000E+00  0.00000000E+00  0.00000000E+00  0.00000000E+00
  0.00000000E+00  0.00000000E+00  2.49644220E-03  0.00000000E+00  0.00000000E+00
  0.00000000E+00 -8.79976081E-03  0.00000000E+00  0.00000000E+00  0.00000000E+00
  6.45510256E-02  0.00000000E+00  0.00000000E+00  0.00000000E+00 -1.37551762E-01
  0.00000000E+00  1.43673949E-03 -8.81017593E-04  0.00000000E+00  0.00000000E+00
  0.00000000E+00  7.02576741E-03 -5.13629846E-03  0.00000000E+00  0.00000000E+00
  0.00000000E+00  0.00000000E+00  0.00000000E+00  0.00000000E+00  2.49672035E-03
  0.00000000E+00  0.00000000E+00  0.00000000E+00 -8.79937898E-03  0.00000000E+00
  0.00000000E+00  0.00000000E+00  6.45517861E-02  0.00000000E+00  0.00000000E+00
  0.00000000E+00 -1.37549305E-01  0.00000000E+00 -1.43677914E-03 -8.81028376E-04
  0.00000000E+00  0.00000000E+00  0.00000000E+00 -7.02596093E-03 -5.13633001E-03
  0.00000000E+00  0.00000000E+00 -8.10926228E-06 -1.34177858E-05  2.58237592E-01
 -2.74481465E-05  0.00000000E+00  3.97026536E-05  3.98675571E-01 -4.46326432E-05
  0.00000000E+00  2.34170792E-04  1.62417876E+00 -1.40938429E-04  0.00000000E+00
 -8.78541414E-05 -9.47636283E-01  6.52881162E-05  0.00000000E+00  2.26200317E-06
  0.00000000E+00  0.00000000E+00 -1.45492693E-06  2.94133487E-02  7.73951263E-06
  0.00000000E+00  0.00000000E+00 -7.73343740E-06 -2.11596401E-02  2.89138026E-02
  4.78901918E-02  4.12644332E-02 -8.90826902E-02  0.00000000E+00 -1.43931891E-01
  7.95167806E-02 -1.33148640E-01  0.00000000E+00 -6.52580441E-01  9.12249966E-02
 -2.25139240E-01  0.00000000E+00 -3.84100120E-01  6.36297653E-01 -4.71996875E-01
  0.00000000E+00 -1.60047914E-03  0.00000000E+00  0.00000000E+00 -1.78376261E-03
 -3.17864395E-03 -7.45053498E-03  0.00000000E+00  0.00000000E+00 -1.54663988E-02
 -1.02156148E-02 -2.89063230E-02 -4.78778171E-02  4.12416671E-02  8.90659153E-02
  0.00000000E+00  1.43894879E-01  7.94801571E-02  1.33124084E-01  0.00000000E+00
  6.52433379E-01  9.11791855E-02  2.25098475E-01  0.00000000E+00  3.84127251E-01
  6.36126302E-01  4.71980757E-01  0.00000000E+00  1.59999575E-03  0.00000000E+00
  0.00000000E+00  1.78485397E-03 -3.17794745E-03  7.44991051E-03  0.00000000E+00
  0.00000000E+00  1.54712307E-02 -1.02128581E-02 -5.63890035E-02 -9.27139897E-02
 -2.60880113E-05 -1.70166031E-01  0.00000000E+00  2.57113042E-01 -2.06323905E-05
 -2.72176182E-01  0.00000000E+00  1.99457888E+00 -3.00435519E-04 -9.88110567E-01
  0.00000000E+00 -7.45678799E-01  1.55506586E-04  4.47654099E-01  0.00000000E+00
  1.54478715E-02  0.00000000E+00  0.00000000E+00 -1.14982935E-02 -2.82703703E-06
  4.96816143E-02  0.00000000E+00  0.00000000E+00 -5.15247353E-02  8.61453954E-06
  2.77014704E-02  4.58553243E-02  6.21576039E-02 -6.08322032E-02  0.00000000E+00
 -1.37828691E-01  1.10748340E-01 -8.76351141E-02  0.00000000E+00 -5.73206831E-01
  9.67972730E-02 -1.57877221E-01  0.00000000E+00  1.21060755E-01  8.31122307E-01
 -6.66398170E-02  0.00000000E+00 -1.77059034E-03  0.00000000E+00  0.00000000E+00
  3.89043595E-03 -2.67009300E-03 -4.77912225E-03  0.00000000E+00  0.00000000E+00
  1.90356549E-02 -1.20572905E-02  2.77097008E-02  4.58690734E-02 -6.21566417E-02
 -6.08303285E-02  0.00000000E+00 -1.37873646E-01 -1.10756843E-01 -8.76397499E-02
  0.00000000E+00 -5.73371053E-01 -9.67713839E-02 -1.57854282E-01  0.00000000E+00
  1.20598081E-01 -8.31651775E-01 -6.70714464E-02  0.00000000E+00 -1.77099161E-03
  0.00000000E+00  0.00000000E+00  3.89022617E-03  2.67074527E-03 -4.78309594E-03
  0.00000000E+00  0.00000000E+00  1.90342584E-02  1.20647662E-02 -7.50053104E-06
 -1.24649373E-05 -4.11045571E-02 -2.32168309E-05  0.00000000E+00  3.64489613E-05
 -2.08752228E-01 -3.66064302E-05  0.00000000E+00  2.33988247E-04  6.11846672E-01
 -1.39852487E-04  0.00000000E+00 -1.09202909E-04 -1.57380317E-01  5.32978320E-05
  0.00000000E+00  2.23030187E-06  0.00000000E+00  0.00000000E+00 -1.66792386E-06
 -7.88906773E-03  7.46648114E-06  0.00000000E+00  0.00000000E+00 -7.88694934E-06
 -3.93444772E-02  1.57723010E-03  3.00688024E-03 -3.86135990E-02  8.24358400E-02
  0.00000000E+00 -2.21033545E-02 -4.10646492E-02  9.72222710E-02  0.00000000E+00
  6.61227691E-02 -1.71741955E-01  2.82012233E-01  0.00000000E+00 -1.34266012E+00
  1.24108799E+00 -1.15464070E+00  0.00000000E+00 -4.00733335E-05  0.00000000E+00
  0.00000000E+00  5.22651459E-04  2.01613242E-04 -7.52000610E-03  0.00000000E+00
  0.00000000E+00  7.25637859E-03 -1.90594660E-02 -1.56932830E-03 -2.99380025E-03
 -3.86303749E-02 -8.24533618E-02  0.00000000E+00  2.20641430E-02 -4.10951725E-02
 -9.72474343E-02  0.00000000E+00 -6.62884367E-02 -1.71767428E-01 -2.82059001E-01
  0.00000000E+00  1.34273935E+00  1.24087686E+00  1.15464752E+00  0.00000000E+00
  3.96148040E-05  0.00000000E+00  0.00000000E+00 -5.21552227E-04  2.02315916E-04
  7.51909426E-03  0.00000000E+00  0.00000000E+00 -7.25124662E-03 -1.90565769E-02
  0.00000000E+00  0.00000000E+00  0.00000000E+00  0.00000000E+00 -5.21566487E-07
  0.00000000E+00  0.00000000E+00  0.00000000E+00  1.65190522E-06  0.00000000E+00
  0.00000000E+00  0.00000000E+00 -1.81004421E-05  0.00000000E+00  0.00000000E+00
  0.00000000E+00 -3.14534529E-05  0.00000000E+00 -4.23047523E-03 -6.38480533E-08
  0.00000000E+00  0.00000000E+00  0.00000000E+00 -2.28076504E-03 -9.47745497E-09
  0.00000000E+00  0.00000000E+00  0.00000000E+00  0.00000000E+00  0.00000000E+00
  0.00000000E+00  8.12250040E-02  0.00000000E+00  0.00000000E+00  0.00000000E+00
  7.98927737E-02  0.00000000E+00  0.00000000E+00  0.00000000E+00  3.40323564E-01
  0.00000000E+00  0.00000000E+00  0.00000000E+00 -1.17099648E+00  0.00000000E+00
 -1.50640510E-03  3.90830768E-04  0.00000000E+00  0.00000000E+00  0.00000000E+00
 -1.29659041E-02  1.78115172E-03  0.00000000E+00  0.00000000E+00  0.00000000E+00
  0.00000000E+00  0.00000000E+00  0.00000000E+00 -8.12300520E-02  0.00000000E+00
  0.00000000E+00  0.00000000E+00 -7.98982239E-02  0.00000000E+00  0.00000000E+00
  0.00000000E+00 -3.40342713E-01  0.00000000E+00  0.00000000E+00  0.00000000E+00
  1.17107500E+00  0.00000000E+00 -1.50646348E-03 -3.90898881E-04  0.00000000E+00
  0.00000000E+00  0.00000000E+00 -1.29662481E-02 -1.78179824E-03  0.00000000E+00
  0.00000000E+00 -4.67466150E-04  5.13170835E-03  2.72322340E-06  8.03243183E-02
  0.00000000E+00 -9.11121295E-02  3.74787639E-06  1.63969043E-01  0.00000000E+00
  2.10175312E+00  1.70853570E-05  1.87384180E-01  0.00000000E+00  1.93746989E-02
 -1.78975427E-05  4.07415040E-01  0.00000000E+00 -1.38443421E-02  0.00000000E+00
  0.00000000E+00  2.73572788E-03  3.99840605E-07 -9.93970765E-02  0.00000000E+00
  0.00000000E+00  4.56117121E-02  2.36269109E-07 -8.60664729E-03 -1.40584913E-02
 -7.21707196E-02  4.40478277E-02  0.00000000E+00  3.62331177E-02 -8.57920570E-02
  4.65417739E-02  0.00000000E+00  2.33674045E-01 -2.61466707E-01  1.68006397E-01
  0.00000000E+00 -7.32101300E-01  9.28585305E-01 -1.11905466E+00  0.00000000E+00
 -9.38230265E-04  0.00000000E+00  0.00000000E+00 -1.79697721E-03 -1.61470717E-03
 -1.83221082E-02  0.00000000E+00  0.00000000E+00 -3.58071035E-05 -9.42345250E-03
 -8.60776271E-03 -1.40603415E-02  7.21706825E-02  4.40478389E-02  0.00000000E+00
  3.62387353E-02  8.57932176E-02  4.65427930E-02  0.00000000E+00  2.33699455E-01
  2.61464056E-01  1.68002955E-01  0.00000000E+00 -7.32139317E-01 -9.28574985E-01
 -1.11903473E+00  0.00000000E+00 -9.38215865E-04  0.00000000E+00  0.00000000E+00
 -1.79692361E-03  1.61469190E-03 -1.83221325E-02  0.00000000E+00  0.00000000E+00
 -3.53620508E-05  9.42321109E-03  0.00000000E+00  0.00000000E+00  0.00000000E+00
  0.00000000E+00 -1.78271404E-02  0.00000000E+00  0.00000000E+00  0.00000000E+00
  4.35324823E-02  0.00000000E+00  0.00000000E+00  0.00000000E+00 -5.69184650E-01
  0.00000000E+00  0.00000000E+00  0.00000000E+00 -9.52912922E-01  0.00000000E+00
  1.61857011E-07 -4.06240958E-03  0.00000000E+00  0.00000000E+00  0.00000000E+00
  4.32919378E-07 -1.02405513E-02  0.00000000E+00  0.00000000E+00  0.00000000E+00
  0.00000000E+00  0.00000000E+00  0.00000000E+00 -8.84045825E-02  0.00000000E+00
  0.00000000E+00  0.00000000E+00 -9.34657298E-02  0.00000000E+00  0.00000000E+00
  0.00000000E+00 -3.38816774E-01  0.00000000E+00  0.00000000E+00  0.00000000E+00
  1.28470484E+00  0.00000000E+00  7.70676999E-04 -1.23355203E-03  0.00000000E+00
  0.00000000E+00  0.00000000E+00  3.09509343E-03 -1.28488684E-02  0.00000000E+00
  0.00000000E+00  0.00000000E+00  0.00000000E+00  0.00000000E+00  0.00000000E+00
 -8.83995083E-02  0.00000000E+00  0.00000000E+00  0.00000000E+00 -9.34608911E-02
  0.00000000E+00  0.00000000E+00  0.00000000E+00 -3.38795159E-01  0.00000000E+00
  0.00000000E+00  0.00000000E+00  1.28463958E+00  0.00000000E+00 -7.70614751E-04
 -1.23353995E-03  0.00000000E+00  0.00000000E+00  0.00000000E+00 -3.09456322E-03
 -1.28489472E-02  0.00000000E+00  0.00000000E+00 -2.75170762E-02 -4.66595996E-02
 -3.24613708E-06 -1.04871523E-01  0.00000000E+00  1.81622585E-01 -5.70897869E-06
 -2.02497343E-01  0.00000000E+00  5.60791828E-02 -1.84992174E-05  1.16351619E-01
  0.00000000E+00 -8.84082899E-01  1.73068892E-05  1.04401100E+00  0.00000000E+00
  9.44249510E-03  0.00000000E+00  0.00000000E+00 -8.88957556E-03 -6.02712748E-07
  9.94064785E-02  0.00000000E+00  0.00000000E+00 -8.16592675E-03 -2.67040177E-07
  2.14011241E-02  3.58291129E-02  1.02922162E-01  4.65073252E-02  0.00000000E+00
 -1.17649603E-01  1.41042234E-01  3.34407924E-02  0.00000000E+00 -3.54823014E-01
  2.49510222E-01  2.44896706E-01  0.00000000E+00  8.86624635E-01 -4.55175566E-01
 -7.79963227E-01  0.00000000E+00 -6.95797353E-04  0.00000000E+00  0.00000000E+00
  2.53301609E-04 -6.74948114E-04 -1.61181693E-03  0.00000000E+00  0.00000000E+00
 -4.88944779E-04 -6.67065868E-03  2.14021060E-02  3.58307450E-02 -1.02922708E-01
  4.65049891E-02  0.00000000E+00 -1.17654484E-01 -1.41044040E-01  3.34375285E-02
  0.00000000E+00 -3.54848614E-01 -2.49511237E-01  2.44888744E-01  0.00000000E+00
  8.86656331E-01  4.55175126E-01 -7.79962986E-01  0.00000000E+00 -6.95815593E-04
  0.00000000E+00  0.00000000E+00  2.53252353E-04  6.75013519E-04 -1.61184196E-03
  0.00000000E+00  0.00000000E+00 -4.89430652E-04  6.67057709E-03 -5.24612358E-02
 -8.84129734E-02 -2.13943311E-06 -5.70842107E-02  0.00000000E+00  1.61316662E-01
 -7.48082089E-06 -1.78525815E-01  0.00000000E+00  4.92571249E+00 -4.96175517E-05
 -1.92674156E+00  0.00000000E+00  2.39003243E+00  7.03700951E-06 -5.04176294E-01
  0.00000000E+00  1.24041571E-02  0.00000000E+00  0.00000000E+00 -3.05784804E-03
 -3.97194384E-07 -1.34352178E-01  0.00000000E+00  0.00000000E+00  9.52168168E-03
  3.32907230E-06 -1.24539298E-02 -2.09795022E-02  8.12056283E-02 -4.53495207E-02
  0.00000000E+00  7.87248775E-02  7.92476186E-02 -5.59565844E-02  0.00000000E+00
  1.44585535E-01  5.46875888E-01 -2.46000469E-01  0.00000000E+00 -4.10013563E+00
  6.37964672E-01 -6.35962629E-01  0.00000000E+00 -3.15029503E-03  0.00000000E+00
  0.00000000E+00  3.23090707E-03 -5.56472756E-03  1.21867999E-02  0.00000000E+00
  0.00000000E+00 -4.90719310E-03 -7.47484340E-03 -1.24531643E-02 -2.09782757E-02
 -8.12073644E-02 -4.53514338E-02  0.00000000E+00  7.87225206E-02 -7.92504947E-02
 -5.59595681E-02  0.00000000E+00  1.44547270E-01 -5.46890025E-01 -2.46009919E-01
  0.00000000E+00 -4.10019918E+00 -6.37988333E-01 -6.35969258E-01  0.00000000E+00
 -3.15035784E-03  0.00000000E+00  0.00000000E+00  3.23096826E-03  5.56479466E-03
  1.21870875E-02  0.00000000E+00  0.00000000E+00 -4.90751332E-03  7.47441684E-03
  4.37463908E-07  7.90300278E-07  6.83752713E-02  4.35178118E-07  0.00000000E+00
 -2.23725174E-06  1.46132914E-01  1.91744063E-06  0.00000000E+00 -3.06634882E-05
  1.16648788E+00  9.67114304E-06  0.00000000E+00  2.35230065E-06  1.31960088E+00
 -1.10453801E-05  0.00000000E+00 -2.15493714E-07  0.00000000E+00  0.00000000E+00
  4.33594339E-08  5.85249462E-03 -3.04614301E-07  0.00000000E+00  0.00000000E+00
 -8.65268515E-07 -1.15045291E-01 -5.66593114E-03 -9.66963279E-03  7.31530737E-02
  1.92456357E-02  0.00000000E+00  3.94892113E-02  7.32253506E-02  9.52717045E-03
  0.00000000E+00 -2.75815910E-02  3.95849509E-01  6.20184794E-02  0.00000000E+00
 -1.04932483E+00 -1.31443570E+00 -1.22501801E+00  0.00000000E+00 -3.92374529E-04
  0.00000000E+00  0.00000000E+00 -2.10506268E-03 -3.10077206E-03  2.09385191E-03
  0.00000000E+00  0.00000000E+00 -1.65949470E-02 -8.24976001E-04  5.66537311E-03
  9.66872743E-03  7.31542980E-02 -1.92452387E-02  0.00000000E+00 -3.94870348E-02
  7.32274863E-02 -9.52643687E-03  0.00000000E+00  2.76031254E-02  3.95856039E-01
 -6.20163840E-02  0.00000000E+00  1.04933509E+00 -1.31442128E+00  1.22503194E+00
  0.00000000E+00  3.92401983E-04  0.00000000E+00  0.00000000E+00  2.10495440E-03
 -3.10085394E-03 -2.09415294E-03  0.00000000E+00  0.00000000E+00  1.65950696E-02
 -8.25269364E-04  5.52404540E-07  9.54582823E-07  1.23982057E-01 -1.65553330E-07
  0.00000000E+00 -1.53211557E-06  2.23182812E-01  3.75057183E-07  0.00000000E+00
 -7.74379874E-05  2.59644772E+00  1.58474498E-05  0.00000000E+00 -4.79393347E-06
  3.80390542E-01 -6.18489163E-06  0.00000000E+00 -2.19893883E-07  0.00000000E+00
  0.00000000E+00  2.85138311E-08  9.83080303E-03  2.21698699E-07  0.00000000E+00
  0.00000000E+00 -1.04837841E-06 -1.22235379E-01 -1.33049152E-02 -2.07957082E-02
  3.26497334E-02 -5.18044672E-02  0.00000000E+00  3.39877776E-02  4.36196198E-02
 -5.33049479E-02  0.00000000E+00  6.76178283E-01  1.55560934E-01 -2.93968881E-01
  0.00000000E+00 -6.11586911E+00  2.55657529E+00 -8.62203046E-01  0.00000000E+00
 -3.90007482E-03  0.00000000E+00  0.00000000E+00  1.85308047E-03 -4.11875934E-03
 -1.71716405E-02  0.00000000E+00  0.00000000E+00 -4.66501411E-04 -5.31101017E-04
  1.33043335E-02  2.07947894E-02  3.26521694E-02  5.18052903E-02  0.00000000E+00
 -3.39862090E-02  4.36224748E-02  5.33058834E-02  0.00000000E+00 -6.76148069E-01
  1.55577484E-01  2.93975919E-01  0.00000000E+00  6.11592593E+00  2.55659294E+00
  8.62185558E-01  0.00000000E+00  3.90011678E-03  0.00000000E+00  0.00000000E+00
 -1.85319590E-03 -4.11877401E-03  1.71714385E-02  0.00000000E+00  0.00000000E+00
  4.66739525E-04 -5.31018478E-04  0.00000000E+00  0.00000000E+00  0.00000000E+00
  0.00000000E+00 -2.29569771E-01  0.00000000E+00  0.00000000E+00  0.00000000E+00
 -8.67159446E-01  0.00000000E+00  0.00000000E+00  0.00000000E+00  1.79182699E+00
  0.00000000E+00  0.00000000E+00  0.00000000E+00 -5.54558242E-01  0.00000000E+00
  3.56301123E-07  2.42600011E-02  0.00000000E+00  0.00000000E+00  0.00000000E+00
 -7.96736130E-07  1.61768304E-01  0.00000000E+00  0.00000000E+00  0.00000000E+00
  0.00000000E+00  0.00000000E+00  0.00000000E+00  7.00944236E-03  0.00000000E+00
  0.00000000E+00  0.00000000E+00  2.28885592E-02  0.00000000E+00  0.00000000E+00
  0.00000000E+00 -9.05821439E-02  0.00000000E+00  0.00000000E+00  0.00000000E+00
 -1.95083680E-01  0.00000000E+00  8.93781649E-04 -3.02011111E-04  0.00000000E+00
  0.00000000E+00  0.00000000E+00  2.54341816E-02 -4.81690509E-03  0.00000000E+00
  0.00000000E+00  0.00000000E+00  0.00000000E+00  0.00000000E+00  0.00000000E+00
  7.01003581E-03  0.00000000E+00  0.00000000E+00  0.00000000E+00  2.28895092E-02
  0.00000000E+00  0.00000000E+00  0.00000000E+00 -9.05814459E-02  0.00000000E+00
  0.00000000E+00  0.00000000E+00 -1.95089717E-01  0.00000000E+00 -8.93881812E-04
 -3.02054404E-04  0.00000000E+00  0.00000000E+00  0.00000000E+00 -2.54345560E-02
 -4.81685807E-03  0.00000000E+00  0.00000000E+00  4.10782431E-03  6.60946143E-03
 -1.03817730E-06 -2.68467602E-01  0.00000000E+00  1.84993072E-01  1.35264857E-06
 -7.68688959E-01  0.00000000E+00 -2.74220254E+00 -3.02656863E-05  2.74887485E+00
  0.00000000E+00 -6.11024746E-01 -4.41152169E-06 -5.73444218E-01  0.00000000E+00
 -1.37994734E-02  0.00000000E+00  0.00000000E+00 -2.95557509E-02 -2.28896389E-07
  1.82424112E-01  0.00000000E+00  0.00000000E+00 -1.15672781E-01  3.44522112E-07
  3.69048382E-03  8.47667081E-03  4.90506744E-02 -2.66632948E-02  0.00000000E+00
 -8.64882665E-02  1.02323810E-01 -3.96329329E-02  0.00000000E+00  7.12714593E-01
 -2.70395977E-01  2.32797301E-02  0.00000000E+00  1.21807171E+00 -4.80016663E-01
  2.73756601E-01  0.00000000E+00 -1.16613850E-03  0.00000000E+00  0.00000000E+00
  3.02223418E-04 -3.49777119E-03 -2.96399582E-02  0.00000000E+00  0.00000000E+00
  4.04832978E-02 -9.40252472E-03  3.69046349E-03  8.47664406E-03 -4.90517918E-02
 -2.66632086E-02  0.00000000E+00 -8.64882897E-02 -1.02325285E-01 -3.96320905E-02
  0.00000000E+00  7.12719836E-01  2.70390206E-01  2.32707369E-02  0.00000000E+00
  1.21798740E+00  4.79993698E-01  2.73721088E-01  0.00000000E+00 -1.16618961E-03
  0.00000000E+00  0.00000000E+00  3.02368911E-04  3.49784917E-03 -2.96404103E-02
  0.00000000E+00  0.00000000E+00  4.04834404E-02  9.40143562E-03  3.66804333E-07
  8.91654062E-07 -2.92349662E-01 -1.31330344E-06  0.00000000E+00 -7.45477566E-06
 -6.97754150E-01 -1.05649737E-06  0.00000000E+00 -4.45597974E-05  5.83728285E+00
 -6.21394205E-06  0.00000000E+00 -1.30667257E-05 -1.90991698E-01 -7.69834178E-07
  0.00000000E+00  2.20396144E-07  0.00000000E+00  0.00000000E+00  1.58630238E-07
  2.75733525E-02  1.12920438E-05  0.00000000E+00  0.00000000E+00 -9.66425811E-06
 -6.93028472E-01 -1.18957420E-02 -2.21115711E-02 -5.46425302E-02  3.73932854E-02
  0.00000000E+00  1.35750459E-01 -8.38356435E-02  7.55448027E-02  0.00000000E+00
 -8.52346444E-01  3.04755669E-01 -4.07423610E-01  0.00000000E+00 -5.33038242E+00
  1.80967836E+00 -1.61049224E+00  0.00000000E+00  2.04310258E-03  0.00000000E+00
  0.00000000E+00 -1.47268421E-03  1.38066957E-03  1.59145327E-02  0.00000000E+00
  0.00000000E+00 -3.10366443E-03  6.15374619E-02  1.18958600E-02  2.21117764E-02
 -5.46436517E-02 -3.73933789E-02  0.00000000E+00 -1.35751358E-01 -8.38365998E-02
 -7.55445554E-02  0.00000000E+00  8.52374170E-01  3.04756225E-01  4.07422742E-01
  0.00000000E+00  5.33042934E+00  1.80969281E+00  1.61047742E+00  0.00000000E+00
 -2.04322680E-03  0.00000000E+00  0.00000000E+00  1.47280208E-03  1.38091376E-03
 -1.59135194E-02  0.00000000E+00  0.00000000E+00  3.10457865E-03  6.15381585E-02
  9.88226418E-02  1.96904714E-01  4.23543784E-06  5.49394065E-02  0.00000000E+00
 -1.67580945E+00  2.07978542E-06 -1.51156943E-01  0.00000000E+00  5.73802976E+00
 -9.31696328E-05 -8.66260780E-01  0.00000000E+00 -9.69828095E-02  1.05386879E-06
  8.56846403E-02  0.00000000E+00 -5.60154035E-03  0.00000000E+00  0.00000000E+00
  9.31281619E-03  4.88762306E-07  5.25213383E-01  0.00000000E+00  0.00000000E+00
  1.14485488E-01  1.55254363E-05 -1.21926382E-02 -2.30878900E-02 -6.19576643E-02
  2.97714157E-02  0.00000000E+00  1.43990297E-01 -1.28890590E-01  6.21296495E-02
  0.00000000E+00 -2.12631773E-01  1.92349439E-01 -1.16733041E-01  0.00000000E+00
 -1.87812209E+00  8.43969251E-01 -8.12467261E-01  0.00000000E+00  1.17332408E-03
  0.00000000E+00  0.00000000E+00  2.71596127E-04 -6.87372409E-04  6.96795043E-02
  0.00000000E+00  0.00000000E+00 -2.50515983E-02  2.37589039E-02 -1.21930565E-02
 -2.30887062E-02  6.19595445E-02  2.97720867E-02  0.00000000E+00  1.43996377E-01
  1.28893362E-01  6.21306821E-02  0.00000000E+00 -2.12670959E-01 -1.92366871E-01
 -1.16748770E-01  0.00000000E+00 -1.87832195E+00 -8.44043843E-01 -8.12511297E-01
  0.00000000E+00  1.17340338E-03  0.00000000E+00  0.00000000E+00  2.71608333E-04
  6.87412484E-04  6.96812226E-02  0.00000000E+00  0.00000000E+00 -2.50520664E-02
 -2.37612801E-02  0.00000000E+00  0.00000000E+00  0.00000000E+00  0.00000000E+00
  8.46020125E-02  0.00000000E+00  0.00000000E+00  0.00000000E+00  2.30802856E-01
  0.00000000E+00  0.00000000E+00  0.00000000E+00 -9.15161460E-01  0.00000000E+00
  0.00000000E+00  0.00000000E+00 -1.15686089E-01  0.00000000E+00 -1.47994476E-06
  1.12844096E-02  0.00000000E+00  0.00000000E+00  0.00000000E+00 -8.09671048E-05
  1.13398562E+00  0.00000000E+00  0.00000000E+00  0.00000000E+00  0.00000000E+00
  0.00000000E+00  0.00000000E+00  4.57736161E-02  0.00000000E+00  0.00000000E+00
  0.00000000E+00  7.02580870E-02  0.00000000E+00  0.00000000E+00  0.00000000E+00
  2.59929389E-01  0.00000000E+00  0.00000000E+00  0.00000000E+00  3.73613975E-01
  0.00000000E+00  9.10222774E-03 -3.88457821E-03  0.00000000E+00  0.00000000E+00
  0.00000000E+00  3.99377381E-02  3.26337199E-02  0.00000000E+00  0.00000000E+00
  0.00000000E+00  0.00000000E+00  0.00000000E+00  0.00000000E+00  4.57652498E-02
  0.00000000E+00  0.00000000E+00  0.00000000E+00  7.02453141E-02  0.00000000E+00
  0.00000000E+00  0.00000000E+00  2.59891583E-01  0.00000000E+00  0.00000000E+00
  0.00000000E+00  3.73582916E-01  0.00000000E+00 -9.10118626E-03 -3.88313804E-03
  0.00000000E+00  0.00000000E+00  0.00000000E+00 -3.99380002E-02  3.26413449E-02
  0.00000000E+00  0.00000000E+00  0.00000000E+00  0.00000000E+00  0.00000000E+00
  0.00000000E+00  6.10596553E-06  0.00000000E+00  0.00000000E+00  0.00000000E+00
  1.54349223E-05  0.00000000E+00  0.00000000E+00  0.00000000E+00 -7.09656421E-05
  0.00000000E+00  0.00000000E+00  0.00000000E+00 -7.57366900E-06  0.00000000E+00
  1.91713675E-02  7.44175306E-07  0.00000000E+00  0.00000000E+00  0.00000000E+00
  1.20041700E+00  8.12929101E-05  0.00000000E+00  0.00000000E+00  0.00000000E+00
  0.00000000E+00  0.00000000E+00  0.00000000E+00 -5.70168343E-02  0.00000000E+00
  0.00000000E+00  0.00000000E+00 -8.72359609E-02  0.00000000E+00  0.00000000E+00
  0.00000000E+00 -3.02855387E-01  0.00000000E+00  0.00000000E+00  0.00000000E+00
 -2.11424737E-01  0.00000000E+00 -7.99245008E-03  9.16520360E-03  0.00000000E+00
  0.00000000E+00  0.00000000E+00  4.15197456E-03  4.58656720E-02  0.00000000E+00
  0.00000000E+00  0.00000000E+00  0.00000000E+00  0.00000000E+00  0.00000000E+00
  5.70238623E-02  0.00000000E+00  0.00000000E+00  0.00000000E+00  8.72467270E-02
  0.00000000E+00  0.00000000E+00  0.00000000E+00  3.02902465E-01  0.00000000E+00
  0.00000000E+00  0.00000000E+00  2.11477877E-01  0.00000000E+00 -7.99393488E-03
 -9.16584322E-03  0.00000000E+00  0.00000000E+00  0.00000000E+00  4.14605870E-03
 -4.58608968E-02  0.00000000E+00  0.00000000E+00  3.15300544E-02  6.74732444E-02
  1.00749807E-06  8.50215751E-02  0.00000000E+00 -7.13955633E-01  5.40619184E-07
  1.27961994E-01  0.00000000E+00  2.79005730E+00 -5.67055406E-06 -1.42816415E+00
  0.00000000E+00  3.73749239E-01 -1.02568419E-06 -9.83004365E-02  0.00000000E+00
 -3.86040775E-04  0.00000000E+00  0.00000000E+00 -2.53360182E-02  2.81456430E-07
 -3.22991970E-01  0.00000000E+00  0.00000000E+00 -1.16903200E+00  1.15413603E-05
  5.14047229E-04  7.02830109E-04  5.21799005E-02  8.36015198E-02  0.00000000E+00
  6.01092529E-03  9.86520884E-02  1.40728537E-01  0.00000000E+00 -2.33114940E-01
  2.85227592E-01  2.21806004E-01  0.00000000E+00 -1.20700324E+00  4.51760546E-01
 -1.39084567E-01  0.00000000E+00  9.71127973E-05  0.00000000E+00  0.00000000E+00
  1.33994346E-02  6.18513110E-03  1.50095451E-02  0.00000000E+00  0.00000000E+00
  2.96363446E-02  4.95516141E-02  5.13973367E-04  7.02711371E-04 -5.21789029E-02
  8.36021762E-02  0.00000000E+00  6.01123158E-03 -9.86509040E-02  1.40729266E-01
  0.00000000E+00 -2.33117328E-01 -2.85229343E-01  2.21817485E-01  0.00000000E+00
 -1.20702265E+00 -4.51768074E-01 -1.39084108E-01  0.00000000E+00  9.71514217E-05
  0.00000000E+00  0.00000000E+00  1.33994092E-02 -6.18549487E-03  1.50094946E-02
  0.00000000E+00  0.00000000E+00  2.96347583E-02 -4.95525208E-02  4.49516237E-02
  1.04627095E-01 -3.92668544E-07 -6.69621633E-02  0.00000000E+00 -1.72109513E+00
 -9.08294939E-06 -4.56566861E-01  0.00000000E+00  1.09187139E+01  1.61665803E-05
 -3.66729244E+00  0.00000000E+00  1.14503543E+00 -6.54681473E-07 -1.72354093E-01
  0.00000000E+00  1.33305436E-04  0.00000000E+00  0.00000000E+00 -8.78140847E-03
  1.85068519E-07 -1.53823490E+00  0.00000000E+00  0.00000000E+00  7.98499138E-01
 -2.54954306E-05  2.26944675E-02  3.88621346E-02  4.20295255E-02 -1.20912143E-02
  0.00000000E+00 -1.17344874E-01  9.43781174E-02 -5.52577853E-03  0.00000000E+00
 -1.84310543E+00  8.79536861E-01 -9.42496067E-01  0.00000000E+00 -4.19784015E+00
  1.15850694E+00 -7.54419832E-01  0.00000000E+00 -6.41167265E-03  0.00000000E+00
  0.00000000E+00 -3.89643947E-03 -5.91488004E-03  2.94442601E-03  0.00000000E+00
  0.00000000E+00 -2.97314717E-02  1.11282130E-01  2.26943167E-02  3.88619411E-02
 -4.20291621E-02 -1.20906395E-02  0.00000000E+00 -1.17346097E-01 -9.43787922E-02
 -5.52632275E-03  0.00000000E+00 -1.84309887E+00 -8.79522722E-01 -9.42475208E-01
  0.00000000E+00 -4.19783117E+00 -1.15851299E+00 -7.54401664E-01  0.00000000E+00
 -6.41159126E-03  0.00000000E+00  0.00000000E+00 -3.89653031E-03  5.91450124E-03
  2.94296420E-03  0.00000000E+00  0.00000000E+00 -2.97339512E-02 -1.11281993E-01
  2.60148586E-07  1.29211318E-06  5.43733061E-02  1.15128435E-06  0.00000000E+00
 -9.10088693E-06  1.07158461E+00  2.23726668E-05  0.00000000E+00 -2.45140638E-04
  4.58833741E+00  6.72268295E-05  0.00000000E+00 -2.78711655E-05  9.15678600E-02
  4.66773719E-06  0.00000000E+00  1.67465233E-06  0.00000000E+00  0.00000000E+00
 -1.16210912E-06 -6.76336540E-02  2.92937176E-05  0.00000000E+00  0.00000000E+00
 -2.22929923E-05 -2.21290651E+00  1.88026116E-02  3.00880119E-02 -2.95694614E-02
  5.80001225E-02  0.00000000E+00 -2.80212293E-02 -1.47093652E-01  2.20027419E-01
  0.00000000E+00 -2.22463549E+00  1.70329185E+00 -1.52734821E+00  0.00000000E+00
 -3.41947270E+00  5.07288315E-01 -4.83079859E-01  0.00000000E+00 -9.30653228E-03
  0.00000000E+00  0.00000000E+00  6.04095602E-03 -2.07339782E-02  3.71982217E-02
  0.00000000E+00  0.00000000E+00  2.03745932E-02  3.11872552E-02 -1.88034792E-02
 -3.00893922E-02 -2.95730812E-02 -5.80015545E-02  0.00000000E+00  2.80220952E-02
 -1.47106738E-01 -2.20031905E-01  0.00000000E+00  2.22476367E+00  1.70339674E+00
  1.52739059E+00  0.00000000E+00  3.41966419E+00  5.07314667E-01  4.83093142E-01
  0.00000000E+00  9.30703316E-03  0.00000000E+00  0.00000000E+00 -6.04161803E-03
 -2.07345839E-02 -3.71999812E-02  0.00000000E+00  0.00000000E+00 -2.03727070E-02
  3.11890132E-02 -4.85854666E-03 -3.03324995E-02  1.49775182E-06  8.17969275E-03
  0.00000000E+00  1.47256720E-01  9.02692442E-06 -6.28691705E-01  0.00000000E+00
  4.23374807E+00  7.24336896E-05 -2.06046581E+00  0.00000000E+00  6.47170830E-01
 -3.12650259E-06 -1.53907597E-02  0.00000000E+00 -6.03770774E-02  0.00000000E+00
  0.00000000E+00  2.05027280E-02  2.10064848E-07 -6.62477343E-01  0.00000000E+00
  0.00000000E+00 -3.58407228E-01 -4.18225455E-05  1.38763538E-02  2.17238633E-02
 -1.44879006E-01 -4.65370685E-03  0.00000000E+00 -1.60511830E-02 -5.22767591E-01
  1.22702223E-02  0.00000000E+00 -1.09795366E+00  1.98046772E+00 -3.04419592E-01
  0.00000000E+00 -1.84196334E+00 -2.32164046E-01 -2.03040926E-01  0.00000000E+00
 -9.45136875E-03  0.00000000E+00  0.00000000E+00  1.23619350E-02 -8.62274201E-03
  4.91304137E-02  0.00000000E+00  0.00000000E+00 -2.07350450E-02 -3.28898524E-02
  1.38756366E-02  2.17226176E-02  1.44879867E-01 -4.65640543E-03  0.00000000E+00
 -1.60469008E-02  5.22769093E-01  1.22594435E-02  0.00000000E+00 -1.09789102E+00
 -1.98043626E+00 -3.04353071E-01  0.00000000E+00 -1.84185812E+00  2.32193672E-01
 -2.03026909E-01  0.00000000E+00 -9.45129569E-03  0.00000000E+00  0.00000000E+00
  1.23620306E-02  8.62209308E-03  4.91282948E-02  0.00000000E+00  0.00000000E+00
 -2.07348013E-02  3.28890588E-02  0.00000000E+00  0.00000000E+00  0.00000000E+00
  0.00000000E+00 -2.86306720E-07  0.00000000E+00  0.00000000E+00  0.00000000E+00
 -9.58857175E-06  0.00000000E+00  0.00000000E+00  0.00000000E+00 -7.38288097E-06
  0.00000000E+00  0.00000000E+00  0.00000000E+00  2.16771641E-05  0.00000000E+00
 -5.77352566E-03  3.29443258E-07  0.00000000E+00  0.00000000E+00  0.00000000E+00
  2.88041281E-01  9.86140639E-06  0.00000000E+00  0.00000000E+00  0.00000000E+00
  0.00000000E+00  0.00000000E+00  0.00000000E+00  1.81871925E-01  0.00000000E+00
  0.00000000E+00  0.00000000E+00  5.70492001E-01  0.00000000E+00  0.00000000E+00
  0.00000000E+00 -1.31618329E+00  0.00000000E+00  0.00000000E+00  0.00000000E+00
  7.14785986E-01  0.00000000E+00 -3.69327579E-03  3.77647580E-03  0.00000000E+00
  0.00000000E+00  0.00000000E+00 -2.87713980E-02  3.90494523E-02  0.00000000E+00
  0.00000000E+00  0.00000000E+00  0.00000000E+00  0.00000000E+00  0.00000000E+00
 -1.81886760E-01  0.00000000E+00  0.00000000E+00  0.00000000E+00 -5.70540092E-01
  0.00000000E+00  0.00000000E+00  0.00000000E+00  1.31630390E+00  0.00000000E+00
  0.00000000E+00  0.00000000E+00 -7.14852701E-01  0.00000000E+00 -3.69387231E-03
 -3.77677882E-03  0.00000000E+00  0.00000000E+00  0.00000000E+00 -2.87758130E-02
 -3.90511238E-02  0.00000000E+00  0.00000000E+00  1.45423605E-02  4.66653368E-02
 -4.62061141E-06 -2.41490262E-02  0.00000000E+00 -5.89114049E-01 -7.83413460E-07
  1.72263841E-01  0.00000000E+00  3.83188351E-02 -1.19520851E-04 -2.01939983E-02
  0.00000000E+00 -1.91031073E-01 -6.18902251E-06  4.44752691E-01  0.00000000E+00
  3.87396953E-02  0.00000000E+00  0.00000000E+00 -2.06763405E-02 -1.63087500E-06
 -1.54408424E-02  0.00000000E+00  0.00000000E+00 -4.19266970E-01  7.41341246E-05
 -1.85737979E-03 -2.02319456E-03 -1.23292714E-02 -1.60808530E-01  0.00000000E+00
 -2.02954756E-02 -1.06045152E-02 -5.56672363E-01  0.00000000E+00  1.31270842E-01
 -3.80081192E-02  1.52043338E+00  0.00000000E+00  2.52832850E-01 -4.48491632E-03
 -7.56929882E-01  0.00000000E+00  3.80217626E-03  0.00000000E+00  0.00000000E+00
  4.58915345E-03  9.59474859E-03  2.89914270E-02  0.00000000E+00  0.00000000E+00
  3.32635713E-02  5.43795115E-02 -1.85660268E-03 -2.02175820E-03  1.23270717E-02
 -1.60818808E-01  0.00000000E+00 -2.03020501E-02  1.05964670E-02 -5.56704944E-01
  0.00000000E+00  1.31164810E-01  3.79668238E-02  1.52046859E+00  0.00000000E+00
  2.52668860E-01  4.45450525E-03 -7.57014441E-01  0.00000000E+00  3.80233796E-03
  0.00000000E+00  0.00000000E+00  4.58941258E-03 -9.59486180E-03  2.89969261E-02
  0.00000000E+00  0.00000000E+00  3.32672947E-02 -5.43799672E-02  0.00000000E+00
  0.00000000E+00  0.00000000E+00  0.00000000E+00 -1.53416920E-02  0.00000000E+00
  0.00000000E+00  0.00000000E+00 -1.67377100E-01  0.00000000E+00  0.00000000E+00
  0.00000000E+00 -1.68520372E-01  0.00000000E+00  0.00000000E+00  0.00000000E+00
  4.76205438E-01  0.00000000E+00  7.96407650E-07 -2.11653285E-03  0.00000000E+00
  0.00000000E+00  0.00000000E+00 -1.10562508E-05  2.52900859E-01  0.00000000E+00
  0.00000000E+00  0.00000000E+00  0.00000000E+00  0.00000000E+00  0.00000000E+00
 -1.77123968E-01  0.00000000E+00  0.00000000E+00  0.00000000E+00 -5.70768107E-01
  0.00000000E+00  0.00000000E+00  0.00000000E+00  1.38432582E+00  0.00000000E+00
  0.00000000E+00  0.00000000E+00 -7.57998251E-01  0.00000000E+00  5.78737721E-03
 -2.96038282E-03  0.00000000E+00  0.00000000E+00  0.00000000E+00  4.78495486E-02
 -1.63921468E-02  0.00000000E+00  0.00000000E+00  0.00000000E+00  0.00000000E+00
  0.00000000E+00  0.00000000E+00 -1.77108329E-01  0.00000000E+00  0.00000000E+00
  0.00000000E+00 -5.70719388E-01  0.00000000E+00  0.00000000E+00  0.00000000E+00
  1.38421708E+00  0.00000000E+00  0.00000000E+00  0.00000000E+00 -7.57940400E-01
  0.00000000E+00 -5.78717934E-03 -2.96006808E-03  0.00000000E+00  0.00000000E+00
  0.00000000E+00 -4.78480727E-02 -1.63883498E-02  0.00000000E+00  0.00000000E+00
  8.01637677E-07  2.22057723E-06  1.01418524E-01  1.48887322E-07  0.00000000E+00
 -1.75097882E-05 -8.60984365E-02  1.57168458E-05  0.00000000E+00 -8.70314810E-05
  2.81148887E+00  1.36036652E-05  0.00000000E+00 -1.61661079E-05  1.53444871E-01
  1.53461368E-05  0.00000000E+00  1.13376470E-06  0.00000000E+00  0.00000000E+00
  1.76176273E-07  4.95920205E-02  1.11483700E-05  0.00000000E+00  0.00000000E+00
 -3.18444293E-05 -1.55105500E+00  3.13067951E-03  5.55095773E-03  2.03170649E-02
 -1.53819658E-01  0.00000000E+00 -6.03025045E-03  8.96283632E-02 -4.95589181E-01
  0.00000000E+00 -1.28505128E+00  4.51419767E-01  6.50366541E-01  0.00000000E+00
 -1.89992146E+00  3.78291127E-01 -1.11125369E+00  0.00000000E+00  2.28239640E-03
  0.00000000E+00  0.00000000E+00  3.84556071E-03  9.59679040E-04  8.00100615E-02
  0.00000000E+00  0.00000000E+00  4.99156915E-02  1.03795118E-02 -3.13138589E-03
 -5.55220472E-03  2.03189257E-02  1.53808030E-01  0.00000000E+00  6.03604084E-03
  8.96317439E-02  4.95548338E-01  0.00000000E+00  1.28509683E+00  4.51434736E-01
 -6.50252209E-01  0.00000000E+00  1.90000790E+00  3.78310300E-01  1.11120777E+00
  0.00000000E+00 -2.28218631E-03  0.00000000E+00  0.00000000E+00 -3.84526184E-03
  9.59136349E-04 -8.00071520E-02  0.00000000E+00  0.00000000E+00 -4.99133760E-02
  1.03746739E-02  1.40678660E-07  3.34406449E-07  7.65543044E-02  6.62603363E-07
  0.00000000E+00  4.26737071E-06 -4.49856629E-02  5.50572926E-06  0.00000000E+00
 -7.47313475E-05  1.90407392E+00  1.80149494E-05  0.00000000E+00 -8.54092243E-06
 -6.16083162E-01  3.25589643E-06  0.00000000E+00  2.24102420E-08  0.00000000E+00
  0.00000000E+00 -3.64323273E-08  3.82823032E-02  9.60239984E-06  0.00000000E+00
  0.00000000E+00 -6.27963905E-06 -8.69675981E-01 -8.46048413E-03 -1.65460151E-02
  1.57241043E-01  5.09020231E-02  0.00000000E+00  1.32653311E-01  5.49920160E-01
  1.52899389E-01  0.00000000E+00 -9.97612142E-01 -9.57525370E-01 -6.42249771E-01
  0.00000000E+00 -1.39529020E+00  1.45814035E+00  4.44125479E-02  0.00000000E+00
  2.49358676E-03  0.00000000E+00  0.00000000E+00 -2.62363017E-03  1.10487693E-03
  1.10264000E-01  0.00000000E+00  0.00000000E+00 -8.10295480E-02 -4.56148057E-02
  8.45996013E-03  1.65450348E-02  1.57239157E-01 -5.09027777E-02  0.00000000E+00
 -1.32647470E-01  5.49913224E-01 -1.52902886E-01  0.00000000E+00  9.97638521E-01
 -9.57494738E-01  6.42261688E-01  0.00000000E+00  1.39535141E+00  1.45814738E+00
 -4.44160109E-02  0.00000000E+00 -2.49357734E-03  0.00000000E+00  0.00000000E+00
  2.62359607E-03  1.10485800E-03 -1.10264463E-01  0.00000000E+00  0.00000000E+00
  8.10284249E-02 -4.56186063E-02  1.13750099E-07  1.89090008E-07 -5.81277694E-02
 -2.02968937E-06  0.00000000E+00 -6.73550344E-06 -2.42473174E-01 -4.22750202E-06
  0.00000000E+00  9.18997940E-05  3.14931142E-01 -4.98976474E-05  0.00000000E+00
 -1.21929615E-05  4.45571319E-01  8.48756655E-06  0.00000000E+00 -2.66444894E-06
  0.00000000E+00  0.00000000E+00  9.81138061E-07  8.32506554E-02 -1.41998104E-05
  0.00000000E+00  0.00000000E+00  1.51384687E-06  5.70834331E-02  7.79565934E-02
  1.57199146E-01 -2.30007448E-03  1.47649003E-02  0.00000000E+00 -1.25121822E+00
  3.83099495E-02  1.32369676E-02  0.00000000E+00  2.29283646E+00 -2.26855876E-01
  9.31611162E-02  0.00000000E+00 -2.75339725E+00  8.21148381E-01 -2.88179070E-01
  0.00000000E+00  4.29714603E-03  0.00000000E+00  0.00000000E+00 -2.07861561E-03
  8.39840924E-03  1.60950366E-01  0.00000000E+00  0.00000000E+00 -1.35774500E-01
  1.36705089E-01 -7.79595192E-02 -1.57205198E-01 -2.30212971E-03 -1.47663310E-02
  0.00000000E+00  1.25127090E+00  3.83070092E-02 -1.32408149E-02  0.00000000E+00
 -2.29297732E+00 -2.26884995E-01 -9.31680790E-02  0.00000000E+00  2.75340017E+00
  8.21134795E-01  2.88158616E-01  0.00000000E+00 -4.29756320E-03  0.00000000E+00
  0.00000000E+00  2.07904857E-03  8.39884232E-03 -1.60953101E-01  0.00000000E+00
  0.00000000E+00  1.35777032E-01  1.36707210E-01  4.02323485E-03  5.83176827E-03
 -3.70196908E-07 -1.15464226E-01  0.00000000E+00 -3.92973028E-01 -7.99331205E-07
 -2.39029228E-01  0.00000000E+00  4.08775245E+00 -4.01322176E-05 -2.04340974E+00
  0.00000000E+00 -6.18501646E-01 -6.35126470E-06  4.83132801E-01  0.00000000E+00
 -9.62900012E-02  0.00000000E+00  0.00000000E+00  8.94666558E-03 -4.52088432E-07
 -6.52725645E-01  0.00000000E+00  0.00000000E+00  2.65245729E-02  4.95997211E-06
 -7.57331696E-02 -1.55300321E-01  2.62365865E-02 -1.86311057E-02  0.00000000E+00
  1.31692976E+00  1.64136783E-03 -2.63112700E-02  0.00000000E+00 -3.29250016E+00
  7.14254603E-01 -2.59161041E-01  0.00000000E+00  1.90187806E-01  2.49890341E-01
 -1.92498020E-01  0.00000000E+00 -7.72184500E-03  0.00000000E+00  0.00000000E+00
  5.60511631E-03 -7.58505512E-03 -9.95309496E-02  0.00000000E+00  0.00000000E+00
  1.27290843E-02 -1.68492598E-01 -7.57299853E-02 -1.55293962E-01 -2.62378273E-02
 -1.86310323E-02  0.00000000E+00  1.31688080E+00 -1.64656398E-03 -2.63131388E-02
  0.00000000E+00 -3.29243922E+00 -7.14250355E-01 -2.59152728E-01  0.00000000E+00
  1.90026378E-01 -2.49943596E-01 -1.92520915E-01  0.00000000E+00 -7.72183776E-03
  0.00000000E+00  0.00000000E+00  5.60518488E-03  7.58475909E-03 -9.95287215E-02
  0.00000000E+00  0.00000000E+00  1.27235691E-02  1.68482378E-01  0.00000000E+00
  0.00000000E+00  0.00000000E+00  0.00000000E+00 -1.09985586E-01  0.00000000E+00
  0.00000000E+00  0.00000000E+00  1.83605849E-02  0.00000000E+00  0.00000000E+00
  0.00000000E+00 -1.29621972E-01  0.00000000E+00  0.00000000E+00  0.00000000E+00
 -2.82768695E-02  0.00000000E+00  5.04455031E-06 -7.07475208E-02  0.00000000E+00
  0.00000000E+00  0.00000000E+00 -4.03909973E-06 -8.04619621E-02  0.00000000E+00
  0.00000000E+00  0.00000000E+00  0.00000000E+00  0.00000000E+00  0.00000000E+00
 -1.31968116E-02  0.00000000E+00  0.00000000E+00  0.00000000E+00 -5.80681276E-03
  0.00000000E+00  0.00000000E+00  0.00000000E+00 -2.30055789E-02  0.00000000E+00
  0.00000000E+00  0.00000000E+00  9.24209199E-02  0.00000000E+00 -2.11991959E-04
  6.65401739E-03  0.00000000E+00  0.00000000E+00  0.00000000E+00  2.04038199E-01
  6.71123239E-01  0.00000000E+00  0.00000000E+00  0.00000000E+00  0.00000000E+00
  0.00000000E+00  0.00000000E+00 -1.31946821E-02  0.00000000E+00  0.00000000E+00
  0.00000000E+00 -5.80631886E-03  0.00000000E+00  0.00000000E+00  0.00000000E+00
 -2.30059378E-02  0.00000000E+00  0.00000000E+00  0.00000000E+00  9.24099553E-02
  0.00000000E+00  2.11179282E-04  6.65449117E-03  0.00000000E+00  0.00000000E+00
  0.00000000E+00 -2.04108606E-01  6.71161207E-01  0.00000000E+00  0.00000000E+00
  0.00000000E+00  0.00000000E+00  0.00000000E+00  0.00000000E+00 -5.92617653E-06
  0.00000000E+00  0.00000000E+00  0.00000000E+00 -2.19009072E-06  0.00000000E+00
  0.00000000E+00  0.00000000E+00 -7.66628363E-06  0.00000000E+00  0.00000000E+00
  0.00000000E+00 -2.04858254E-06  0.00000000E+00 -1.06982282E-01 -4.90976951E-06
  0.00000000E+00  0.00000000E+00  0.00000000E+00  1.14071531E-01 -1.99371336E-06
  0.00000000E+00  0.00000000E+00  0.00000000E+00  0.00000000E+00  0.00000000E+00
  0.00000000E+00  2.09057758E-02  0.00000000E+00  0.00000000E+00  0.00000000E+00
  1.03934997E-02  0.00000000E+00  0.00000000E+00  0.00000000E+00 -3.24801125E-02
  0.00000000E+00  0.00000000E+00  0.00000000E+00 -9.38606280E-02  0.00000000E+00
  7.46070359E-03  3.33142808E-03  0.00000000E+00  0.00000000E+00  0.00000000E+00
  6.37214581E-01  2.98429863E-01  0.00000000E+00  0.00000000E+00  0.00000000E+00
  0.00000000E+00  0.00000000E+00  0.00000000E+00 -2.09078236E-02  0.00000000E+00
  0.00000000E+00  0.00000000E+00 -1.03950862E-02  0.00000000E+00  0.00000000E+00
  0.00000000E+00  3.24823280E-02  0.00000000E+00  0.00000000E+00  0.00000000E+00
  9.38711323E-02  0.00000000E+00  7.46078095E-03 -3.33069521E-03  0.00000000E+00
  0.00000000E+00  0.00000000E+00  6.37187864E-01 -2.98355129E-01  0.00000000E+00
  0.00000000E+00 -4.55277572E-04  3.08798119E-03  5.63946210E-07 -1.37047773E-01
  0.00000000E+00 -1.45925145E-01 -1.25152433E-06  6.64273023E-02  0.00000000E+00
  7.39230818E-01  1.42749117E-05 -4.72696242E-01  0.00000000E+00  5.85485549E-04
 -7.85512981E-07  5.01697995E-02  0.00000000E+00 -2.79226951E-02  0.00000000E+00
  0.00000000E+00  4.30330208E-02 -8.03151197E-07 -4.12030187E-01  0.00000000E+00
  0.00000000E+00 -1.87408568E-01 -8.22936890E-06  2.85878194E-03  4.34833741E-03
  3.54210906E-02 -9.00100500E-03  0.00000000E+00 -6.11289580E-03  6.43817190E-02
 -1.54442361E-02  0.00000000E+00 -3.13126752E-01  1.79484719E-02  3.63403805E-02
  0.00000000E+00 -1.25026265E-01  1.12794968E-01 -2.03866710E-02  0.00000000E+00
  3.84608894E-03  0.00000000E+00  0.00000000E+00  2.41631173E-03 -2.41201650E-03
  6.10448217E-01  0.00000000E+00  0.00000000E+00 -8.50737223E-02 -3.54960579E-01
  2.85871009E-03  4.34821800E-03 -3.54201852E-02 -9.00042067E-03  0.00000000E+00
 -6.11277992E-03 -6.43793092E-02 -1.54429983E-02  0.00000000E+00 -3.13111854E-01
 -1.79469041E-02  3.63455982E-02  0.00000000E+00 -1.25011462E-01 -1.12789674E-01
 -2.03806881E-02  0.00000000E+00  3.84627439E-03  0.00000000E+00  0.00000000E+00
  2.41628878E-03  2.41203542E-03  6.10458911E-01  0.00000000E+00  0.00000000E+00
 -8.50626835E-02  3.54966693E-01  1.84054601E-07  3.69499131E-07  6.85824845E-02
  5.66652025E-07  0.00000000E+00 -4.52805524E-06 -1.72462183E-02  2.06179926E-06
  0.00000000E+00  1.40703598E-05  1.09045830E+00 -1.39975097E-05  0.00000000E+00
 -1.66730165E-06 -5.85533831E-02  1.79970717E-06  0.00000000E+00 -1.65561977E-07
  0.00000000E+00  0.00000000E+00 -1.23918923E-06 -7.14555786E-03 -2.30150656E-06
  0.00000000E+00  0.00000000E+00 -3.33099828E-06 -7.95690430E-01  2.40624462E-03
  3.98660241E-03  2.14246855E-02 -1.95999966E-02  0.00000000E+00 -3.49726818E-03
  6.80459647E-02 -4.94501354E-02  0.00000000E+00 -7.03778040E-01  1.47625037E-01
 -8.16954611E-02  0.00000000E+00 -4.58710848E-01  1.29934483E-01 -1.78230281E-01
  0.00000000E+00 -6.93895378E-03  0.00000000E+00  0.00000000E+00 -2.54033915E-03
  1.79081421E-03 -5.51031640E-01  0.00000000E+00  0.00000000E+00 -3.61449432E-01
  2.69927773E-01 -2.40706738E-03 -3.98828536E-03  2.14251857E-02  1.96001970E-02
  0.00000000E+00  3.51192748E-03  6.80478573E-02  4.94502884E-02  0.00000000E+00
  7.03752813E-01  1.47616466E-01  8.16860163E-02  0.00000000E+00  4.58712533E-01
  1.29934565E-01  1.78228949E-01  0.00000000E+00  6.93882611E-03  0.00000000E+00
  0.00000000E+00  2.54042510E-03  1.79084607E-03  5.51020375E-01  0.00000000E+00
  0.00000000E+00  3.61456362E-01  2.69917294E-01  4.49365484E-08  4.46698670E-08
  2.89595827E-01 -1.45872673E-06  0.00000000E+00  7.09317565E-07 -3.81477514E-01
 -4.45959410E-06  0.00000000E+00  1.75440592E-05  1.13453865E-01 -8.47393524E-06
  0.00000000E+00  1.37311439E-07 -2.61045675E-02  3.66544057E-07  0.00000000E+00
 -7.97082531E-07  0.00000000E+00  0.00000000E+00  2.83253962E-06 -7.23248914E-02
 -1.92104413E-06  0.00000000E+00  0.00000000E+00 -3.12724331E-06  3.10255825E-01
  1.33522989E-02  2.57674233E-02  7.91932391E-02  3.08659214E-02  0.00000000E+00
 -2.06632325E-01  1.03494817E-01  6.80365621E-02  0.00000000E+00  5.13354544E-01
 -4.84750102E-01 -3.16011032E-02  0.00000000E+00 -1.38672365E-01  1.01509680E-01
 -8.98888428E-02  0.00000000E+00 -4.68947843E-03  0.00000000E+00  0.00000000E+00
  1.49504374E-02  1.01441630E-02 -1.91640595E-01  0.00000000E+00  0.00000000E+00
  5.90928049E-01  3.07388990E-01 -1.33524162E-02 -2.57676599E-02  7.91933218E-02
 -3.08673817E-02  0.00000000E+00  2.06634739E-01  1.03494176E-01 -6.80389834E-02
  0.00000000E+00 -5.13370677E-01 -4.84760115E-01  3.16092852E-02  0.00000000E+00
  1.38664532E-01  1.01508132E-01  8.98857627E-02  0.00000000E+00  4.68947144E-03
  0.00000000E+00  0.00000000E+00 -1.49503207E-02  1.01444718E-02  1.91638252E-01
  0.00000000E+00  0.00000000E+00 -5.90925032E-01  3.07399282E-01  0.00000000E+00
  0.00000000E+00  0.00000000E+00  0.00000000E+00  5.59865887E-01  0.00000000E+00
  0.00000000E+00  0.00000000E+00 -3.93409789E-01  0.00000000E+00  0.00000000E+00
  0.00000000E+00  8.06440561E-01  0.00000000E+00  0.00000000E+00  0.00000000E+00
 -9.17324711E-02  0.00000000E+00  4.81906912E-06  1.13381562E-01  0.00000000E+00
  0.00000000E+00  0.00000000E+00 -1.57558047E-05 -6.55612712E-01  0.00000000E+00
  0.00000000E+00  0.00000000E+00  0.00000000E+00  0.00000000E+00  0.00000000E+00
  3.26166678E-02  0.00000000E+00  0.00000000E+00  0.00000000E+00  6.43845484E-02
  0.00000000E+00  0.00000000E+00  0.00000000E+00 -3.70620858E-01  0.00000000E+00
  0.00000000E+00  0.00000000E+00 -1.26377274E-01  0.00000000E+00  1.07129082E-02
 -4.39958357E-03  0.00000000E+00  0.00000000E+00  0.00000000E+00  6.66430874E-01
 -1.68053186E-01  0.00000000E+00  0.00000000E+00  0.00000000E+00  0.00000000E+00
  0.00000000E+00  0.00000000E+00  3.26179021E-02  0.00000000E+00  0.00000000E+00
  0.00000000E+00  6.43864460E-02  0.00000000E+00  0.00000000E+00  0.00000000E+00
 -3.70636643E-01  0.00000000E+00  0.00000000E+00  0.00000000E+00 -1.26379244E-01
  0.00000000E+00 -1.07131668E-02 -4.39977849E-03  0.00000000E+00  0.00000000E+00
  0.00000000E+00 -6.66440293E-01 -1.68062990E-01  0.00000000E+00  0.00000000E+00
  0.00000000E+00  0.00000000E+00  0.00000000E+00  0.00000000E+00  7.32874456E-06
  0.00000000E+00  0.00000000E+00  0.00000000E+00 -1.21802246E-05  0.00000000E+00
  0.00000000E+00  0.00000000E+00  9.57052222E-06  0.00000000E+00  0.00000000E+00
  0.00000000E+00 -1.17292948E-06  0.00000000E+00 -2.10477678E-01  4.23893564E-07
  0.00000000E+00  0.00000000E+00  0.00000000E+00  8.79261060E-01 -8.18674943E-06
  0.00000000E+00  0.00000000E+00  0.00000000E+00  0.00000000E+00  0.00000000E+00
  0.00000000E+00  3.56639767E-02  0.00000000E+00  0.00000000E+00  0.00000000E+00
  5.41413549E-02  0.00000000E+00  0.00000000E+00  0.00000000E+00 -4.18244272E-01
  0.00000000E+00  0.00000000E+00  0.00000000E+00 -5.99864283E-02  0.00000000E+00
  3.22796984E-03 -9.27886223E-03  0.00000000E+00  0.00000000E+00  0.00000000E+00
  3.34955436E-01 -6.97170052E-01  0.00000000E+00  0.00000000E+00  0.00000000E+00
  0.00000000E+00  0.00000000E+00  0.00000000E+00 -3.56638375E-02  0.00000000E+00
  0.00000000E+00  0.00000000E+00 -5.41402978E-02  0.00000000E+00  0.00000000E+00
  0.00000000E+00  4.18244443E-01  0.00000000E+00  0.00000000E+00  0.00000000E+00
  5.99819727E-02  0.00000000E+00  3.22787956E-03  9.27882721E-03  0.00000000E+00
  0.00000000E+00  0.00000000E+00  3.34946729E-01  6.97163598E-01  0.00000000E+00
  0.00000000E+00 -1.04142101E-02 -2.31179353E-02  1.48443466E-06  5.62254712E-01
  0.00000000E+00  1.05563673E-01 -1.10112293E-05 -6.48753957E-01  0.00000000E+00
  1.01881515E+00 -7.06259805E-06  4.73130746E-01  0.00000000E+00 -1.21310696E-01
 -1.47756259E-07 -8.30941603E-02  0.00000000E+00  7.59947862E-03  0.00000000E+00
  0.00000000E+00 -2.39363170E-01  3.20814721E-06 -2.51970940E-01  0.00000000E+00
  0.00000000E+00  1.30579892E+00 -9.37453030E-06 -4.33784968E-03 -8.44588232E-03
 -1.20329047E-03  2.83966945E-02  0.00000000E+00  9.06162540E-02  4.93911680E-02
  2.30360461E-02  0.00000000E+00 -5.58748302E-01 -9.78712973E-02 -7.49026230E-01
  0.00000000E+00 -1.08134906E-01 -4.34554116E-03 -4.83783913E-02  0.00000000E+00
  3.30697733E-03  0.00000000E+00  0.00000000E+00  8.85902059E-03 -5.28847190E-03
  1.61736663E-01  0.00000000E+00  0.00000000E+00  7.08717242E-01  1.02583970E-01
 -4.33792581E-03 -8.44600397E-03  1.20388356E-03  2.83969219E-02  0.00000000E+00
  9.06172824E-02 -4.93914096E-02  2.30355067E-02  0.00000000E+00 -5.58764256E-01
  9.78634971E-02 -7.49037783E-01  0.00000000E+00 -1.08147574E-01  4.34165694E-03
 -4.83813242E-02  0.00000000E+00  3.30707792E-03  0.00000000E+00  0.00000000E+00
  8.85926216E-03  5.28826547E-03  1.61737743E-01  0.00000000E+00  0.00000000E+00
  7.08712898E-01 -1.02595318E-01 -3.03426440E-06 -5.97522705E-06  3.13061787E-01
 -3.74535782E-05  0.00000000E+00  2.38866892E-05  1.11956285E+00  6.60978591E-07
  0.00000000E+00  1.59523755E-04  2.44989128E+00 -8.77791661E-05  0.00000000E+00
  1.58549390E-05 -3.40571949E-02  2.36664718E-06  0.00000000E+00  1.84692674E-05
  0.00000000E+00  0.00000000E+00 -1.33708712E-05  3.76591302E-01 -3.83786954E-05
  0.00000000E+00  0.00000000E+00  2.40590625E-05 -1.40656267E+00 -3.44504895E-02
 -6.93044401E-02 -7.56973648E-02  3.90445799E-02  0.00000000E+00  6.41734005E-01
 -1.03912636E-01  6.67625018E-02  0.00000000E+00 -2.34011523E+00  1.22321078E+00
 -8.95162386E-01  0.00000000E+00 -1.40968590E+00  2.44313560E-01 -3.42539177E-01
  0.00000000E+00  1.35714961E-02  0.00000000E+00  0.00000000E+00 -6.14594216E-03
  1.73296050E-02  3.41019463E-01  0.00000000E+00  0.00000000E+00 -1.50648098E-01
  5.99448261E-01  3.44471870E-02  6.92977322E-02 -7.56920170E-02 -3.90370298E-02
  0.00000000E+00 -6.41672393E-01 -1.03899079E-01 -6.67488924E-02  0.00000000E+00
  2.33995302E+00  1.22313710E+00  8.95059292E-01  0.00000000E+00  1.40958565E+00
  2.44292747E-01  3.42528326E-01  0.00000000E+00 -1.35703325E-02  0.00000000E+00
  0.00000000E+00  6.14593477E-03  1.73272473E-02 -3.40981061E-01  0.00000000E+00
  0.00000000E+00  1.50659469E-01  5.99383896E-01 -5.02795536E-02 -1.22351818E-01
 -1.03288299E-05 -5.76015223E-01  0.00000000E+00  8.06571874E-01 -1.04541653E-04
 -1.81887592E-01  0.00000000E+00  3.37327515E+00 -1.60304056E-04 -1.44947692E+00
  0.00000000E+00  2.94556246E-01  2.13109722E-06  3.14099292E-02  0.00000000E+00
  2.98195697E-01  0.00000000E+00  0.00000000E+00 -2.84027779E-01 -2.22798298E-05
 -6.65872714E-01  0.00000000E+00  0.00000000E+00  5.87901475E-01  9.09756135E-05
 -2.87951047E-02 -5.89179496E-02 -3.97521465E-02  4.81826881E-02  0.00000000E+00
  5.57784112E-01 -1.16985929E-01  1.02246343E-01  0.00000000E+00 -1.75318600E+00
  8.32286772E-01 -8.78597808E-01  0.00000000E+00 -1.04599556E+00  2.13147347E-01
 -9.58014012E-02  0.00000000E+00  1.19200541E-02  0.00000000E+00  0.00000000E+00
 -3.71430021E-03  2.24908998E-02  3.27768338E-01  0.00000000E+00  0.00000000E+00
 -9.89640486E-03  5.56641506E-01 -2.87993628E-02 -5.89266547E-02  3.97596933E-02
  4.81858787E-02  0.00000000E+00  5.57870015E-01  1.16997242E-01  1.02251830E-01
  0.00000000E+00 -1.75353170E+00 -8.32466459E-01 -8.78722996E-01  0.00000000E+00
 -1.04617094E+00 -2.13173738E-01 -9.58354530E-02  0.00000000E+00  1.19217016E-02
  0.00000000E+00  0.00000000E+00 -3.71539055E-03 -2.24930313E-02  3.27813083E-01
  0.00000000E+00  0.00000000E+00 -9.92580562E-03 -5.56720918E-01  0.00000000E+00
  0.00000000E+00  0.00000000E+00  0.00000000E+00 -1.18027482E+00  0.00000000E+00
  0.00000000E+00  0.00000000E+00  1.61669590E+00  0.00000000E+00  0.00000000E+00
  0.00000000E+00 -5.99082891E-01  0.00000000E+00  0.00000000E+00  0.00000000E+00
  1.51566206E-01  0.00000000E+00  5.68052453E-06  2.89961333E-01  0.00000000E+00
  0.00000000E+00  0.00000000E+00 -5.25158765E-06 -4.47575013E-01  0.00000000E+00
  0.00000000E+00  0.00000000E+00  0.00000000E+00  0.00000000E+00  0.00000000E+00
  8.74963807E-03  0.00000000E+00  0.00000000E+00  0.00000000E+00  3.04240430E-02
  0.00000000E+00  0.00000000E+00  0.00000000E+00 -3.10510015E-01  0.00000000E+00
  0.00000000E+00  0.00000000E+00  9.30527753E-02  0.00000000E+00  5.05622709E-03
 -7.50659564E-04  0.00000000E+00  0.00000000E+00  0.00000000E+00  3.62173548E-01
 -1.70741899E-01  0.00000000E+00  0.00000000E+00  0.00000000E+00  0.00000000E+00
  0.00000000E+00  0.00000000E+00  8.74986522E-03  0.00000000E+00  0.00000000E+00
  0.00000000E+00  3.04225579E-02  0.00000000E+00  0.00000000E+00  0.00000000E+00
 -3.10514606E-01  0.00000000E+00  0.00000000E+00  0.00000000E+00  9.30541340E-02
  0.00000000E+00 -5.05601626E-03 -7.50447798E-04  0.00000000E+00  0.00000000E+00
  0.00000000E+00 -3.62172371E-01 -1.70737188E-01  0.00000000E+00  0.00000000E+00
 -3.60395884E-02 -7.86128192E-02  2.35639756E-05  1.00964744E+00  0.00000000E+00
  2.11096312E-01 -6.05169075E-05 -2.25672561E+00  0.00000000E+00  5.27212656E+00
 -4.06530454E-05 -1.74161622E+00  0.00000000E+00  1.75216588E-01 -4.46345758E-07
 -5.38642999E-02  0.00000000E+00  5.44900767E-01  0.00000000E+00  0.00000000E+00
  2.52566769E-01 -3.88120124E-06 -1.19038657E+00  0.00000000E+00  0.00000000E+00
 -4.62538240E-01  3.22029688E-05 -1.69226601E-02 -3.72375698E-02  1.06726150E-02
  3.95986985E-03  0.00000000E+00  4.85940364E-01  2.22981116E-03 -4.04459862E-02
  0.00000000E+00 -2.42412911E+00  1.42363926E+00 -4.22211915E-01  0.00000000E+00
 -1.32359141E+00  2.33837770E-01 -2.23261265E-01  0.00000000E+00 -4.29725537E-03
  0.00000000E+00  0.00000000E+00 -4.28306213E-03 -9.37460277E-04  1.96113470E-01
  0.00000000E+00  0.00000000E+00 -4.41016950E-01  1.52763609E-01 -1.69226443E-02
 -3.72375626E-02 -1.06736684E-02  3.95936890E-03  0.00000000E+00  4.85945397E-01
 -2.23842100E-03 -4.04499101E-02  0.00000000E+00 -2.42423296E+00 -1.42368181E+00
 -4.22228404E-01  0.00000000E+00 -1.32363692E+00 -2.33846069E-01 -2.23265667E-01
  0.00000000E+00 -4.29761096E-03  0.00000000E+00  0.00000000E+00 -4.28273564E-03
  9.37669786E-04  1.96113636E-01  0.00000000E+00  0.00000000E+00 -4.41015272E-01
 -1.52762801E-01  9.30513506E-08  2.05890088E-07 -1.28504110E+00  3.09469104E-06
  0.00000000E+00 -1.02244862E-05  2.58797505E+00 -9.23747534E-06  0.00000000E+00
  2.19499244E-05  1.29604125E+00 -2.48713410E-05  0.00000000E+00  6.12851789E-06
 -1.70727802E-02 -1.56696174E-06  0.00000000E+00  2.58079639E-05  0.00000000E+00
  0.00000000E+00  1.91001193E-05  4.74850972E-01 -1.95032281E-05  0.00000000E+00
  0.00000000E+00 -2.49181240E-05 -1.68707957E+00 -5.49451484E-04 -1.96242807E-03
  1.23606761E-02 -1.91571218E-03  0.00000000E+00  1.38582662E-01  1.68266915E-01
 -8.10466001E-02  0.00000000E+00 -2.08360898E+00  7.83411033E-01 -8.07941272E-01
  0.00000000E+00 -4.92074781E-01  5.48891654E-02  2.93675753E-03  0.00000000E+00
 -1.29739959E-02  0.00000000E+00  0.00000000E+00  9.24917529E-03 -5.61497655E-03
 -4.42841969E-02  0.00000000E+00  0.00000000E+00  1.50332620E-01  2.22416624E-01
  5.48744301E-04  1.96086362E-03  1.23617394E-02  1.91600631E-03  0.00000000E+00
 -1.38565231E-01  1.68271266E-01  8.10500082E-02  0.00000000E+00  2.08358790E+00
  7.83391932E-01  8.07928880E-01  0.00000000E+00  4.92056564E-01  5.48879812E-02
 -2.93421819E-03  0.00000000E+00  1.29740093E-02  0.00000000E+00  0.00000000E+00
 -9.24867084E-03 -5.61500919E-03  4.42927480E-02  0.00000000E+00  0.00000000E+00
 -1.50330603E-01  2.22411523E-01  0.00000000E+00  0.00000000E+00  0.00000000E+00
  0.00000000E+00  2.71749323E-01  0.00000000E+00  0.00000000E+00  0.00000000E+00
 -4.33297163E-01  0.00000000E+00  0.00000000E+00  0.00000000E+00  2.88691370E-01
  0.00000000E+00  0.00000000E+00  0.00000000E+00  6.32527056E-02  0.00000000E+00
 -5.03552513E-04  1.09855121E+00  0.00000000E+00  0.00000000E+00  0.00000000E+00
  2.28651396E-04 -4.90499230E-01  0.00000000E+00  0.00000000E+00  0.00000000E+00
  0.00000000E+00  0.00000000E+00  0.00000000E+00  1.57178014E-02  0.00000000E+00
  0.00000000E+00  0.00000000E+00 -4.88541399E-02  0.00000000E+00  0.00000000E+00
  0.00000000E+00  5.53037985E-02  0.00000000E+00  0.00000000E+00  0.00000000E+00
 -1.56889810E-01  0.00000000E+00 -1.00465854E-02  7.26790074E-03  0.00000000E+00
  0.00000000E+00  0.00000000E+00 -1.56509538E-01  1.53646429E-01  0.00000000E+00
  0.00000000E+00  0.00000000E+00  0.00000000E+00  0.00000000E+00  0.00000000E+00
  1.57045658E-02  0.00000000E+00  0.00000000E+00  0.00000000E+00 -4.88046373E-02
  0.00000000E+00  0.00000000E+00  0.00000000E+00  5.52932590E-02  0.00000000E+00
  0.00000000E+00  0.00000000E+00 -1.56795099E-01  0.00000000E+00  1.00360613E-02
  7.25955624E-03  0.00000000E+00  0.00000000E+00  0.00000000E+00  1.56358220E-01
  1.53552409E-01  0.00000000E+00  0.00000000E+00  0.00000000E+00  0.00000000E+00
  0.00000000E+00  0.00000000E+00  1.27498809E-04  0.00000000E+00  0.00000000E+00
  0.00000000E+00 -2.05308689E-04  0.00000000E+00  0.00000000E+00  0.00000000E+00
  1.32119944E-04  0.00000000E+00  0.00000000E+00  0.00000000E+00  2.82392143E-05
  0.00000000E+00  1.12416956E+00  4.90463721E-04  0.00000000E+00  0.00000000E+00
  0.00000000E+00 -5.03569269E-01 -2.14863396E-04  0.00000000E+00  0.00000000E+00
  0.00000000E+00  0.00000000E+00  0.00000000E+00  0.00000000E+00 -1.59331018E-02
  0.00000000E+00  0.00000000E+00  0.00000000E+00  5.54884161E-02  0.00000000E+00
  0.00000000E+00  0.00000000E+00 -1.61347531E-02  0.00000000E+00  0.00000000E+00
  0.00000000E+00  1.05550610E-01  0.00000000E+00  1.15883890E-02 -8.99724700E-03
  0.00000000E+00  0.00000000E+00  0.00000000E+00  1.75364275E-01 -1.07358744E-01
  0.00000000E+00  0.00000000E+00  0.00000000E+00  0.00000000E+00  0.00000000E+00
  0.00000000E+00  1.59487460E-02  0.00000000E+00  0.00000000E+00  0.00000000E+00
 -5.55340479E-02  0.00000000E+00  0.00000000E+00  0.00000000E+00  1.61919306E-02
  0.00000000E+00  0.00000000E+00  0.00000000E+00 -1.05693621E-01  0.00000000E+00
  1.15974973E-02  9.00366163E-03  0.00000000E+00  0.00000000E+00  0.00000000E+00
  1.75516683E-01  1.07503112E-01  0.00000000E+00  0.00000000E+00  1.56628206E-02
  2.95279980E-02  2.22556702E-05 -4.29515097E-01  0.00000000E+00 -1.87001306E-01
 -4.50465737E-05  8.68752164E-01  0.00000000E+00 -7.10659722E-01 -2.11613634E-05
 -5.15454269E-02  0.00000000E+00  1.02676934E-01  9.97678143E-07 -4.83439092E-02
  0.00000000E+00  4.28684371E-01  0.00000000E+00  0.00000000E+00  9.36741755E-01
 -1.90708364E-05 -7.22590336E-02  0.00000000E+00  0.00000000E+00 -2.69106257E-01
  3.27334352E-05 -6.00698043E-04  3.74244254E-04 -4.96995627E-02 -1.03547179E-02
  0.00000000E+00 -5.73084709E-02  2.25534908E-02  6.37002255E-02  0.00000000E+00
  3.88196867E-01 -2.82033292E-01  5.66039449E-02  0.00000000E+00  7.30662672E-02
  1.49733245E-02  1.17464864E-01  0.00000000E+00  3.22036653E-03  0.00000000E+00
  0.00000000E+00  1.75384044E-02  5.54764620E-03 -4.12249272E-02  0.00000000E+00
  0.00000000E+00  3.67694079E-01 -3.30578506E-02 -6.00825702E-04  3.73951203E-04
  4.96998424E-02 -1.03563049E-02  0.00000000E+00 -5.73017349E-02 -2.25584824E-02
  6.36994100E-02  0.00000000E+00  3.88124480E-01  2.82010040E-01  5.65685780E-02
  0.00000000E+00  7.30561299E-02 -1.49737621E-02  1.17468700E-01  0.00000000E+00
  3.21986733E-03  0.00000000E+00  0.00000000E+00  1.75384357E-02 -5.54789535E-03
 -4.12268095E-02  0.00000000E+00  0.00000000E+00  3.67709371E-01  3.30396743E-02
 -6.78175037E-02 -1.32446692E-01 -9.67694972E-06  2.68358027E-01  0.00000000E+00
  1.05487030E+00 -2.84963122E-06 -1.31012011E+00  0.00000000E+00  2.04153419E+00
 -3.28042211E-06 -4.51613670E-01  0.00000000E+00 -8.52611576E-02 -8.88940586E-07
 -3.38070632E-02  0.00000000E+00 -8.89297536E-01  0.00000000E+00  0.00000000E+00
  5.35310456E-01  2.03686840E-06  3.24103878E-02  0.00000000E+00  0.00000000E+00
 -1.72978182E-01 -7.15900384E-06 -7.85126002E-03 -2.30823692E-02  1.07001561E-01
 -8.11308975E-02  0.00000000E+00  3.92542075E-01 -7.70883412E-02  9.17430263E-02
  0.00000000E+00 -1.33275776E+00  9.10023840E-01 -6.07113626E-01  0.00000000E+00
 -4.20752108E-01  5.52453909E-02 -2.59780902E-02  0.00000000E+00  1.07739513E-03
  0.00000000E+00  0.00000000E+00  5.44898263E-03  1.02959522E-02  3.13600626E-01
  0.00000000E+00  0.00000000E+00 -1.51358551E-01  5.99724945E-01 -7.85069354E-03
 -2.30814133E-02 -1.07005073E-01 -8.11327584E-02  0.00000000E+00  3.92538204E-01
  7.70865472E-02  9.17410914E-02  0.00000000E+00 -1.33275932E+00 -9.10033701E-01
 -6.07108383E-01  0.00000000E+00 -4.20771858E-01 -5.52517420E-02 -2.59814121E-02
  0.00000000E+00  1.07704188E-03  0.00000000E+00  0.00000000E+00  5.44890008E-03
 -1.02950603E-02  3.13606639E-01  0.00000000E+00  0.00000000E+00 -1.51368679E-01
 -5.99727606E-01  2.85879680E-07  1.56787030E-06 -5.76023796E-01  6.16436604E-06
  0.00000000E+00 -2.77602921E-05  2.49853000E+00 -2.15030796E-06  0.00000000E+00
 -7.21914759E-06 -1.50841437E-01  3.90292317E-06  0.00000000E+00 -9.27334502E-07
  2.98196219E-02  7.63953269E-07  0.00000000E+00  1.87641569E-06  0.00000000E+00
  0.00000000E+00 -9.79704806E-06 -1.09914296E+00  2.23329295E-07  0.00000000E+00
  0.00000000E+00 -3.77800844E-06 -3.11339899E-01 -8.17992034E-03 -2.58535758E-02
  1.73774315E-01 -1.81415392E-01  0.00000000E+00  4.97894417E-01 -1.60370600E-01
  1.19704450E-01  0.00000000E+00 -1.83250814E+00  1.26782154E+00 -9.57849578E-01
  0.00000000E+00  6.27581476E-01 -4.84488785E-01  2.89585639E-01  0.00000000E+00
  7.13002002E-03  0.00000000E+00  0.00000000E+00 -8.29053634E-03  4.54266576E-03
  4.24717006E-01  0.00000000E+00  0.00000000E+00 -1.49828895E-01  6.91758361E-01
  8.17909793E-03  2.58520825E-02  1.73778960E-01  1.81417225E-01  0.00000000E+00
 -4.97886494E-01 -1.60365485E-01 -1.19698238E-01  0.00000000E+00  1.83253228E+00
  1.26783962E+00  9.57850012E-01  0.00000000E+00 -6.27577126E-01 -4.84490685E-01
 -2.89582167E-01  0.00000000E+00 -7.12886823E-03  0.00000000E+00  0.00000000E+00
  8.29010449E-03  4.54069392E-03 -4.24718747E-01  0.00000000E+00  0.00000000E+00
  1.49839851E-01  6.91760968E-01  0.00000000E+00  0.00000000E+00  0.00000000E+00
  0.00000000E+00  4.03187734E-06  0.00000000E+00  0.00000000E+00  0.00000000E+00
  9.50947866E-06  0.00000000E+00  0.00000000E+00  0.00000000E+00  2.51427733E-05
  0.00000000E+00  0.00000000E+00  0.00000000E+00 -4.74759417E-05  0.00000000E+00
  3.86819174E-02  9.80224865E-06  0.00000000E+00  0.00000000E+00  0.00000000E+00
 -9.55124135E-02 -2.22695843E-05  0.00000000E+00  0.00000000E+00  0.00000000E+00
  0.00000000E+00  0.00000000E+00  0.00000000E+00  8.91612911E-01  0.00000000E+00
  0.00000000E+00  0.00000000E+00 -1.07776535E+00  0.00000000E+00  0.00000000E+00
  0.00000000E+00  6.74789202E-01  0.00000000E+00  0.00000000E+00  0.00000000E+00
 -2.83125737E-01  0.00000000E+00 -1.51200675E-02  1.06581693E-02  0.00000000E+00
  0.00000000E+00  0.00000000E+00 -1.88901133E-02  1.72294839E-02  0.00000000E+00
  0.00000000E+00  0.00000000E+00  0.00000000E+00  0.00000000E+00  0.00000000E+00
 -8.92054664E-01  0.00000000E+00  0.00000000E+00  0.00000000E+00  1.07830063E+00
  0.00000000E+00  0.00000000E+00  0.00000000E+00 -6.75137550E-01  0.00000000E+00
  0.00000000E+00  0.00000000E+00  2.83270792E-01  0.00000000E+00 -1.51255433E-02
 -1.06620283E-02  0.00000000E+00  0.00000000E+00  0.00000000E+00 -1.89007554E-02
 -1.72350847E-02  0.00000000E+00  0.00000000E+00  0.00000000E+00  0.00000000E+00
  0.00000000E+00  0.00000000E+00  1.55758825E-02  0.00000000E+00  0.00000000E+00
  0.00000000E+00  3.83175701E-02  0.00000000E+00  0.00000000E+00  0.00000000E+00
  9.78672771E-02  0.00000000E+00  0.00000000E+00  0.00000000E+00 -1.89852040E-01
  0.00000000E+00 -7.77901982E-06  3.50131050E-02  0.00000000E+00  0.00000000E+00
  0.00000000E+00  2.23382037E-05 -8.88949487E-02  0.00000000E+00  0.00000000E+00
  0.00000000E+00  0.00000000E+00  0.00000000E+00  0.00000000E+00 -8.92724951E-01
  0.00000000E+00  0.00000000E+00  0.00000000E+00  1.08146308E+00  0.00000000E+00
  0.00000000E+00  0.00000000E+00 -7.01610725E-01  0.00000000E+00  0.00000000E+00
  0.00000000E+00  2.92850011E-01  0.00000000E+00  1.09726690E-02 -8.04642029E-03
  0.00000000E+00  0.00000000E+00  0.00000000E+00  2.14095411E-02 -1.16751668E-02
  0.00000000E+00  0.00000000E+00  0.00000000E+00  0.00000000E+00  0.00000000E+00
  0.00000000E+00 -8.92283482E-01  0.00000000E+00  0.00000000E+00  0.00000000E+00
  1.08092957E+00  0.00000000E+00  0.00000000E+00  0.00000000E+00 -7.01278013E-01
  0.00000000E+00  0.00000000E+00  0.00000000E+00  2.92710253E-01  0.00000000E+00
 -1.09652518E-02 -8.04103638E-03  0.00000000E+00  0.00000000E+00  0.00000000E+00
 -2.14003453E-02 -1.16664836E-02  0.00000000E+00  0.00000000E+00 -8.64660974E-04
 -2.91494694E-03 -7.40023960E-07  2.87220500E-02  0.00000000E+00  6.72263422E-02
  4.17284378E-06 -3.85082007E-02  0.00000000E+00  5.93407002E-02 -3.64544581E-06
  6.53487775E-02  0.00000000E+00  1.80431250E-02  3.31205484E-06 -1.51307879E-01
  0.00000000E+00  1.16809444E-02  0.00000000E+00  0.00000000E+00 -7.14289862E-02
  1.64501559E-07 -1.69385895E-02  0.00000000E+00  0.00000000E+00  1.36576931E-01
 -2.99822531E-06 -6.44853418E-04 -1.26209940E-03 -4.65383668E-01 -7.59595349E-01
  0.00000000E+00  1.56798113E-02  5.51922882E-01  9.17188523E-01  0.00000000E+00
 -3.59566539E-02 -2.99366769E-01 -6.17406901E-01  0.00000000E+00 -4.65817556E-02
  1.20752091E-01  2.34989474E-01  0.00000000E+00  1.09701390E-02  0.00000000E+00
  0.00000000E+00  1.57209323E-04  2.33279165E-03  1.58478940E-02  0.00000000E+00
  0.00000000E+00  4.02708344E-03  8.03026920E-03 -6.44735924E-04 -1.26186218E-03
  4.65398101E-01 -7.59619298E-01  0.00000000E+00  1.56766292E-02 -5.51941818E-01
  9.17218147E-01  0.00000000E+00 -3.59479495E-02  2.99386479E-01 -6.17423563E-01
  0.00000000E+00 -4.65956387E-02 -1.20769057E-01  2.34996341E-01  0.00000000E+00
  1.09694339E-02  0.00000000E+00  0.00000000E+00  1.58639054E-04 -2.33266069E-03
  1.58462857E-02  0.00000000E+00  0.00000000E+00  4.02878219E-03 -8.02878819E-03
  2.83318925E-07  3.64369703E-08  3.18686385E-02 -7.25751307E-07  0.00000000E+00
  2.74197840E-06 -1.36422409E-01  1.64575832E-06  0.00000000E+00 -2.00701761E-06
  1.70488177E-01 -5.71187653E-07  0.00000000E+00  1.41384633E-06 -2.15957410E-01
 -1.70411540E-06  0.00000000E+00  1.66256716E-06  0.00000000E+00  0.00000000E+00
  2.85067687E-07  3.84868330E-02 -1.94670144E-07  0.00000000E+00  0.00000000E+00
  2.41171832E-06  3.76309133E-02  2.38548046E-03  4.77857513E-03 -5.70456871E-01
 -6.86462660E-01  0.00000000E+00 -6.16784877E-02  7.26371471E-01  8.44511775E-01
  0.00000000E+00  1.42656736E-01 -6.09197693E-01 -4.95226925E-01  0.00000000E+00
 -2.76910010E-01  4.65263155E-01  2.21237796E-01  0.00000000E+00 -1.78770868E-02
  0.00000000E+00  0.00000000E+00  3.59889215E-02  3.54889086E-03 -3.30296929E-02
  0.00000000E+00  0.00000000E+00  4.68309980E-02 -1.81934388E-02 -2.38544957E-03
 -4.77852535E-03 -5.70444595E-01  6.86437731E-01  0.00000000E+00  6.16778363E-02
  7.26356703E-01 -8.44482316E-01  0.00000000E+00 -1.42655892E-01 -6.09188747E-01
  4.95208996E-01  0.00000000E+00  2.76907640E-01  4.65259719E-01 -2.21232843E-01
  0.00000000E+00  1.78771768E-02  0.00000000E+00  0.00000000E+00 -3.59882105E-02
  3.54962639E-03  3.30296903E-02  0.00000000E+00  0.00000000E+00 -4.68299592E-02
 -1.81926733E-02 -5.71365513E-02 -2.36489031E-02 -7.92737293E-06  1.06510916E-01
  0.00000000E+00  9.80065757E-02  1.12868016E-05 -3.47910747E-01  0.00000000E+00
 -3.10101970E-01  1.03710916E-06  2.98775497E-01  0.00000000E+00 -2.36459858E-01
 -3.03330782E-06  7.96195327E-02  0.00000000E+00 -2.56340986E-01  0.00000000E+00
  0.00000000E+00  1.01390586E-01 -6.14859253E-06  3.57715113E-02  0.00000000E+00
  0.00000000E+00 -9.40483935E-02 -4.88595206E-06 -1.01182366E-03 -1.99558276E-03
 -7.56660728E-01  4.64899252E-01  0.00000000E+00  6.11411889E-02  9.34816665E-01
 -5.84807654E-01  0.00000000E+00 -1.78891070E-01 -4.07581752E-01  3.39844586E-01
  0.00000000E+00  3.99740730E-01  9.12446696E-02 -1.00511569E-01  0.00000000E+00
  1.74973307E-02  0.00000000E+00  0.00000000E+00 -2.91914733E-02  6.04640808E-04
  5.39756531E-02  0.00000000E+00  0.00000000E+00 -6.61294785E-02  5.25528862E-02
 -1.01189977E-03 -1.99571597E-03  7.56622059E-01  4.64870889E-01  0.00000000E+00
  6.11410070E-02 -9.34767665E-01 -5.84772838E-01  0.00000000E+00 -1.78876395E-01
  4.07555357E-01  3.39834322E-01  0.00000000E+00  3.99740310E-01 -9.12290603E-02
 -1.00511139E-01  0.00000000E+00  1.74989175E-02  0.00000000E+00  0.00000000E+00
 -2.91930996E-02 -6.03222719E-04  5.39757731E-02  0.00000000E+00  0.00000000E+00
 -6.61317793E-02 -5.25479239E-02  3.03111280E-06  2.18612228E-06 -2.69224350E-01
 -5.44607655E-07  0.00000000E+00 -1.81376559E-05  1.02416477E+00  1.89659736E-05
  0.00000000E+00 -2.37585042E-05 -4.06571462E-02  3.71100807E-06  0.00000000E+00
  6.52582839E-06 -9.49535453E-02 -2.29822931E-06  0.00000000E+00  1.14289130E-05
  0.00000000E+00  0.00000000E+00 -9.64513741E-06 -5.01910165E-01  3.73109466E-06
  0.00000000E+00  0.00000000E+00 -1.18464785E-06 -3.32764230E-01  7.07584430E-04
 -9.63820795E-04 -6.74056154E-01  5.50623045E-01  0.00000000E+00  1.17629198E-01
  8.92957991E-01 -7.16873584E-01  0.00000000E+00 -7.96012054E-01 -1.29530760E-01
  4.24234511E-02  0.00000000E+00  3.17813179E-01  7.15131068E-02  9.43465950E-03
  0.00000000E+00 -3.90048972E-03  0.00000000E+00  0.00000000E+00  1.31813070E-02
  4.86117066E-02  9.80944394E-02  0.00000000E+00  0.00000000E+00 -1.74587478E-02
  2.18538596E-01 -7.07689373E-04  9.63746696E-04 -6.74099391E-01 -5.50644711E-01
  0.00000000E+00 -1.17635567E-01  8.93016475E-01  7.16904093E-01  0.00000000E+00
  7.96062968E-01 -1.29533331E-01 -4.24291432E-02  0.00000000E+00 -3.17821552E-01
  7.15207386E-02 -9.42748917E-03  0.00000000E+00  3.89980792E-03  0.00000000E+00
  0.00000000E+00 -1.31787801E-02  4.86123305E-02 -9.81015446E-02  0.00000000E+00
  0.00000000E+00  1.74678338E-02  2.18549073E-01  0.00000000E+00  0.00000000E+00
  0.00000000E+00  0.00000000E+00 -3.48167079E-03  0.00000000E+00  0.00000000E+00
  0.00000000E+00  2.34676935E-02  0.00000000E+00  0.00000000E+00  0.00000000E+00
 -2.14231565E-03  0.00000000E+00  0.00000000E+00  0.00000000E+00  1.11763645E-02
  0.00000000E+00  1.42435361E-06 -2.48059658E-02  0.00000000E+00  0.00000000E+00
  0.00000000E+00 -2.89893107E-06  6.85357242E-02  0.00000000E+00  0.00000000E+00
  0.00000000E+00  0.00000000E+00  0.00000000E+00  0.00000000E+00 -3.56309978E-03
  0.00000000E+00  0.00000000E+00  0.00000000E+00  4.24284288E-03  0.00000000E+00
  0.00000000E+00  0.00000000E+00  1.84563905E-02  0.00000000E+00  0.00000000E+00
  0.00000000E+00 -1.76814444E-02  0.00000000E+00  3.42958706E-01  7.18735756E-01
  0.00000000E+00  0.00000000E+00  0.00000000E+00 -1.64176148E-01 -3.37852719E-01
  0.00000000E+00  0.00000000E+00  0.00000000E+00  0.00000000E+00  0.00000000E+00
  0.00000000E+00 -3.56213632E-03  0.00000000E+00  0.00000000E+00  0.00000000E+00
  4.24161015E-03  0.00000000E+00  0.00000000E+00  0.00000000E+00  1.84546345E-02
  0.00000000E+00  0.00000000E+00  0.00000000E+00 -1.76792483E-02  0.00000000E+00
 -3.43030956E-01  7.18798235E-01  0.00000000E+00  0.00000000E+00  0.00000000E+00
  1.64210132E-01 -3.37883217E-01  0.00000000E+00  0.00000000E+00  5.16109069E-03
  1.02886012E-03  1.28698749E-06 -2.25283527E-02  0.00000000E+00  9.61656901E-03
 -2.66781005E-06  8.84826474E-02  0.00000000E+00 -2.85801145E-01 -6.89653943E-06
  1.13136423E-01  0.00000000E+00  1.63142880E-02  6.11553122E-07 -1.42086312E-02
  0.00000000E+00 -9.70174536E-03  0.00000000E+00  0.00000000E+00  1.07542107E-02
 -2.61530565E-07  1.39466266E-01  0.00000000E+00  0.00000000E+00  1.81799745E-02
  9.01875246E-06 -1.48065984E-04 -6.04878112E-05  2.92086801E-02 -3.39768618E-03
  0.00000000E+00 -1.06506983E-02 -5.34393580E-02  7.90656526E-03  0.00000000E+00
  1.48297691E-01 -2.58326884E-02  2.02870270E-02  0.00000000E+00  3.49933730E-02
 -2.76489177E-02  1.09451299E-02  0.00000000E+00  6.97660881E-01  0.00000000E+00
  0.00000000E+00 -3.05389991E-02 -3.84176397E-01 -3.38912792E-01  0.00000000E+00
  0.00000000E+00  2.60544344E-02  1.77569594E-01 -1.48051616E-04 -6.04862922E-05
 -2.92070463E-02 -3.39596169E-03  0.00000000E+00 -1.06497614E-02  5.34360008E-02
  7.90339343E-03  0.00000000E+00  1.48280221E-01  2.58289524E-02  2.02840659E-02
  0.00000000E+00  3.49956223E-02  2.76508974E-02  1.09440671E-02  0.00000000E+00
  6.97717771E-01  0.00000000E+00  0.00000000E+00 -3.05005032E-02  3.84201438E-01
 -3.38940256E-01  0.00000000E+00  0.00000000E+00  2.60359569E-02 -1.77583014E-01
  0.00000000E+00  0.00000000E+00  0.00000000E+00  0.00000000E+00 -9.59208502E-08
  0.00000000E+00  0.00000000E+00  0.00000000E+00  1.74512553E-06  0.00000000E+00
  0.00000000E+00  0.00000000E+00  8.28952855E-08  0.00000000E+00  0.00000000E+00
  0.00000000E+00  7.28656697E-07  0.00000000E+00 -2.97006541E-02 -1.72867793E-06
  0.00000000E+00  0.00000000E+00  0.00000000E+00  4.21175085E-02  3.48256358E-06
  0.00000000E+00  0.00000000E+00  0.00000000E+00  0.00000000E+00  0.00000000E+00
  0.00000000E+00  8.37575564E-03  0.00000000E+00  0.00000000E+00  0.00000000E+00
 -1.15886530E-02  0.00000000E+00  0.00000000E+00  0.00000000E+00 -9.00042602E-03
  0.00000000E+00  0.00000000E+00  0.00000000E+00  1.83535576E-02  0.00000000E+00
  6.37285757E-01  4.78703973E-01  0.00000000E+00  0.00000000E+00  0.00000000E+00
 -3.02306548E-01 -2.29061316E-01  0.00000000E+00  0.00000000E+00  0.00000000E+00
  0.00000000E+00  0.00000000E+00  0.00000000E+00 -8.37624189E-03  0.00000000E+00
  0.00000000E+00  0.00000000E+00  1.15893574E-02  0.00000000E+00  0.00000000E+00
  0.00000000E+00  9.00200071E-03  0.00000000E+00  0.00000000E+00  0.00000000E+00
 -1.83558150E-02  0.00000000E+00  6.37239689E-01 -4.78620487E-01  0.00000000E+00
  0.00000000E+00  0.00000000E+00 -3.02285160E-01  2.29021891E-01  0.00000000E+00
  0.00000000E+00  3.27277602E-07  9.85544389E-08 -2.10690191E-02 -7.00726795E-07
  0.00000000E+00 -9.49960382E-07  5.69924912E-02  4.79345501E-06  0.00000000E+00
 -1.17815089E-05  1.41706503E-01  3.67458425E-06  0.00000000E+00  9.43693735E-07
 -1.24329717E-02 -6.37328174E-07  0.00000000E+00 -3.71207340E-07  0.00000000E+00
  0.00000000E+00  8.22680035E-07  4.78752331E-04  5.33425010E-06  0.00000000E+00
  0.00000000E+00 -3.73183390E-07 -1.82573018E-01  1.23419212E-04  1.77799780E-05
 -1.31497758E-02  1.54423223E-02  0.00000000E+00  8.13623020E-03  2.90636234E-02
 -2.92823248E-02  0.00000000E+00 -1.85257155E-01  4.66304204E-02 -1.78483940E-02
  0.00000000E+00  2.28917023E-02 -2.11854260E-02 -9.25914312E-03  0.00000000E+00
  6.35636619E-01  0.00000000E+00  0.00000000E+00  3.93585176E-01 -2.78862969E-01
 -3.02916236E-01  0.00000000E+00  0.00000000E+00 -1.94606681E-01  1.40901400E-01
 -1.23461676E-04 -1.78340213E-05 -1.31523301E-02 -1.54427141E-02  0.00000000E+00
 -8.13647573E-03  2.90684803E-02  2.92832789E-02  0.00000000E+00  1.85270143E-01
  4.66327339E-02  1.78484655E-02  0.00000000E+00 -2.28892871E-02 -2.11830679E-02
  9.26066464E-03  0.00000000E+00 -6.35575022E-01  0.00000000E+00  0.00000000E+00
 -3.93594284E-01 -2.78824283E-01  3.02886692E-01  0.00000000E+00  0.00000000E+00
  1.94612807E-01  1.40883371E-01  0.00000000E+00  0.00000000E+00  0.00000000E+00
  0.00000000E+00 -4.37838282E-07  0.00000000E+00  0.00000000E+00  0.00000000E+00
 -1.53234114E-06  0.00000000E+00  0.00000000E+00  0.00000000E+00  1.38177228E-07
  0.00000000E+00  0.00000000E+00  0.00000000E+00  1.08243478E-07  0.00000000E+00
  6.23684928E-02  3.48308753E-07  0.00000000E+00  0.00000000E+00  0.00000000E+00
  2.11320564E-01 -1.01576210E-06  0.00000000E+00  0.00000000E+00  0.00000000E+00
  0.00000000E+00  0.00000000E+00  0.00000000E+00 -2.79365564E-02  0.00000000E+00
  0.00000000E+00  0.00000000E+00  5.11508087E-02  0.00000000E+00  0.00000000E+00
  0.00000000E+00 -1.36002712E-01  0.00000000E+00  0.00000000E+00  0.00000000E+00
 -1.37679969E-02  0.00000000E+00 -4.85619010E-01  6.46069993E-01  0.00000000E+00
  0.00000000E+00  0.00000000E+00  2.75156843E-01 -3.62163791E-01  0.00000000E+00
  0.00000000E+00  0.00000000E+00  0.00000000E+00  0.00000000E+00  0.00000000E+00
  2.79364245E-02  0.00000000E+00  0.00000000E+00  0.00000000E+00 -5.11506743E-02
  0.00000000E+00  0.00000000E+00  0.00000000E+00  1.36004547E-01  0.00000000E+00
  0.00000000E+00  0.00000000E+00  1.37673737E-02  0.00000000E+00 -4.85619714E-01
 -6.46063194E-01  0.00000000E+00  0.00000000E+00  0.00000000E+00  2.75158234E-01
  3.62161208E-01  0.00000000E+00  0.00000000E+00 -2.24889533E-07 -1.30621047E-07
  6.79687928E-02  3.45832000E-08  0.00000000E+00  2.20172067E-06 -2.66528586E-01
  1.42267143E-07  0.00000000E+00  5.96936253E-06 -2.27399590E-01 -7.17789555E-07
  0.00000000E+00  1.68417481E-07  2.38950901E-02 -7.54180978E-08  0.00000000E+00
 -3.87300135E-07  0.00000000E+00  0.00000000E+00  1.26340339E-06 -6.03791648E-04
 -5.06942811E-07  0.00000000E+00  0.00000000E+00  1.35277655E-06  1.29910163E-01
 -1.57710534E-03 -1.91470350E-03  7.72269710E-02  9.42084604E-03  0.00000000E+00
 -2.63088237E-03 -1.45799342E-01 -1.42748538E-02  0.00000000E+00  2.24507598E-01
  5.15614154E-02  1.31493872E-01  0.00000000E+00  1.48212095E-02 -2.10247438E-03
  3.26941270E-02  0.00000000E+00 -2.53269038E-01  0.00000000E+00  0.00000000E+00
  6.71702396E-01  3.64803339E-01  1.23661377E-01  0.00000000E+00  0.00000000E+00
 -3.65656509E-01 -2.23282218E-01  1.57712216E-03  1.91472725E-03  7.72272565E-02
 -9.42145023E-03  0.00000000E+00  2.63087501E-03 -1.45800280E-01  1.42758725E-02
  0.00000000E+00 -2.24513303E-01  5.15596296E-02 -1.31496897E-01  0.00000000E+00
 -1.48244740E-02 -2.10380235E-03 -3.26946523E-02  0.00000000E+00  2.53266509E-01
  0.00000000E+00  0.00000000E+00 -6.71694352E-01  3.64814565E-01 -1.23660089E-01
  0.00000000E+00  0.00000000E+00  3.65652771E-01 -2.23289206E-01  0.00000000E+00
  0.00000000E+00  0.00000000E+00  0.00000000E+00 -5.68921243E-02  0.00000000E+00
  0.00000000E+00  0.00000000E+00  2.10727642E-01  0.00000000E+00  0.00000000E+00
  0.00000000E+00  1.27012250E-01  0.00000000E+00  0.00000000E+00  0.00000000E+00
 -1.02478485E-02  0.00000000E+00 -1.57451445E-06 -4.62496353E-02  0.00000000E+00
  0.00000000E+00  0.00000000E+00 -2.33505903E-06 -1.95922726E-01  0.00000000E+00
  0.00000000E+00  0.00000000E+00  0.00000000E+00  0.00000000E+00  0.00000000E+00
 -2.26550121E-02  0.00000000E+00  0.00000000E+00  0.00000000E+00  4.66661341E-02
  0.00000000E+00  0.00000000E+00  0.00000000E+00 -1.59737103E-01  0.00000000E+00
  0.00000000E+00  0.00000000E+00 -1.62758506E-02  0.00000000E+00 -7.32387609E-01
  3.49388115E-01  0.00000000E+00  0.00000000E+00  0.00000000E+00  4.30442707E-01
 -2.06578840E-01  0.00000000E+00  0.00000000E+00  0.00000000E+00  0.00000000E+00
  0.00000000E+00  0.00000000E+00 -2.26551699E-02  0.00000000E+00  0.00000000E+00
  0.00000000E+00  4.66665559E-02  0.00000000E+00  0.00000000E+00  0.00000000E+00
 -1.59741159E-01  0.00000000E+00  0.00000000E+00  0.00000000E+00 -1.62755629E-02
  0.00000000E+00  7.32394021E-01  3.49386740E-01  0.00000000E+00  0.00000000E+00
  0.00000000E+00 -4.30448020E-01 -2.06578790E-01  0.00000000E+00  0.00000000E+00
 -4.57340715E-03  1.02072435E-03  3.28771565E-07  8.69235450E-02  0.00000000E+00
 -4.88241160E-02 -4.93376389E-07 -2.75773475E-01  0.00000000E+00  3.94483518E-01
 -1.97894867E-06 -3.19768175E-01  0.00000000E+00  2.16842195E-02 -1.33025024E-07
  3.16133073E-02  0.00000000E+00 -5.05535611E-03  0.00000000E+00  0.00000000E+00
 -6.32073865E-02  1.82485715E-06 -5.91189259E-02  0.00000000E+00  0.00000000E+00
 -4.16964164E-01  4.25665082E-06  3.35355100E-04  6.37600306E-05 -2.96943740E-02
  2.67604824E-02  0.00000000E+00  2.10475405E-02  4.60276909E-02 -5.93196873E-02
  0.00000000E+00 -1.62907177E-01  1.88135576E-01  2.08622148E-01  0.00000000E+00
 -9.66829136E-02  3.58824300E-02 -2.81914348E-02  0.00000000E+00  1.25130222E-01
  0.00000000E+00  0.00000000E+00  7.91824307E-01  1.69939481E-01 -6.05372242E-02
  0.00000000E+00  0.00000000E+00 -5.31352577E-01 -1.04877857E-01  3.35350958E-04
  6.37504568E-05  2.96948326E-02  2.67601394E-02  0.00000000E+00  2.10478693E-02
 -4.60286872E-02 -5.93192728E-02  0.00000000E+00 -1.62910535E-01 -1.88138057E-01
  2.08626353E-01  0.00000000E+00 -9.66857512E-02 -3.58826514E-02 -2.81919654E-02
  0.00000000E+00  1.25127818E-01  0.00000000E+00  0.00000000E+00  7.91822995E-01
 -1.69952537E-01 -6.05357445E-02  0.00000000E+00  0.00000000E+00 -5.31353714E-01
  1.04886870E-01 -7.08633347E-02 -3.00178759E-02 -3.01792954E-06  1.23292264E-02
  0.00000000E+00  5.48692874E-01 -1.23205484E-05 -6.45613567E-01  0.00000000E+00
  2.04661428E+00 -1.13678152E-05 -6.34594258E-01  0.00000000E+00  1.59237324E-01
 -4.52367519E-07 -3.63572288E-02  0.00000000E+00 -1.20678374E-01  0.00000000E+00
  0.00000000E+00  5.59928303E-02  5.70632289E-07 -2.41233599E-01  0.00000000E+00
  0.00000000E+00  5.10975658E-02  2.25495109E-06 -6.72702602E-03 -1.18688901E-02
 -2.49048911E-02  1.91548192E-03  0.00000000E+00  2.06850066E-01  9.59639809E-03
  2.31813936E-02  0.00000000E+00 -8.60379392E-01  5.60851515E-01 -4.07085798E-01
  0.00000000E+00 -6.98980011E-01  1.51282873E-01 -1.02189227E-01  0.00000000E+00
 -3.82771400E-01  0.00000000E+00  0.00000000E+00  2.14537646E-01 -7.08338268E-01
  3.08928055E-01  0.00000000E+00  0.00000000E+00 -1.80469381E-01  5.48485033E-01
 -6.72710694E-03 -1.18690617E-02  2.49066356E-02  1.91679587E-03  0.00000000E+00
  2.06854479E-01 -9.59923838E-03  2.31788362E-02  0.00000000E+00 -8.60407491E-01
 -5.60869088E-01 -4.07090872E-01  0.00000000E+00 -6.98999801E-01 -1.51287416E-01
 -1.02190899E-01  0.00000000E+00 -3.82779509E-01  0.00000000E+00  0.00000000E+00
  2.14552778E-01  7.08342590E-01  3.08935984E-01  0.00000000E+00  0.00000000E+00
 -1.80481997E-01 -5.48491333E-01 -4.07515394E-07  8.28493543E-07 -7.17498788E-02
  2.46604179E-06  0.00000000E+00 -1.44087310E-05  1.13081635E+00 -9.23443223E-07
  0.00000000E+00 -8.33675729E-06  7.36846476E-01 -1.55522720E-06  0.00000000E+00
  2.30356720E-07  3.52930771E-02 -4.12156445E-07  0.00000000E+00 -2.02901643E-07
  0.00000000E+00  0.00000000E+00 -2.32826639E-06 -2.87171217E-01  1.53222933E-07
  0.00000000E+00  0.00000000E+00 -5.19485720E-06 -4.87665199E-01 -7.72180881E-03
 -1.38375698E-02 -2.46404864E-02  5.04431651E-02  0.00000000E+00  2.52380115E-01
  5.09692967E-03 -6.41807755E-02  0.00000000E+00 -1.09474567E+00  7.12281352E-01
 -5.05725120E-01  0.00000000E+00 -5.30399824E-01  4.42797537E-02 -8.53297275E-02
  0.00000000E+00 -4.33068350E-01  0.00000000E+00  0.00000000E+00  2.08250464E-01
 -6.90739071E-01  3.77518770E-01  0.00000000E+00  0.00000000E+00 -1.64784774E-01
  6.18688892E-01  7.72161960E-03  1.38373140E-02 -2.46434776E-02 -5.04456784E-02
  0.00000000E+00 -2.52379177E-01  5.10368329E-03  6.41869217E-02  0.00000000E+00
  1.09476447E+00  7.12288220E-01  5.05722854E-01  0.00000000E+00  5.30402269E-01
  4.42804058E-02  8.53296308E-02  0.00000000E+00  4.33062724E-01  0.00000000E+00
  0.00000000E+00 -2.08257339E-01 -6.90727620E-01 -3.77517175E-01  0.00000000E+00
  0.00000000E+00  1.64792147E-01  6.18685096E-01 -2.03710622E+00  2.24378833E+00
 -1.03535688E-06 -6.01360972E-02  0.00000000E+00 -7.82689310E-01  1.36239140E-05
  3.95156472E-01  0.00000000E+00  1.16771598E-01  5.07511304E-06  4.48275558E-02
  0.00000000E+00  1.24092191E-02 -1.30216248E-07  6.21129735E-03  0.00000000E+00
  7.20554338E-02  0.00000000E+00  0.00000000E+00 -3.27227682E-02 -2.60201602E-06
  1.06235024E-01  0.00000000E+00  0.00000000E+00 -1.93733184E-02 -4.52658912E-06
  5.33101775E-03  2.65655391E-03  3.31113333E-02 -1.87605501E-02  0.00000000E+00
 -1.17155867E-01 -4.82728491E-02  2.17102696E-02  0.00000000E+00  4.45619228E-01
 -2.61432330E-01  1.94764260E-01  0.00000000E+00 -1.11059264E-01  9.44346404E-02
 -8.45186199E-02  0.00000000E+00  3.19647741E-02  0.00000000E+00  0.00000000E+00
 -1.81887012E-02  5.16027890E-02 -9.96899182E-02  0.00000000E+00  0.00000000E+00
  5.92252599E-02 -1.58102111E-01  5.33092390E-03  2.65654076E-03 -3.31134797E-02
 -1.87618863E-02  0.00000000E+00 -1.17158687E-01  4.82779755E-02  2.17137599E-02
  0.00000000E+00  4.45645011E-01  2.61445334E-01  1.94770777E-01  0.00000000E+00
 -1.11060242E-01 -9.44377321E-02 -8.45185640E-02  0.00000000E+00  3.19650677E-02
  0.00000000E+00  0.00000000E+00 -1.81895890E-02 -5.16030783E-02 -9.96929848E-02
  0.00000000E+00  0.00000000E+00  5.92290038E-02  1.58106497E-01 -1.02936843E-06
  1.91740083E-06 -5.01340870E-03 -4.62906717E-07  0.00000000E+00 -4.12139685E-06
  1.06672962E-01  8.83640831E-06  0.00000000E+00 -5.01809626E-05  7.22817851E-02
  2.12310279E-05  0.00000000E+00  3.55786302E-06 -3.53037872E-02 -3.25820431E-06
  0.00000000E+00 -3.04332732E-08  0.00000000E+00  0.00000000E+00 -5.03196237E-07
 -1.34307780E-02  7.56498498E-06  0.00000000E+00  0.00000000E+00 -1.52147894E-06
 -6.01890744E-02  1.64470201E+00 -1.69681200E+00  1.49573262E-03  1.13082266E-03
  0.00000000E+00  1.80235138E-01 -8.61421503E-03 -1.23687492E-04  0.00000000E+00
 -3.03619970E-01  8.22897263E-02 -5.61452691E-02  0.00000000E+00  1.41159315E-01
 -4.80419911E-02  1.06835655E-02  0.00000000E+00 -4.85437865E-03  0.00000000E+00
  0.00000000E+00  2.82335327E-03 -7.27836953E-03  1.64545488E-02  0.00000000E+00
  0.00000000E+00 -8.03027078E-03  2.70337294E-02 -1.64501967E+00  1.69713983E+00
  1.49550788E-03 -1.13091068E-03  0.00000000E+00 -1.80271695E-01 -8.61453999E-03
  1.23471042E-04  0.00000000E+00  3.03694398E-01  8.23128054E-02  5.61577487E-02
  0.00000000E+00 -1.41150693E-01 -4.80359832E-02 -1.06789035E-02  0.00000000E+00
  4.85516765E-03  0.00000000E+00  0.00000000E+00 -2.82394451E-03 -7.27970458E-03
 -1.64577652E-02  0.00000000E+00  0.00000000E+00  8.03277229E-03  2.70386131E-02
 -1.08600508E-02  1.99959458E-02  7.79491746E-07 -6.79804139E-03  0.00000000E+00
 -2.89184616E-02 -9.78233375E-06  9.11305452E-02  0.00000000E+00 -4.88933422E-01
 -4.24278511E-06  2.10086628E-01  0.00000000E+00  3.97542686E-02  3.31982345E-06
 -3.54696162E-02  0.00000000E+00  1.38117179E-03  0.00000000E+00  0.00000000E+00
 -4.81671859E-03  1.63425641E-06  7.56877566E-02  0.00000000E+00  0.00000000E+00
 -9.11608912E-03  5.91338968E-06 -1.64511187E+00  1.69781841E+00  7.42663177E-04
  5.16127711E-05  0.00000000E+00 -1.88663404E-01  3.07728135E-03 -3.01236543E-03
  0.00000000E+00  3.70410309E-01 -1.12047855E-01  6.40471555E-02  0.00000000E+00
  3.40364651E-02 -2.85624130E-02  1.96671356E-02  0.00000000E+00  4.10211710E-03
  0.00000000E+00  0.00000000E+00 -2.51515738E-03  6.99164404E-03 -1.61012393E-02
  0.00000000E+00  0.00000000E+00  1.08209807E-02 -2.43841813E-02 -1.64479424E+00
  1.69749070E+00 -7.42988193E-04  5.18342932E-05  0.00000000E+00 -1.88628590E-01
 -3.07545738E-03 -3.01229397E-03  0.00000000E+00  3.70353772E-01  1.12032898E-01
  6.40355704E-02  0.00000000E+00  3.40689674E-02  2.85735429E-02  1.96700574E-02
  0.00000000E+00  4.10120151E-03  0.00000000E+00  0.00000000E+00 -2.51472093E-03
 -6.99013046E-03 -1.60981558E-02  0.00000000E+00  0.00000000E+00  1.08198671E-02
  2.43786043E-02
Orthonormal basis                          R   N=        6561
  3.82904567E-02  4.38898882E-02 -1.65367864E-07 -3.01624492E-02  0.00000000E+00
  1.24836685E-01 -2.37728716E-07 -6.63387274E-02  0.00000000E+00  1.53021440E-01
 -7.40996855E-08 -7.82543816E-02  0.00000000E+00  1.20632115E-01 -6.93659641E-09
 -4.82521611E-02  0.00000000E+00 -1.05260500E-02  0.00000000E+00  0.00000000E+00
 -2.20678015E-03  1.01993742E-07 -1.97559506E-02  0.00000000E+00  0.00000000E+00
 -1.08227520E-02  2.52928190E-08  2.00659217E-02  2.07042539E-02 -1.46385579E-02
  3.45888564E-03  0.00000000E+00  6.47071088E-02 -3.92936698E-02  9.18708982E-03
  0.00000000E+00  1.07104280E-01 -8.62550618E-02  1.74365061E-02  0.00000000E+00
  1.27445275E-01 -1.01789082E-01  1.58190191E-02  0.00000000E+00 -2.16842270E-03
  0.00000000E+00  0.00000000E+00  2.84302564E-03 -2.10446691E-03 -9.73514159E-03
  0.00000000E+00  0.00000000E+00  1.32383254E-02 -8.89724202E-03  2.00660076E-02
  2.07043425E-02  1.46386538E-02  3.45874263E-03  0.00000000E+00  6.47073757E-02
  3.92939082E-02  9.18669598E-03  0.00000000E+00  1.07104594E-01  8.62553279E-02
  1.74355122E-02  0.00000000E+00  1.27445452E-01  1.01789155E-01  1.58177391E-02
  0.00000000E+00 -2.16844189E-03  0.00000000E+00  0.00000000E+00  2.84308499E-03
  2.10443250E-03 -9.73519655E-03  0.00000000E+00  0.00000000E+00  1.32385551E-02
  8.89703057E-03 -3.60101725E-07 -4.03275845E-07  7.30130230E-02 -5.63774349E-07
  0.00000000E+00 -9.34874985E-07  1.56307448E-01 -1.25466422E-06  0.00000000E+00
 -9.56106973E-07  2.13837793E-01 -1.95849570E-06  0.00000000E+00 -6.38134951E-07
  1.65595030E-01 -1.62954597E-06  0.00000000E+00  1.32060920E-07  0.00000000E+00
  0.00000000E+00 -7.50134120E-07 -2.93236635E-02  9.54380809E-08  0.00000000E+00
  0.00000000E+00 -1.63234035E-06 -7.34578586E-02  4.56620320E-02  4.71027560E-02
  1.83045868E-04  1.58841349E-02  0.00000000E+00  1.11940509E-01  1.96230278E-03
  3.56482071E-02  0.00000000E+00  1.41364482E-01  3.59044595E-02  4.97426871E-02
  0.00000000E+00  1.09717301E-01  1.02722197E-01  3.29053743E-02  0.00000000E+00
 -1.77527057E-03  0.00000000E+00  0.00000000E+00 -2.07491084E-03 -4.75780719E-03
 -3.71756094E-03  0.00000000E+00  0.00000000E+00 -1.01209270E-02 -1.32870054E-02
 -4.56622226E-02 -4.71029533E-02  1.83218003E-04 -1.58846507E-02  0.00000000E+00
 -1.11940916E-01  1.96276281E-03 -3.56493595E-02  0.00000000E+00 -1.41364679E-01
  3.59056794E-02 -4.97448048E-02  0.00000000E+00 -1.09717380E-01  1.02723178E-01
 -3.29084419E-02  0.00000000E+00  1.77527223E-03  0.00000000E+00  0.00000000E+00
  2.07501601E-03 -4.75794868E-03  3.71748462E-03  0.00000000E+00  0.00000000E+00
  1.01213942E-02 -1.32874329E-02  4.47860074E-02  5.02043911E-02  4.86577287E-07
  4.91983812E-02  0.00000000E+00  1.03379235E-01  1.30084785E-06  1.09196602E-01
  0.00000000E+00  1.01200777E-01  2.32239040E-06  1.76525153E-01  0.00000000E+00
  6.20916832E-02  2.01785706E-06  1.55235374E-01  0.00000000E+00 -7.90392670E-04
  0.00000000E+00  0.00000000E+00  4.50994805E-02 -6.86204740E-07  1.18550931E-02
  0.00000000E+00  0.00000000E+00  1.07589009E-01 -1.84397163E-06 -7.52267710E-03
 -7.75619546E-03  1.17011888E-02  3.50928717E-02  0.00000000E+00 -1.74592836E-02
  2.57638984E-02  7.86227569E-02  0.00000000E+00 -1.90753149E-02  3.59011551E-02
  1.50277882E-01  0.00000000E+00 -6.04466701E-03  1.81882589E-02  1.88878876E-01
  0.00000000E+00 -5.66123207E-05  0.00000000E+00  0.00000000E+00 -8.44808017E-03
 -5.12611997E-03 -9.95107581E-04  0.00000000E+00  0.00000000E+00 -2.89278120E-02
 -2.04608452E-02 -7.52345010E-03 -7.75699296E-03 -1.17008906E-02  3.50930151E-02
  0.00000000E+00 -1.74610525E-02 -2.57631666E-02  7.86230880E-02  0.00000000E+00
 -1.90773183E-02 -3.58989338E-02  1.50278472E-01  0.00000000E+00 -6.04607102E-03
 -1.81845803E-02  1.88879235E-01  0.00000000E+00 -5.66136147E-05  0.00000000E+00
  0.00000000E+00 -8.44804101E-03  5.12625296E-03 -9.95182586E-04  0.00000000E+00
  0.00000000E+00 -2.89274876E-02  2.04613795E-02 -7.19890114E-02 -7.77021381E-02
  3.21276868E-08  3.45972172E-02  0.00000000E+00 -8.87762341E-02 -3.15970428E-07
  3.20408474E-02  0.00000000E+00 -6.38490503E-03 -2.22744942E-07 -5.44328541E-02
  0.00000000E+00  6.80417279E-02  2.23063498E-07 -8.88093357E-02  0.00000000E+00
 -1.74459267E-02  0.00000000E+00  0.00000000E+00  8.75496891E-02 -9.65823382E-07
 -8.70814267E-02  0.00000000E+00  0.00000000E+00  1.91242946E-01 -1.65756940E-06
  9.32406870E-02  9.55011257E-02  7.33432759E-02  1.32040493E-02  0.00000000E+00
  1.29712004E-01  1.32381592E-01  2.15388634E-02  0.00000000E+00  1.17032266E-01
  1.87634258E-01  1.88147483E-03  0.00000000E+00  9.79649628E-02  1.07408720E-01
 -3.62595400E-02  0.00000000E+00  3.61879280E-03  0.00000000E+00  0.00000000E+00
 -2.28607768E-02  2.04049288E-03  1.21988206E-02  0.00000000E+00  0.00000000E+00
 -5.94421628E-02  9.83352997E-03  9.32396403E-02  9.55000549E-02 -7.33436044E-02
  1.32049178E-02  0.00000000E+00  1.29710448E-01 -1.32382199E-01  2.15403721E-02
  0.00000000E+00  1.17030533E-01 -1.87634636E-01  1.88331522E-03  0.00000000E+00
  9.79637476E-02 -1.07408229E-01 -3.62586441E-02  0.00000000E+00  3.61881718E-03
  0.00000000E+00  0.00000000E+00 -2.28610320E-02 -2.04018554E-03  1.21989063E-02
  0.00000000E+00  0.00000000E+00 -5.94427514E-02 -9.83280137E-03 -7.81460003E-07
 -8.29163672E-07  1.70190155E-01 -4.92811889E-07  0.00000000E+00 -5.09555139E-07
  2.19313126E-01 -1.04576344E-06  0.00000000E+00  3.94114573E-07  7.32028474E-02
 -3.04154090E-07  0.00000000E+00  4.70652380E-07 -3.14270777E-02  7.00487298E-07
  0.00000000E+00 -4.29246573E-08  0.00000000E+00  0.00000000E+00  5.22775509E-08
  1.78526811E-02 -7.94618304E-07  0.00000000E+00  0.00000000E+00  2.17982622E-06
  1.59888237E-01 -9.83205947E-02 -1.00316874E-01 -3.60762153E-02  1.04621639E-01
  0.00000000E+00 -1.01647161E-01 -6.09461899E-02  1.71452189E-01  0.00000000E+00
 -7.35126675E-02 -7.00261333E-02  1.94902570E-01  0.00000000E+00 -4.62921648E-02
 -5.75545705E-02  1.08846639E-01  0.00000000E+00 -1.42257061E-02  0.00000000E+00
  0.00000000E+00 -1.42927839E-02 -1.71936322E-02 -3.31190791E-02  0.00000000E+00
  0.00000000E+00 -3.44946743E-02 -3.86647312E-02  9.83206748E-02  1.00316958E-01
 -3.60779728E-02 -1.04621175E-01  0.00000000E+00  1.01647123E-01 -6.09490475E-02
 -1.71451431E-01  0.00000000E+00  7.35125634E-02 -7.00288468E-02 -1.94900985E-01
  0.00000000E+00  4.62922858E-02 -5.75558033E-02 -1.08844288E-01  0.00000000E+00
  1.42259201E-02  0.00000000E+00  0.00000000E+00  1.42925922E-02 -1.71941886E-02
  3.31194696E-02  0.00000000E+00  0.00000000E+00  3.44942985E-02 -3.86658745E-02
  2.92106665E-07  2.97713062E-07 -7.90639121E-02 -1.48852101E-06  0.00000000E+00
  1.68943910E-07 -9.01568604E-02 -1.60287315E-06  0.00000000E+00 -9.57109826E-07
  8.17205199E-02 -6.98304486E-07  0.00000000E+00 -1.27843722E-06  1.67229611E-01
 -4.74416256E-07  0.00000000E+00 -8.15257841E-07  0.00000000E+00  0.00000000E+00
  1.81691215E-06  1.91501282E-01 -1.37498651E-07  0.00000000E+00  0.00000000E+00
  2.25320544E-06  2.31759420E-01 -1.12477878E-01 -1.14298988E-01  1.36473994E-01
 -1.51617435E-02  0.00000000E+00 -9.81553473E-02  2.05414488E-01 -2.19186787E-02
  0.00000000E+00 -2.52430018E-02  1.59053843E-01  1.43059977E-02  0.00000000E+00
  6.10413574E-02  1.04992738E-01  3.80456264E-02  0.00000000E+00  5.42432704E-03
  0.00000000E+00  0.00000000E+00 -8.86124749E-03  3.23273863E-02  3.75253319E-03
  0.00000000E+00  0.00000000E+00 -1.35508942E-02  5.99149382E-02  1.12479846E-01
  1.14300985E-01  1.36474513E-01  1.51617596E-02  0.00000000E+00  9.81570343E-02
  2.05415118E-01  2.19186092E-02  0.00000000E+00  2.52430504E-02  1.59052829E-01
 -1.43064312E-02  0.00000000E+00 -6.10429200E-02  1.04991126E-01 -3.80461292E-02
  0.00000000E+00 -5.42453089E-03  0.00000000E+00  0.00000000E+00  8.86210733E-03
  3.23280296E-02 -3.75259937E-03  0.00000000E+00  0.00000000E+00  1.35524114E-02
  5.99158075E-02  4.89516089E-02  5.14736922E-02  1.40165954E-06  2.13998807E-01
  0.00000000E+00  2.98238693E-02  1.07358813E-06  2.65936987E-01  0.00000000E+00
  1.05670346E-01  6.34517252E-07  1.13082508E-01  0.00000000E+00  1.61302564E-01
  1.04661334E-06  9.48806343E-03  0.00000000E+00  1.00457170E-01  0.00000000E+00
  0.00000000E+00 -1.19383191E-01  1.75833940E-06  8.26397322E-02  0.00000000E+00
  0.00000000E+00 -1.70527161E-01  3.86765357E-06 -5.22988020E-02 -5.29285925E-02
  7.18884493E-02 -1.29730831E-01  0.00000000E+00 -3.70273393E-02  1.03411782E-01
 -1.84543586E-01  0.00000000E+00  1.02957295E-02  6.63112095E-02 -1.25248517E-01
  0.00000000E+00  9.87430198E-02 -2.61980503E-02 -4.08160160E-03  0.00000000E+00
  2.51452270E-02  0.00000000E+00  0.00000000E+00 -7.10052023E-03  3.29840523E-02
  4.60171520E-02  0.00000000E+00  0.00000000E+00 -1.82223179E-02  5.63595805E-02
 -5.22976152E-02 -5.29273878E-02 -7.18877354E-02 -1.29730119E-01  0.00000000E+00
 -3.70265854E-02 -1.03410746E-01 -1.84542491E-01  0.00000000E+00  1.02960267E-02
 -6.63098673E-02 -1.25247072E-01  0.00000000E+00  9.87425294E-02  2.61993394E-02
 -4.08146079E-03  0.00000000E+00  2.51456343E-02  0.00000000E+00  0.00000000E+00
 -7.10123706E-03 -3.29837804E-02  4.60177797E-02  0.00000000E+00  0.00000000E+00
 -1.82237155E-02 -5.63585647E-02 -7.31307571E-02 -7.41895294E-02  4.49334444E-07
  6.74434525E-02  0.00000000E+00 -2.51950256E-02  1.70766610E-07  6.82193233E-02
  0.00000000E+00 -4.79008561E-03  1.55992329E-07  1.16985792E-01  0.00000000E+00
 -3.31867584E-02  4.50505511E-08  1.61922948E-01  0.00000000E+00 -6.48140288E-02
  0.00000000E+00  0.00000000E+00 -1.31661802E-01  1.45018798E-06 -1.16521418E-01
  0.00000000E+00  0.00000000E+00 -1.67243677E-01  1.47335461E-06  2.63641506E-01
  2.65391941E-01 -5.92112908E-02 -4.87673550E-02  0.00000000E+00  9.88766810E-02
 -7.51661773E-02 -6.32453030E-02  0.00000000E+00 -1.93529925E-02 -5.42091323E-02
 -2.60722052E-02  0.00000000E+00 -7.36265712E-02 -1.58987042E-02  7.49225506E-02
  0.00000000E+00 -7.07777751E-03  0.00000000E+00  0.00000000E+00  3.37040055E-02
  3.40866618E-02 -1.28094855E-02  0.00000000E+00  0.00000000E+00  5.60076231E-02
  6.03884567E-02  2.63639714E-01  2.65390138E-01  5.92108139E-02 -4.87684596E-02
  0.00000000E+00  9.88759848E-02  7.51655254E-02 -6.32467060E-02  0.00000000E+00
 -1.93528912E-02  5.42085086E-02 -2.60726876E-02  0.00000000E+00 -7.36258837E-02
  1.58987915E-02  7.49231141E-02  0.00000000E+00 -7.07794530E-03  0.00000000E+00
  0.00000000E+00  3.37036668E-02 -3.40877081E-02 -1.28097470E-02  0.00000000E+00
  0.00000000E+00  5.60067999E-02 -6.03902277E-02  4.41211472E-01  4.41469565E-01
 -2.67065834E-05 -1.88581747E-02  0.00000000E+00  1.01595378E-01 -1.72815961E-05
 -8.15811609E-03  0.00000000E+00 -7.24871772E-02 -1.57805828E-05 -2.83349263E-02
  0.00000000E+00 -1.12733514E-01 -4.10890131E-05 -5.32934811E-02  0.00000000E+00
 -1.71868238E-02  0.00000000E+00  0.00000000E+00  2.91416071E-02  4.88177373E-05
 -1.49478528E-02  0.00000000E+00  0.00000000E+00  2.61638282E-02  4.22634215E-05
  9.71870955E-02  9.73824732E-02  5.65328210E-02 -3.60612291E-02  0.00000000E+00
  1.76526466E-02  6.64709198E-02 -4.21750464E-02  0.00000000E+00 -2.15658421E-02
  2.98249920E-02 -2.15032792E-02  0.00000000E+00 -5.97130724E-02  4.03647755E-02
 -5.85904532E-02  0.00000000E+00 -3.18093933E-02  0.00000000E+00  0.00000000E+00
 -5.10889775E-04 -5.50179066E-02 -5.56539195E-02  0.00000000E+00  0.00000000E+00
  1.66094483E-03 -9.60067792E-02  9.69693681E-02  9.71643060E-02 -5.64417557E-02
 -3.61602549E-02  0.00000000E+00  1.76135638E-02 -6.63622463E-02 -4.22932495E-02
  0.00000000E+00 -2.15205634E-02 -2.97935847E-02 -2.16019936E-02  0.00000000E+00
 -5.96598440E-02 -4.04184686E-02 -5.86425162E-02  0.00000000E+00 -3.18186966E-02
  0.00000000E+00  0.00000000E+00 -5.05607818E-04  5.50644473E-02 -5.56647437E-02
  0.00000000E+00  0.00000000E+00  1.66635037E-03  9.60765717E-02  1.82118086E-04
  1.82205066E-04  6.59906690E-02 -6.68707995E-06  0.00000000E+00  4.19201298E-05
  4.45996027E-02 -2.48354414E-06  0.00000000E+00 -3.01457752E-05  3.86078982E-02
 -1.15249225E-05  0.00000000E+00 -4.71218641E-05  9.80181681E-02 -2.25420122E-05
  0.00000000E+00 -7.89320280E-06  0.00000000E+00  0.00000000E+00  1.24522200E-05
 -1.19352817E-01 -7.40728715E-06  0.00000000E+00  0.00000000E+00  1.07486246E-05
 -1.02980100E-01 -2.63240132E-01 -2.63763719E-01 -1.12923086E-01 -1.19632955E-01
  0.00000000E+00 -4.68906421E-02 -1.34581017E-01 -1.42778187E-01  0.00000000E+00
  5.47641955E-02 -3.93807901E-02 -1.19136470E-01  0.00000000E+00  6.42449979E-02
  6.36874224E-02 -6.28753449E-02  0.00000000E+00 -1.04350384E-02  0.00000000E+00
  0.00000000E+00  4.61164249E-03 -5.52605263E-02 -1.15373687E-02  0.00000000E+00
  0.00000000E+00  3.35698685E-03 -8.23826395E-02  2.63321787E-01  2.63845537E-01
 -1.12967335E-01  1.19602952E-01  0.00000000E+00  4.69053418E-02 -1.34632920E-01
  1.42743174E-01  0.00000000E+00 -5.47822882E-02 -3.94025157E-02  1.19118226E-01
  0.00000000E+00 -6.42947914E-02  6.36559574E-02  6.28254017E-02  0.00000000E+00
  1.04084113E-02  0.00000000E+00  0.00000000E+00 -4.61477359E-03 -5.52154775E-02
  1.14906653E-02  0.00000000E+00  0.00000000E+00 -3.35975673E-03 -8.23037863E-02
 -7.89929397E-03 -7.86291328E-03  1.87042275E-06 -1.57250905E-01  0.00000000E+00
 -5.26923458E-03  1.25964208E-06 -1.34479348E-01  0.00000000E+00  8.69219975E-03
 -6.21818914E-07  4.55649125E-03  0.00000000E+00  4.46921003E-02 -2.38567278E-07
  5.49801374E-02  0.00000000E+00 -2.16022301E-02  0.00000000E+00  0.00000000E+00
 -2.22672117E-01  1.43194314E-06 -1.59936877E-02  0.00000000E+00  0.00000000E+00
 -1.24936744E-01  7.50362887E-07 -4.17630865E-02 -4.15229914E-02  1.38051026E-01
  3.58243582E-02  0.00000000E+00  5.91821180E-03  1.43934838E-01  3.73242776E-02
  0.00000000E+00  3.40963890E-02  8.19197235E-02  3.02374234E-02  0.00000000E+00
  2.78926885E-02  7.86299644E-02  5.63921551E-02  0.00000000E+00 -4.57645982E-02
  0.00000000E+00  0.00000000E+00  2.37056862E-01  3.87357533E-03 -6.53951028E-02
  0.00000000E+00  0.00000000E+00  3.30593397E-01  4.36251988E-03 -4.17621908E-02
 -4.15220997E-02 -1.38050330E-01  3.58298812E-02  0.00000000E+00  5.91805795E-03
 -1.43934112E-01  3.73300777E-02  0.00000000E+00  3.40956714E-02 -8.19197069E-02
  3.02411626E-02  0.00000000E+00  2.78924231E-02 -7.86294100E-02  5.63949240E-02
  0.00000000E+00 -4.57633650E-02  0.00000000E+00  0.00000000E+00  2.37060897E-01
 -3.88172467E-03 -6.53934102E-02  0.00000000E+00  0.00000000E+00  3.30598685E-01
 -4.37373893E-03 -2.09861949E-02 -1.97796713E-02  1.65246438E-05 -8.05326628E-02
  0.00000000E+00 -8.08116109E-03  1.39803929E-05 -9.37132669E-02  0.00000000E+00
  3.50581217E-03  4.30900317E-06 -7.16226167E-02  0.00000000E+00 -1.78130958E-02
 -9.54222366E-07 -2.21037474E-02  0.00000000E+00  3.62166800E-01  0.00000000E+00
  0.00000000E+00  9.39758649E-03  2.02342219E-05  4.02050418E-01  0.00000000E+00
  0.00000000E+00  4.80889983E-02  2.07083275E-05  1.16408053E-01  1.15451751E-01
  6.10344801E-02  1.73142513E-02  0.00000000E+00 -1.97508670E-02  5.99564104E-02
  1.90036356E-02  0.00000000E+00 -4.16468200E-02 -2.33923103E-02  3.98251840E-02
  0.00000000E+00 -1.90698213E-02 -5.56748396E-02  2.43479518E-02  0.00000000E+00
  1.88695075E-01  0.00000000E+00  0.00000000E+00  2.97138681E-02 -2.47701221E-02
  2.43292197E-01  0.00000000E+00  0.00000000E+00  4.34072239E-02 -4.45096410E-02
  1.16390298E-01  1.15434146E-01 -6.10399592E-02  1.73516371E-02  0.00000000E+00
 -1.97481168E-02 -5.99624353E-02  1.90414206E-02  0.00000000E+00 -4.16419853E-02
  2.33824099E-02  3.98356355E-02  0.00000000E+00 -1.90675951E-02  5.56690077E-02
  2.43455323E-02  0.00000000E+00  1.88709436E-01  0.00000000E+00  0.00000000E+00
  2.97439567E-02  2.47637895E-02  2.43312147E-01  0.00000000E+00  0.00000000E+00
  4.34464778E-02  4.44996820E-02  1.59740130E-06  1.48481368E-06  1.81082973E-01
  6.45388131E-06  0.00000000E+00  9.79086111E-07  1.61366880E-01  7.91653214E-06
  0.00000000E+00 -1.83726422E-07  5.70416573E-02  6.39956754E-06  0.00000000E+00
  1.42039803E-06 -7.01023722E-03  2.04796013E-06  0.00000000E+00 -3.25551548E-05
  0.00000000E+00  0.00000000E+00  3.28969757E-06  2.47886495E-01 -3.54233020E-05
  0.00000000E+00  0.00000000E+00  9.52091039E-08  2.43304373E-01  1.05876391E-01
  1.04966352E-01 -2.90017121E-02 -2.07367961E-01  0.00000000E+00 -1.79278393E-02
 -3.27174695E-02 -2.07833520E-01  0.00000000E+00 -2.70097717E-02 -6.27022819E-02
 -5.30240640E-02  0.00000000E+00 -1.08588689E-02 -3.49472609E-02  1.44744300E-02
  0.00000000E+00 -6.07387577E-02  0.00000000E+00  0.00000000E+00 -1.71064602E-01
 -3.04506936E-02 -8.78069130E-02  0.00000000E+00  0.00000000E+00 -2.18971171E-01
 -5.21328327E-02 -1.05897046E-01 -1.04986833E-01 -2.89860217E-02  2.07363204E-01
  0.00000000E+00  1.79315185E-02 -3.27021920E-02  2.07828326E-01  0.00000000E+00
  2.70165000E-02 -6.27051446E-02  5.30164015E-02  0.00000000E+00  1.08616684E-02
 -3.49562115E-02 -1.44785889E-02  0.00000000E+00  6.07058111E-02  0.00000000E+00
  0.00000000E+00  1.71054872E-01 -3.04566819E-02  8.77651606E-02  0.00000000E+00
  0.00000000E+00  2.18957296E-01 -5.21432559E-02 -1.32606333E-06 -1.25430961E-06
 -1.55905434E-01 -3.31202198E-08  0.00000000E+00 -6.05907928E-07 -5.60877668E-02
  6.55692319E-07  0.00000000E+00  1.90823418E-07  8.20755663E-02 -2.20204539E-08
  0.00000000E+00  9.06927194E-07  6.68399803E-02  7.20297009E-08  0.00000000E+00
  1.16595300E-06  0.00000000E+00  0.00000000E+00 -5.66494013E-07  1.62917598E-01
  1.17084958E-06  0.00000000E+00  0.00000000E+00 -1.04897500E-06 -1.99267661E-03
 -2.27175826E-02 -2.23405656E-02 -1.75441115E-01  5.14469896E-03  0.00000000E+00
  9.51183170E-04 -1.66990993E-01  1.89537077E-03  0.00000000E+00  1.35931435E-02
 -7.75478786E-02  2.68004702E-02  0.00000000E+00  2.20358097E-02  6.83540678E-03
  4.44722495E-02  0.00000000E+00  1.43493800E-01  0.00000000E+00  0.00000000E+00
 -8.22146035E-02  2.44785655E-01  1.70641568E-01  0.00000000E+00  0.00000000E+00
 -9.74541583E-02  2.92167960E-01  2.27170899E-02  2.23400733E-02 -1.75441640E-01
 -5.14239930E-03  0.00000000E+00 -9.50907576E-04 -1.66991549E-01 -1.89324356E-03
  0.00000000E+00 -1.35927865E-02 -7.75492972E-02 -2.67998854E-02  0.00000000E+00
 -2.20348491E-02  6.83473239E-03 -4.44714189E-02  0.00000000E+00 -1.43492339E-01
  0.00000000E+00  0.00000000E+00  8.22224209E-02  2.44784381E-01 -1.70639413E-01
  0.00000000E+00  0.00000000E+00  9.74633758E-02  2.92165897E-01  1.54469799E-01
  1.47952147E-01  1.85000205E-06  1.46667478E-01  0.00000000E+00 -3.98047661E-02
 -9.13881217E-08  6.87062706E-02  0.00000000E+00 -3.43970038E-02 -3.50696123E-07
 -6.52180372E-02  0.00000000E+00 -4.27485924E-02 -1.89441119E-07 -9.07191262E-02
  0.00000000E+00  3.57763783E-02  0.00000000E+00  0.00000000E+00 -1.02984444E-01
  1.85780941E-06 -7.43494000E-02  0.00000000E+00  0.00000000E+00 -1.21512244E-02
  1.10282082E-06 -6.91289416E-03 -6.74015504E-03 -7.46357143E-03  1.84259883E-01
  0.00000000E+00 -1.65251445E-03 -4.45245342E-03  1.67919389E-01  0.00000000E+00
 -1.67433137E-03 -1.50905432E-02  4.58539340E-02  0.00000000E+00 -2.24210306E-03
 -1.84119678E-02 -5.34924463E-02  0.00000000E+00  7.06522863E-02  0.00000000E+00
  0.00000000E+00  1.13321452E-02  2.89773153E-01  7.80881089E-02  0.00000000E+00
  0.00000000E+00  1.31024909E-02  3.27079698E-01 -6.91328707E-03 -6.74053920E-03
  7.46535887E-03  1.84260851E-01  0.00000000E+00 -1.65246613E-03  4.45409143E-03
  1.67920302E-01  0.00000000E+00 -1.67432097E-03  1.50909519E-02  4.58543846E-02
  0.00000000E+00 -2.24238880E-03  1.84115128E-02 -5.34926947E-02  0.00000000E+00
  7.06528707E-02  0.00000000E+00  0.00000000E+00  1.13284638E-02 -2.89773899E-01
  7.80886525E-02  0.00000000E+00  0.00000000E+00  1.30982518E-02 -3.27080247E-01
  5.30153789E-07  4.94320278E-07  2.64960831E-02  3.34885707E-07  0.00000000E+00
 -2.05868811E-07  2.69082423E-02  2.89657335E-07  0.00000000E+00 -8.20080737E-08
  4.25774221E-03  1.35390852E-08  0.00000000E+00  1.12339798E-07 -2.67564503E-02
 -1.55001492E-07  0.00000000E+00 -1.25687090E-06  0.00000000E+00  0.00000000E+00
 -3.80055068E-07  5.59579836E-02 -7.95706417E-07  0.00000000E+00  0.00000000E+00
  1.97728255E-07 -4.26434318E-03  2.91796136E-03  2.88742898E-03  5.98032961E-02
  2.98129612E-03  0.00000000E+00 -2.91467544E-03  5.00845135E-02  2.43662134E-03
  0.00000000E+00  1.75666485E-03 -1.41651217E-02 -9.40009522E-04  0.00000000E+00
 -3.98072083E-03 -2.17204371E-02 -9.34317907E-03  0.00000000E+00  3.56284855E-01
  0.00000000E+00  0.00000000E+00 -7.14574609E-02 -1.97203412E-01  3.48377907E-01
  0.00000000E+00  0.00000000E+00 -6.77720544E-02 -1.96042520E-01 -2.91844465E-03
 -2.88790313E-03  5.98045629E-02 -2.98157866E-03  0.00000000E+00  2.91497470E-03
  5.00855141E-02 -2.43692274E-03  0.00000000E+00 -1.75645042E-03 -1.41655037E-02
  9.40013650E-04  0.00000000E+00  3.98095513E-03 -2.17207054E-02  9.34308104E-03
  0.00000000E+00 -3.56275713E-01  0.00000000E+00  0.00000000E+00  7.14533079E-02
 -1.97201541E-01 -3.48368761E-01  0.00000000E+00  0.00000000E+00  6.77678476E-02
 -1.96040794E-01  6.26304279E-02  5.70516163E-02  2.22717827E-06  1.22676644E-01
  0.00000000E+00 -1.78644012E-02  1.13589457E-06  8.12727380E-02  0.00000000E+00
 -1.79947559E-02  8.03012617E-07  2.73800483E-02  0.00000000E+00  1.11599632E-02
  1.43509618E-06 -1.47701755E-02  0.00000000E+00 -2.78298381E-01  0.00000000E+00
  0.00000000E+00 -6.14343410E-02  2.72331572E-06 -2.32942804E-01  0.00000000E+00
  0.00000000E+00 -3.82766290E-02  3.47501773E-06 -5.71309123E-02 -5.55456663E-02
 -1.23459901E-01  3.58348210E-02  0.00000000E+00  4.13547409E-02 -9.27636767E-02
  2.61552140E-02  0.00000000E+00  3.90631791E-02  4.44962114E-02 -1.69170919E-02
  0.00000000E+00  1.96947269E-02  7.05332571E-02 -2.32792864E-02  0.00000000E+00
  3.13841106E-01  0.00000000E+00  0.00000000E+00  9.62688629E-02 -1.52298907E-01
  2.80816497E-01  0.00000000E+00  0.00000000E+00  8.04993848E-02 -1.27379336E-01
 -5.71332606E-02 -5.55479504E-02  1.23455729E-01  3.58384814E-02  0.00000000E+00
  4.13563373E-02  9.27602339E-02  2.61578719E-02  0.00000000E+00  3.90644736E-02
 -4.44966883E-02 -1.69180554E-02  0.00000000E+00  1.96943415E-02 -7.05322375E-02
 -2.32809802E-02  0.00000000E+00  3.13846978E-01  0.00000000E+00  0.00000000E+00
  9.62572015E-02  1.52300320E-01  2.80821979E-01  0.00000000E+00  0.00000000E+00
  8.04888844E-02  1.27380093E-01 -1.17190516E-06 -1.06844097E-06  1.27684091E-01
 -2.23528811E-06  0.00000000E+00  5.45075666E-07  7.64247914E-02 -1.79927072E-06
  0.00000000E+00  3.26943038E-07  6.20670397E-02 -1.18784284E-06  0.00000000E+00
 -6.23886888E-07  6.94634770E-02  1.59424179E-07  0.00000000E+00  4.75484558E-06
  0.00000000E+00  0.00000000E+00  5.79639488E-06  1.38429922E-01  4.27879257E-06
  0.00000000E+00  0.00000000E+00  2.66788886E-06  1.86516931E-01  7.55195025E-02
  7.32369267E-02 -8.92056324E-02 -1.67434302E-01  0.00000000E+00 -5.74683977E-02
 -6.94661341E-02 -1.22195733E-01  0.00000000E+00 -5.70326618E-02 -1.39430825E-02
  4.66485925E-02  0.00000000E+00 -5.81185311E-03  1.04010330E-02  8.37897234E-02
  0.00000000E+00  8.61814635E-02  0.00000000E+00  0.00000000E+00  3.64573658E-01
  1.32529222E-02  6.87087731E-02  0.00000000E+00  0.00000000E+00  3.08110015E-01
  2.82641319E-03 -7.55176466E-02 -7.32351283E-02 -8.92092155E-02  1.67433069E-01
  0.00000000E+00  5.74668814E-02 -6.94689264E-02  1.22194839E-01  0.00000000E+00
  5.70308027E-02 -1.39417155E-02 -4.66479019E-02  0.00000000E+00  5.81043941E-03
  1.04035878E-02 -8.37882981E-02  0.00000000E+00 -8.61925628E-02  0.00000000E+00
  0.00000000E+00 -3.64570370E-01  1.32528178E-02 -6.87180968E-02  0.00000000E+00
  0.00000000E+00 -3.08107367E-01  2.82618292E-03 -1.00668051E-01 -9.05525403E-02
  8.93143768E-07  2.52839705E-01  0.00000000E+00  9.08799603E-02  1.63635542E-06
  2.15762074E-01  0.00000000E+00  3.46389296E-02  8.06998055E-07  3.61951976E-02
  0.00000000E+00 -1.83265391E-02 -7.93325179E-07 -1.45253470E-01  0.00000000E+00
 -8.03384630E-02  0.00000000E+00  0.00000000E+00 -1.04845651E-01  2.98162187E-06
  4.47816011E-02  0.00000000E+00  0.00000000E+00 -1.55706383E-01  2.19571387E-06
  6.73198853E-02  6.46634885E-02  1.50639418E-01  2.97807314E-01  0.00000000E+00
 -6.84931115E-02  9.91815953E-02  1.94515617E-01  0.00000000E+00 -7.30657741E-02
 -5.74620999E-02 -4.54278083E-02  0.00000000E+00 -3.90002617E-03 -1.36590473E-01
 -1.35874852E-01  0.00000000E+00 -8.15985553E-02  0.00000000E+00  0.00000000E+00
 -1.64230007E-02 -1.94995846E-01 -5.71010819E-02  0.00000000E+00  0.00000000E+00
 -1.84632541E-02 -1.37103040E-01  6.73197306E-02  6.46633376E-02 -1.50637211E-01
  2.97809596E-01  0.00000000E+00 -6.84928758E-02 -9.91801798E-02  1.94517143E-01
  0.00000000E+00 -7.30652777E-02  5.74614898E-02 -4.54280396E-02  0.00000000E+00
 -3.89955327E-03  1.36588519E-01 -1.35876182E-01  0.00000000E+00 -8.15984092E-02
  0.00000000E+00  0.00000000E+00 -1.64198315E-02  1.94995094E-01 -5.71009094E-02
  0.00000000E+00  0.00000000E+00 -1.84612480E-02  1.37102557E-01 -6.56343816E-07
 -5.71005491E-07  3.26074335E-01 -2.21952855E-06  0.00000000E+00  3.70750690E-07
  2.00178629E-01 -4.96054105E-07  0.00000000E+00  1.27618999E-07 -1.29775631E-02
  3.05752043E-07  0.00000000E+00  1.18985498E-07 -2.90939150E-01  1.12785227E-06
  0.00000000E+00 -3.56702015E-06  0.00000000E+00  0.00000000E+00  2.93224028E-06
  4.40016882E-02 -9.84385862E-07  0.00000000E+00  0.00000000E+00 -1.12753651E-06
 -1.82469159E-01 -1.10917190E-01 -1.04983806E-01  2.84921039E-01 -1.18748230E-01
  0.00000000E+00  1.43819866E-01  1.50326931E-01 -6.04614938E-02  0.00000000E+00
  1.17669289E-01 -7.48225259E-02  1.72402670E-02  0.00000000E+00 -5.68959656E-02
 -1.45423989E-01 -2.55531000E-02  0.00000000E+00  6.77107858E-02  0.00000000E+00
  0.00000000E+00  5.25655800E-02  2.43407011E-01  3.45645185E-02  0.00000000E+00
  0.00000000E+00  2.00614669E-02  1.19575650E-01  1.10918219E-01  1.04984775E-01
  2.84918277E-01  1.18744731E-01  0.00000000E+00 -1.43820984E-01  1.50325516E-01
  6.04596843E-02  0.00000000E+00 -1.17670006E-01 -7.48208696E-02 -1.72391968E-02
  0.00000000E+00  5.68956423E-02 -1.45422184E-01  2.55539768E-02  0.00000000E+00
 -6.77076213E-02  0.00000000E+00  0.00000000E+00 -5.25617844E-02  2.43406721E-01
 -3.45629000E-02  0.00000000E+00  0.00000000E+00 -2.00596574E-02  1.19575277E-01
  1.97486263E-02  1.54435500E-02  2.22842785E-06  2.62621883E-01  0.00000000E+00
  1.48701757E-02  2.11548611E-06  1.29870002E-01  0.00000000E+00  9.99519032E-03
 -5.55754557E-07 -1.21956585E-02  0.00000000E+00  8.50927695E-02 -3.15753467E-06
 -1.74139598E-01  0.00000000E+00  2.00834954E-01  0.00000000E+00  0.00000000E+00
  1.63942092E-01  3.32380060E-06  2.05624644E-01  0.00000000E+00  0.00000000E+00
  1.06925713E-01 -1.95486818E-06  3.95027828E-02  3.72648529E-02 -3.44959874E-01
  3.05004858E-02  0.00000000E+00 -5.88279781E-02 -1.61660764E-01  1.48730102E-02
  0.00000000E+00 -2.82120117E-02  1.13080205E-01  6.42945887E-03  0.00000000E+00
  8.49349206E-02  1.03443758E-01 -5.60113637E-02  0.00000000E+00 -1.71681290E-01
  0.00000000E+00  0.00000000E+00  2.78110454E-01 -3.26971090E-02 -7.63489617E-02
  0.00000000E+00  0.00000000E+00  1.19673506E-01 -2.11885918E-02  3.95053811E-02
  3.72672981E-02  3.44963236E-01  3.04937875E-02  0.00000000E+00 -5.88313927E-02
  1.61662589E-01  1.48699765E-02  0.00000000E+00 -2.82146845E-02 -1.13080588E-01
  6.43212023E-03  0.00000000E+00  8.49351657E-02 -1.03445945E-01 -5.60085407E-02
  0.00000000E+00 -1.71682194E-01  0.00000000E+00  0.00000000E+00  2.78112582E-01
  3.26900147E-02 -7.63494055E-02  0.00000000E+00  0.00000000E+00  1.19674880E-01
  2.11855720E-02 -9.49868956E-02 -7.49253952E-02 -2.64280469E-06  2.53657854E-01
  0.00000000E+00  1.05829957E-01 -1.32151181E-06  1.06007619E-01  0.00000000E+00
 -6.61149428E-03  3.96141666E-07 -8.81555950E-02  0.00000000E+00 -2.26468581E-01
  1.75740754E-06 -7.86606112E-02  0.00000000E+00 -1.73536776E-01  0.00000000E+00
  0.00000000E+00  4.39096768E-01 -7.85974102E-06 -7.07041989E-02  0.00000000E+00
  0.00000000E+00  1.63186007E-01 -9.82171224E-07 -1.60135393E-02 -1.48492628E-02
  2.14210261E-01 -1.98471770E-01  0.00000000E+00  3.10788651E-02  7.06101948E-02
 -5.69540736E-02  0.00000000E+00 -1.07582727E-02 -1.40224512E-01  8.13508534E-02
  0.00000000E+00 -1.11094786E-01 -1.93765402E-01 -1.41513185E-02  0.00000000E+00
  4.13259343E-02  0.00000000E+00  0.00000000E+00  3.16909795E-01  8.64786742E-02
  1.50790865E-02  0.00000000E+00  0.00000000E+00  4.42257106E-02  2.91815877E-02
 -1.60154474E-02 -1.48510185E-02 -2.14209180E-01 -1.98471719E-01  0.00000000E+00
  3.10821079E-02 -7.06102621E-02 -5.69541197E-02  0.00000000E+00 -1.07557983E-02
  1.40224531E-01  8.13495324E-02  0.00000000E+00 -1.11094898E-01  1.93766129E-01
 -1.41545704E-02  0.00000000E+00  4.13258269E-02  0.00000000E+00  0.00000000E+00
  3.16917902E-01 -8.64841974E-02  1.50792033E-02  0.00000000E+00  0.00000000E+00
  4.42272221E-02 -2.91827737E-02 -6.15150813E-07 -4.33027702E-07  3.33063527E-01
 -2.93180257E-06  0.00000000E+00  5.39434262E-07  9.92193464E-02 -1.20148695E-06
  0.00000000E+00 -2.05148790E-07 -1.32631884E-01  1.04362787E-06  0.00000000E+00
 -2.63775458E-06 -2.09426639E-02  2.66276247E-06  0.00000000E+00  8.41038859E-07
  0.00000000E+00  0.00000000E+00  7.86768948E-06  5.12854305E-01 -1.85011927E-06
  0.00000000E+00  0.00000000E+00  6.55961720E-07  2.35538838E-02 -9.58463542E-04
 -5.09860836E-04 -1.10970693E-01  3.87746391E-01  0.00000000E+00 -7.69498052E-03
 -1.18635364E-02  5.58330653E-02  0.00000000E+00  4.22754217E-02  2.38440619E-02
 -2.77728898E-01  0.00000000E+00  6.17520194E-02  6.50091523E-02 -2.86362296E-01
  0.00000000E+00  7.75303408E-03  0.00000000E+00  0.00000000E+00  1.22605632E-01
  5.05098756E-02 -2.09696379E-02  0.00000000E+00  0.00000000E+00 -7.55509352E-03
 -3.88401536E-02  9.55740464E-04  5.07408917E-04 -1.10980391E-01 -3.87745566E-01
  0.00000000E+00  7.70101287E-03 -1.18655041E-02 -5.58334266E-02  0.00000000E+00
 -4.22730476E-02  2.38497247E-02  2.77726982E-01  0.00000000E+00 -6.17552067E-02
  6.50155199E-02  2.86361555E-01  0.00000000E+00 -7.75326888E-03  0.00000000E+00
  0.00000000E+00 -1.22604384E-01  5.05127268E-02  2.09707718E-02  0.00000000E+00
  0.00000000E+00  7.55379161E-03 -3.88421223E-02 -2.58755238E-07 -1.42762491E-07
 -4.07520270E-01  2.33123593E-05  0.00000000E+00  1.21890445E-06  3.36600584E-02
 -9.98869423E-07  0.00000000E+00 -4.46591297E-06  1.24774590E-01 -1.25377148E-05
  0.00000000E+00 -2.20402966E-05 -2.74832382E-01  3.95306994E-06  0.00000000E+00
  2.14792014E-05  0.00000000E+00  0.00000000E+00 -1.67917315E-05  4.87183314E-01
 -5.53197746E-06  0.00000000E+00  0.00000000E+00  5.73511203E-06 -4.43225646E-02
 -1.18477311E-01 -1.01896511E-01 -7.71370784E-02 -1.98538498E-03  0.00000000E+00
  2.71289046E-01  2.18356711E-02 -1.45120327E-02  0.00000000E+00  1.56384526E-01
 -2.92445361E-02  7.19260599E-02  0.00000000E+00 -4.48532178E-02 -1.54231769E-01
  8.89063145E-02  0.00000000E+00 -2.03371116E-01  0.00000000E+00  0.00000000E+00
  1.51393609E-01 -3.56245172E-01  4.94520577E-02  0.00000000E+00  0.00000000E+00
 -3.96215253E-02  9.15077705E-02  1.18460345E-01  1.01881870E-01 -7.71394928E-02
  1.97467975E-03  0.00000000E+00 -2.71248163E-01  2.18342638E-02  1.45100506E-02
  0.00000000E+00 -1.56364935E-01 -2.92403764E-02 -7.19131334E-02  0.00000000E+00
  4.48345380E-02 -1.54225155E-01 -8.88910263E-02  0.00000000E+00  2.03355585E-01
  0.00000000E+00  0.00000000E+00 -1.51407930E-01 -3.56215693E-01 -4.94464385E-02
  0.00000000E+00  0.00000000E+00  3.96255428E-02  9.14978775E-02  2.97888490E-02
  2.03370180E-02 -2.69207885E-05 -3.96350554E-01  0.00000000E+00 -8.68680235E-02
  3.03443748E-06  1.75729081E-02  0.00000000E+00  6.15579687E-02  8.84168680E-06
  2.28622729E-01  0.00000000E+00  3.85356962E-01 -1.47252002E-05  6.13953152E-02
  0.00000000E+00 -2.95875068E-01  0.00000000E+00  0.00000000E+00  4.48753884E-01
  2.39527522E-05  4.26746070E-02  0.00000000E+00  0.00000000E+00 -1.29429019E-01
 -3.07102095E-07  1.17966364E-01  1.00879177E-01  4.96871388E-02  1.13831366E-01
  0.00000000E+00 -2.84721135E-01 -1.20343152E-02  1.15124714E-02  0.00000000E+00
 -1.43745718E-01  1.29477150E-02 -1.52229635E-01  0.00000000E+00  1.35435491E-01
  2.41953437E-02 -1.08952041E-01  0.00000000E+00  1.42129260E-01  0.00000000E+00
  0.00000000E+00  1.11970766E-01  2.35094981E-01 -4.43625889E-02  0.00000000E+00
  0.00000000E+00 -4.70133646E-02 -7.15581227E-02  1.17979168E-01  1.00890094E-01
 -4.96974332E-02  1.13826863E-01  0.00000000E+00 -2.84750611E-01  1.20371507E-02
  1.15143744E-02  0.00000000E+00 -1.43763301E-01 -1.29526388E-02 -1.52235952E-01
  0.00000000E+00  1.35439899E-01 -2.42136530E-02 -1.08960464E-01  0.00000000E+00
  1.42154900E-01  0.00000000E+00  0.00000000E+00  1.11951537E-01 -2.35141579E-01
 -4.43692010E-02  0.00000000E+00  0.00000000E+00 -4.70073843E-02  7.15708147E-02
  1.12086462E-01  7.14891956E-02  3.74778474E-06  1.00162180E-02  0.00000000E+00
 -2.18483135E-01 -2.11454579E-06 -6.24813637E-02  0.00000000E+00 -4.69091588E-02
 -6.65713095E-07  8.08902328E-02  0.00000000E+00  3.87239781E-02  5.44777522E-06
  4.85837892E-01  0.00000000E+00  4.14511675E-01  0.00000000E+00  0.00000000E+00
  4.00017666E-01 -1.18866327E-05 -1.84330721E-01  0.00000000E+00  0.00000000E+00
 -1.57868736E-01  2.19058257E-06 -9.82499636E-02 -8.21430863E-02  2.22737022E-02
  2.91763712E-01  0.00000000E+00  2.58553919E-01  8.45982239E-03 -3.69996349E-02
  0.00000000E+00  1.18295287E-01 -4.16562752E-02 -2.53850963E-01  0.00000000E+00
 -6.63580189E-02 -8.01137278E-02  2.57441307E-02  0.00000000E+00 -4.18262627E-02
  0.00000000E+00  0.00000000E+00  1.64360714E-01 -1.42791667E-01  1.72968233E-02
  0.00000000E+00  0.00000000E+00 -8.43341936E-02  5.57164221E-02 -9.82518893E-02
 -8.21446776E-02 -2.22643482E-02  2.91768464E-01  0.00000000E+00  2.58558185E-01
 -8.46167459E-03 -3.70002804E-02  0.00000000E+00  1.18298137E-01  4.16524770E-02
 -2.53853018E-01  0.00000000E+00 -6.63582563E-02  8.01163350E-02  2.57433368E-02
  0.00000000E+00 -4.18319441E-02  0.00000000E+00  0.00000000E+00  1.64373815E-01
  1.42796716E-01  1.72985370E-02  0.00000000E+00  0.00000000E+00 -8.43392125E-02
 -5.57171857E-02  1.06674653E-06  5.87195785E-07 -2.23899464E-01 -1.57273031E-06
  0.00000000E+00 -3.01911850E-06  6.32709442E-02  2.60106370E-07  0.00000000E+00
 -5.90379461E-08  1.66491283E-01  2.18587089E-07  0.00000000E+00  1.83631665E-06
  3.08225985E-01 -1.36073551E-06  0.00000000E+00  3.03060600E-06  0.00000000E+00
  0.00000000E+00 -6.23896919E-06 -1.37165605E-01 -2.83472531E-06  0.00000000E+00
  0.00000000E+00  4.79161308E-06  8.27909346E-02  4.21879670E-02  3.21529516E-02
  4.62889457E-01  1.57901345E-01  0.00000000E+00 -1.33278710E-01 -1.83330255E-01
 -6.40881738E-02  0.00000000E+00 -5.98802175E-02 -4.08441036E-01 -1.68289862E-01
  0.00000000E+00  4.97948816E-02 -2.46765520E-02 -1.06572024E-02  0.00000000E+00
 -1.64181263E-01  0.00000000E+00  0.00000000E+00  3.20973862E-01 -2.87960826E-02
  1.41914100E-01  0.00000000E+00  0.00000000E+00 -2.61007013E-01  3.65909865E-02
 -4.21868935E-02 -3.21521128E-02  4.62888660E-01 -1.57906347E-01  0.00000000E+00
  1.33274747E-01 -1.83329737E-01  6.40900927E-02  0.00000000E+00  5.98783722E-02
 -4.08438668E-01  1.68293767E-01  0.00000000E+00 -4.97935168E-02 -2.46734973E-02
  1.06563366E-02  0.00000000E+00  1.64181165E-01  0.00000000E+00  0.00000000E+00
 -3.20969011E-01 -2.87828000E-02 -1.41914520E-01  0.00000000E+00  0.00000000E+00
  2.61003887E-01  3.65809705E-02 -1.66549209E-01 -8.47673137E-02 -3.26994892E-06
 -2.80752668E-02  0.00000000E+00  4.73449911E-01  3.99439055E-06  1.27307616E-01
  0.00000000E+00  4.45586082E-02  2.73777759E-06  1.21394610E-01  0.00000000E+00
 -3.02935670E-01 -1.07906714E-06 -8.57353348E-02  0.00000000E+00  2.92070863E-01
  0.00000000E+00  0.00000000E+00 -3.77235799E-03 -3.61716201E-06 -7.81816034E-02
  0.00000000E+00  0.00000000E+00 -1.03398894E-01  4.26014300E-06 -6.09850718E-02
 -4.57768052E-02 -1.31503569E-01  1.41314367E-01  0.00000000E+00  1.99163083E-01
  5.99257039E-02 -6.29413154E-02  0.00000000E+00  8.31278204E-02  8.07350256E-02
 -7.68682037E-02  0.00000000E+00 -1.02431472E-01  4.70380246E-02 -4.82652121E-02
  0.00000000E+00  2.61960396E-01  0.00000000E+00  0.00000000E+00 -6.19712718E-02
  4.37299982E-01 -2.33651011E-01  0.00000000E+00  0.00000000E+00  5.53163340E-02
 -3.94403572E-01 -6.09850530E-02 -4.57767712E-02  1.31508895E-01  1.41312131E-01
  0.00000000E+00  1.99162440E-01 -5.99280732E-02 -6.29402407E-02  0.00000000E+00
  8.31278491E-02 -8.07380553E-02 -7.68645896E-02  0.00000000E+00 -1.02431256E-01
 -4.70397449E-02 -4.82638315E-02  0.00000000E+00  2.61956327E-01  0.00000000E+00
  0.00000000E+00 -6.19862527E-02 -4.37298212E-01 -2.33648195E-01  0.00000000E+00
  0.00000000E+00  5.53297490E-02  3.94403237E-01 -5.49827189E-02 -2.57824704E-02
  3.48052697E-06 -1.84562245E-01  0.00000000E+00  1.36175009E-01 -5.00230597E-07
  8.13053676E-02  0.00000000E+00  3.45631946E-02 -1.25180420E-06  1.16040899E-01
  0.00000000E+00  3.12653692E-04 -1.24487353E-06 -2.04112198E-01  0.00000000E+00
  4.58439975E-01  0.00000000E+00  0.00000000E+00 -9.42262457E-03  3.15501009E-06
 -3.93513904E-01  0.00000000E+00  0.00000000E+00  3.73314062E-03 -3.10009358E-06
  4.36790818E-02  3.27592080E-02  7.95781791E-03 -1.11029347E-01  0.00000000E+00
 -1.63526635E-01  2.74868850E-03  4.65300715E-02  0.00000000E+00 -6.10163132E-02
 -3.37722294E-02  1.04195499E-01  0.00000000E+00  4.01062706E-02  4.55093000E-02
 -7.71208556E-02  0.00000000E+00  4.25610825E-01  0.00000000E+00  0.00000000E+00
  9.26547189E-02 -3.45381099E-01 -3.91717583E-01  0.00000000E+00  0.00000000E+00
 -7.44976825E-02  2.94572600E-01  4.36784832E-02  3.27587769E-02 -7.96281040E-03
 -1.11025286E-01  0.00000000E+00 -1.63524656E-01 -2.74592023E-03  4.65284605E-02
  0.00000000E+00 -6.10150921E-02  3.37780381E-02  1.04192187E-01  0.00000000E+00
  4.01061139E-02 -4.55082752E-02 -7.71201877E-02  0.00000000E+00  4.25615829E-01
  0.00000000E+00  0.00000000E+00  9.26667465E-02  3.45377564E-01 -3.91722338E-01
  0.00000000E+00  0.00000000E+00 -7.45078788E-02 -2.94568866E-01  1.44479916E-06
  6.37809511E-07 -2.52588007E-01 -2.78817872E-06  0.00000000E+00 -3.52693845E-06
  6.03422486E-02  1.93866296E-07  0.00000000E+00  5.50642111E-08  8.39791996E-02
  9.21883555E-07  0.00000000E+00  1.98790988E-06 -1.27299774E-01  6.75094454E-07
  0.00000000E+00 -9.04699753E-07  0.00000000E+00  0.00000000E+00 -8.54275735E-06
 -2.10567341E-01 -1.32412864E-06  0.00000000E+00  0.00000000E+00  6.60377090E-06
  2.37705607E-01 -2.83855118E-02 -2.07693025E-02 -4.84344890E-02  6.46804422E-02
  0.00000000E+00  1.13184924E-01  2.04745564E-02 -3.25940674E-02  0.00000000E+00
  5.75842335E-02  3.68981752E-02 -6.91533322E-02  0.00000000E+00 -1.40117397E-02
 -5.62913582E-02 -1.13859845E-04  0.00000000E+00  5.67835397E-01  0.00000000E+00
  0.00000000E+00  2.83231523E-01 -3.48205631E-02 -5.43835882E-01  0.00000000E+00
  0.00000000E+00 -2.75263510E-01  4.98626087E-02  2.83860262E-02  2.07696960E-02
 -4.84358861E-02 -6.46814408E-02  0.00000000E+00 -1.13187217E-01  2.04757260E-02
  3.25947263E-02  0.00000000E+00 -5.75857503E-02  3.69007488E-02  6.91535500E-02
  0.00000000E+00  1.40123330E-02 -5.62873515E-02  1.12877952E-04  0.00000000E+00
 -5.67832277E-01  0.00000000E+00  0.00000000E+00 -2.83216518E-01 -3.48074942E-02
  5.43832176E-01  0.00000000E+00  0.00000000E+00  2.75249810E-01  4.98507990E-02
  4.58682431E-03  7.23659191E-04  1.73338687E-05  4.96725942E-01  0.00000000E+00
 -1.84756360E-02 -3.91323422E-06 -1.97299070E-01  0.00000000E+00 -4.20027466E-02
 -4.65262825E-06 -1.83908653E-01  0.00000000E+00  6.49651333E-02  1.57665535E-05
  1.21337236E-01  0.00000000E+00 -7.87277767E-02  0.00000000E+00  0.00000000E+00
  5.70623004E-01  3.81944632E-06  1.49959730E-01  0.00000000E+00  0.00000000E+00
 -2.19955540E-01 -7.76679647E-06  1.50735856E-02  1.02047434E-02  4.39926493E-02
  5.71913484E-03  0.00000000E+00 -4.50392970E-02 -1.91209262E-02  5.17539048E-03
  0.00000000E+00  1.34999086E-02 -5.55035844E-03 -2.51661928E-03  0.00000000E+00
  3.52305518E-02  1.34040063E-01  7.16116372E-02  0.00000000E+00  1.78835684E-01
  0.00000000E+00  0.00000000E+00 -4.85021413E-01 -7.57258101E-02 -1.81981274E-01
  0.00000000E+00  0.00000000E+00  4.98963207E-01  9.81647019E-02  1.50720602E-02
  1.02036522E-02 -4.39517938E-02  5.70581332E-03  0.00000000E+00 -4.50327854E-02
  1.90953804E-02  5.18362163E-03  0.00000000E+00  1.35065324E-02  5.52382462E-03
 -2.51002406E-03  0.00000000E+00  3.52298117E-02 -1.34031896E-01  7.16082000E-02
  0.00000000E+00  1.78795154E-01  0.00000000E+00  0.00000000E+00 -4.84985490E-01
  7.56618940E-02 -1.81937136E-01  0.00000000E+00  0.00000000E+00  4.98926004E-01
 -9.80989230E-02 -1.78586420E-06 -5.50998622E-07  3.54422814E-01 -4.24485880E-05
  0.00000000E+00  4.37997303E-06 -9.16294903E-02  1.79030020E-05  0.00000000E+00
  3.67360795E-06 -1.05658108E-01  1.55608430E-05  0.00000000E+00 -7.20436269E-06
  2.10072316E-01 -1.27090455E-05  0.00000000E+00  5.78159205E-06  0.00000000E+00
  0.00000000E+00 -4.02728712E-05  1.27235939E-01 -1.31293552E-05  0.00000000E+00
  0.00000000E+00  1.18602665E-05 -2.06110617E-01  1.71034477E-02  1.19518274E-02
  2.32637391E-01  2.43557580E-02  0.00000000E+00 -7.07104591E-02 -1.46666900E-01
 -1.38958708E-02  0.00000000E+00 -5.72789968E-02 -1.34696263E-01 -7.17188399E-04
  0.00000000E+00  5.56420090E-03  7.41917750E-02  1.06818351E-02  0.00000000E+00
  1.94515336E-01  0.00000000E+00  0.00000000E+00 -2.37681178E-01 -5.06079016E-01
 -2.17607679E-01  0.00000000E+00  0.00000000E+00  2.50815785E-01  5.33947475E-01
 -1.71060503E-02 -1.19535871E-02  2.32645000E-01 -2.43601690E-02  0.00000000E+00
  7.07186719E-02 -1.46670721E-01  1.38971750E-02  0.00000000E+00  5.72775839E-02
 -1.34698460E-01  7.20573994E-04  0.00000000E+00 -5.57014344E-03  7.42107330E-02
 -1.06938679E-02  0.00000000E+00 -1.94547212E-01  0.00000000E+00  0.00000000E+00
  2.37737450E-01 -5.06096107E-01  2.17641233E-01  0.00000000E+00  0.00000000E+00
 -2.50874581E-01  5.33968274E-01  6.91875404E-02  2.15362940E-02  8.09184597E-06
  2.30416182E-01  0.00000000E+00 -2.17090852E-01 -3.19966172E-06 -1.54546586E-01
  0.00000000E+00 -4.75512462E-02 -4.32950087E-06 -2.54532190E-01  0.00000000E+00
  2.55572098E-02  4.01266787E-06  2.75408576E-01  0.00000000E+00 -4.80743729E-01
  0.00000000E+00  0.00000000E+00 -3.31196821E-01  6.42682298E-06  6.41165564E-01
  0.00000000E+00  0.00000000E+00  2.78014670E-01 -8.11569106E-06 -2.10819705E-02
 -1.36487516E-02 -1.02506000E-01  1.41630481E-01  0.00000000E+00  9.59351568E-02
  6.70479403E-02 -1.08517399E-01  0.00000000E+00  4.29127254E-02  4.62964713E-02
 -1.24009031E-01  0.00000000E+00 -2.90760829E-02 -1.23132222E-01  1.23634269E-01
  0.00000000E+00  3.67563874E-01  0.00000000E+00  0.00000000E+00  1.81330751E-01
 -3.35978100E-02 -4.47742919E-01  0.00000000E+00  0.00000000E+00 -2.16338967E-01
  6.10633336E-02 -2.10825826E-02 -1.36491736E-02  1.02507645E-01  1.41631806E-01
  0.00000000E+00  9.59384725E-02 -6.70492438E-02 -1.08518906E-01  0.00000000E+00
  4.29146007E-02 -4.62984919E-02 -1.24011243E-01  0.00000000E+00 -2.90759482E-02
  1.23136171E-01  1.23633816E-01  0.00000000E+00  3.67568489E-01  0.00000000E+00
  0.00000000E+00  1.81333060E-01  3.35867322E-02 -4.47747775E-01  0.00000000E+00
  0.00000000E+00 -2.16342787E-01 -6.10514564E-02 -1.40348956E-06 -3.54366033E-07
  2.96371388E-01  9.50168283E-06  0.00000000E+00  2.72315614E-06 -1.00034776E-01
 -3.85390214E-06  0.00000000E+00 -1.10032259E-06 -2.55028130E-01 -1.53525689E-06
  0.00000000E+00  1.40536973E-06  1.57274796E-02  2.45196437E-06  0.00000000E+00
  1.66176664E-06  0.00000000E+00  0.00000000E+00  1.16176908E-05  1.71084190E-02
 -1.60472677E-06  0.00000000E+00  0.00000000E+00 -8.58759740E-06 -4.07147557E-01
  5.50062856E-02  3.39361049E-02 -1.36984099E-01 -3.91412178E-01  0.00000000E+00
 -2.25305586E-01  1.11308585E-01  3.17833698E-01  0.00000000E+00 -4.96358321E-02
  1.38062354E-01  2.01430771E-01  0.00000000E+00  5.40752386E-02  1.51440690E-01
 -2.29733377E-01  0.00000000E+00 -7.07487570E-02  0.00000000E+00  0.00000000E+00
  3.90247303E-01 -1.58842452E-01  8.46535921E-02  0.00000000E+00  0.00000000E+00
 -5.01393786E-01  1.99916258E-01 -5.50054714E-02 -3.39356249E-02 -1.36989993E-01
  3.91414926E-01  0.00000000E+00  2.25302803E-01  1.11312639E-01 -3.17835956E-01
  0.00000000E+00  4.96367884E-02  1.38064612E-01 -2.01432731E-01  0.00000000E+00
 -5.40725780E-02  1.51431043E-01  2.29732396E-01  0.00000000E+00  7.07468090E-02
  0.00000000E+00  0.00000000E+00 -3.90255210E-01 -1.58837733E-01 -8.46505001E-02
  0.00000000E+00  0.00000000E+00  5.01402995E-01  1.99909650E-01 -4.85708380E-02
 -1.36934274E-02 -3.16124569E-06  4.66191019E-01  0.00000000E+00  1.79667212E-01
  2.22720936E-06 -3.19019887E-01  0.00000000E+00 -9.03617222E-02 -1.42696598E-06
 -2.02827210E-01  0.00000000E+00  1.68942167E-01  2.36341645E-06  9.10736071E-02
  0.00000000E+00  2.12207442E-01  0.00000000E+00  0.00000000E+00 -2.20958941E-01
  9.56748985E-06 -1.35746110E-01  0.00000000E+00  0.00000000E+00  1.26571852E-01
 -2.81898306E-06  3.57459612E-02  1.98378640E-02  4.90248376E-01  1.08240616E-01
  0.00000000E+00 -1.54157341E-01 -4.37444786E-01 -1.17380348E-01  0.00000000E+00
 -1.89133848E-02 -2.29185583E-01 -5.73712158E-02  0.00000000E+00  1.08562471E-01
  5.26605323E-01  8.45618473E-02  0.00000000E+00  1.21978484E-02  0.00000000E+00
  0.00000000E+00  1.52021503E-01  1.19752645E-01 -1.23740526E-02  0.00000000E+00
  0.00000000E+00 -2.13420498E-01 -1.62290137E-01  3.57461941E-02  1.98380121E-02
 -4.90237011E-01  1.08243082E-01  0.00000000E+00 -1.54158198E-01  4.37434859E-01
 -1.17382238E-01  0.00000000E+00 -1.89117441E-02  2.29180344E-01 -5.73720652E-02
  0.00000000E+00  1.08561794E-01 -5.26602213E-01  8.45648592E-02  0.00000000E+00
  1.21926683E-02  0.00000000E+00  0.00000000E+00  1.52029554E-01 -1.19750511E-01
 -1.23671167E-02  0.00000000E+00  0.00000000E+00 -2.13432088E-01  1.62287827E-01
 -7.49907497E-06 -1.01931284E-07  6.70105471E-01 -1.03865400E-05  0.00000000E+00
  1.77483950E-05 -4.53862118E-01  8.70142078E-06  0.00000000E+00  3.30320561E-06
  1.55359509E-01 -8.05479709E-06  0.00000000E+00 -1.63419308E-05  3.36801580E-03
 -1.66409366E-05  0.00000000E+00 -8.13786553E-06  0.00000000E+00  0.00000000E+00
  6.65462331E-06 -4.65303303E-01  3.57327672E-06  0.00000000E+00  0.00000000E+00
 -5.13334758E-06  1.92310802E-02 -2.49217262E-03 -5.97305362E-04 -2.90022835E-01
  4.04664870E-01  0.00000000E+00  3.31077239E-02  2.89607470E-01 -4.33279128E-01
  0.00000000E+00  3.62764455E-02  1.05539207E-01 -9.60756259E-02  0.00000000E+00
 -9.06548404E-02 -1.59251342E-01  4.75846674E-01  0.00000000E+00 -1.23139647E-01
  0.00000000E+00  0.00000000E+00  1.58397724E-01 -1.38282217E-01  1.97891600E-01
  0.00000000E+00  0.00000000E+00 -2.56466657E-01  2.22588672E-01  2.49384232E-03
  5.98096161E-04 -2.90034356E-01 -4.04618619E-01  0.00000000E+00 -3.31147757E-02
  2.89620932E-01  4.33228194E-01  0.00000000E+00 -3.62687474E-02  1.05543428E-01
  9.60708707E-02  0.00000000E+00  9.06556724E-02 -1.59282821E-01 -4.75814457E-01
  0.00000000E+00  1.23132373E-01  0.00000000E+00  0.00000000E+00 -1.58398716E-01
 -1.38264601E-01 -1.97881209E-01  0.00000000E+00  0.00000000E+00  2.56469016E-01
  2.22562211E-01  9.14527884E-02 -8.41246345E-03  3.40589838E-05  4.22388566E-01
  0.00000000E+00 -2.10087922E-01 -2.79701251E-05 -3.15406012E-01  0.00000000E+00
 -1.59073338E-01 -1.26559749E-06  6.29875989E-02  0.00000000E+00  4.76042506E-01
  1.65786275E-05  6.00236261E-01  0.00000000E+00  2.65297375E-01  0.00000000E+00
  0.00000000E+00 -2.22063063E-01 -5.02085973E-06 -1.81338025E-01  0.00000000E+00
  0.00000000E+00  9.95122165E-02 -1.24603281E-05 -8.87507126E-03 -3.85233224E-03
 -7.55931238E-02 -5.24861238E-01  0.00000000E+00  2.04215307E-02  1.10045518E-01
  6.12796674E-01  0.00000000E+00 -8.60196398E-02 -1.14913594E-02  8.78829604E-03
  0.00000000E+00 -1.90698994E-03 -1.78443062E-01 -4.16177047E-01  0.00000000E+00
  5.83624259E-02  0.00000000E+00  0.00000000E+00  9.58202815E-03  1.74036984E-01
 -9.53987038E-02  0.00000000E+00  0.00000000E+00 -1.84574480E-02 -2.93269236E-01
 -8.87251159E-03 -3.85136361E-03  7.55693287E-02 -5.24893751E-01  0.00000000E+00
  2.04102457E-02 -1.10019093E-01  6.12834648E-01  0.00000000E+00 -8.60137165E-02
  1.14958219E-02  8.78960381E-03  0.00000000E+00 -1.89294134E-03  1.78427472E-01
 -4.16231363E-01  0.00000000E+00  5.83666717E-02  0.00000000E+00  0.00000000E+00
  9.56607693E-03 -1.74040855E-01 -9.54053021E-02  0.00000000E+00  0.00000000E+00
 -1.84307037E-02  2.93275401E-01  2.67748758E-06 -2.34380021E-07  1.28388588E-01
 -1.44126401E-05  0.00000000E+00 -3.93505311E-06 -3.47438492E-01  1.37027114E-05
  0.00000000E+00  5.29770327E-06 -5.62248663E-01  9.50064391E-06  0.00000000E+00
 -8.55956078E-06  8.27694475E-01 -2.44852328E-05  0.00000000E+00 -5.73444979E-06
  0.00000000E+00  0.00000000E+00  1.33060363E-05  5.16305295E-01  9.62666329E-06
  0.00000000E+00  0.00000000E+00 -1.61433456E-05 -5.02064262E-01 -1.28190525E-01
 -4.33558052E-02  6.96346717E-02 -8.66992661E-03  0.00000000E+00  4.86178821E-01
 -6.00940118E-02 -1.02197992E-02  0.00000000E+00 -3.07617640E-01 -1.23923011E-01
  1.43209655E-01  0.00000000E+00 -2.49700537E-01  6.38898574E-02  4.04893528E-01
  0.00000000E+00  9.20443177E-02  0.00000000E+00  0.00000000E+00  8.26283096E-02
  1.74927078E-01 -1.90689925E-01  0.00000000E+00  0.00000000E+00 -1.40484174E-01
 -3.47645258E-01  1.28187058E-01  4.33545913E-02  6.96236621E-02  8.67951864E-03
  0.00000000E+00 -4.86162289E-01 -6.00793768E-02  1.02079723E-02  0.00000000E+00
  3.07616092E-01 -1.23928644E-01 -1.43205774E-01  0.00000000E+00  2.49698470E-01
  6.38818363E-02 -4.04878141E-01  0.00000000E+00 -9.20423965E-02  0.00000000E+00
  0.00000000E+00 -8.26262258E-02  1.74930997E-01  1.90687841E-01  0.00000000E+00
  0.00000000E+00  1.40478756E-01 -3.47654071E-01  1.64602968E-01 -3.04822712E-02
  4.23437660E-06 -1.89488253E-01  0.00000000E+00 -2.41212807E-01  4.96383018E-07
  1.89054101E-01  0.00000000E+00  3.14289361E-02  1.37809318E-05  5.55988560E-01
  0.00000000E+00  1.74977026E-01 -1.50349051E-05 -5.19004040E-01  0.00000000E+00
 -1.30299800E-01  0.00000000E+00  0.00000000E+00  1.16400694E-01 -1.45695620E-05
  5.89549037E-01  0.00000000E+00  0.00000000E+00 -4.08214746E-01  1.33809534E-05
 -1.78300778E-01 -5.03536158E-02  3.14998995E-01 -2.03429572E-01  0.00000000E+00
  7.49790602E-01 -4.37310925E-01  2.90703805E-01  0.00000000E+00 -1.75065962E-01
 -2.51956589E-02  1.07430191E-01  0.00000000E+00 -5.92171397E-02  1.93699425E-01
 -8.30630797E-02  0.00000000E+00  6.60322967E-02  0.00000000E+00  0.00000000E+00
  1.95361269E-02 -4.10869129E-02 -1.31267497E-01  0.00000000E+00  0.00000000E+00
 -4.55110227E-02  5.73864537E-02 -1.78304934E-01 -5.03548189E-02 -3.15000496E-01
 -2.03428892E-01  0.00000000E+00  7.49806585E-01  4.37311304E-01  2.90701886E-01
  0.00000000E+00 -1.75075873E-01  2.52001923E-02  1.07434209E-01  0.00000000E+00
 -5.92234697E-02 -1.93702736E-01 -8.30556289E-02  0.00000000E+00  6.60367860E-02
  0.00000000E+00  0.00000000E+00  1.95368062E-02  4.10822933E-02 -1.31276325E-01
  0.00000000E+00  0.00000000E+00 -4.55119073E-02 -5.73773823E-02 -1.46099391E-05
  6.47453644E-06  2.16422581E-01 -2.37886362E-06  0.00000000E+00  3.11189727E-05
 -5.51808537E-02 -8.80698296E-07  0.00000000E+00 -1.91144148E-06 -7.86082087E-02
 -8.33545151E-06  0.00000000E+00 -2.41297261E-06  5.89121925E-01  1.71668509E-05
  0.00000000E+00 -8.24535553E-06  0.00000000E+00  0.00000000E+00 -1.23329863E-06
 -4.72595256E-01  1.22861678E-05  0.00000000E+00  0.00000000E+00  2.24371742E-06
  9.41396585E-01 -1.71522632E-01 -2.86561272E-03 -2.58414251E-01 -2.59430817E-01
  0.00000000E+00  7.00730933E-01  3.79962946E-01  4.64718422E-01  0.00000000E+00
 -1.90970924E-01 -3.85128447E-01 -2.64996148E-01  0.00000000E+00 -8.18756867E-02
 -1.87757003E-01 -4.16801787E-01  0.00000000E+00 -8.44804830E-02  0.00000000E+00
  0.00000000E+00 -4.29675176E-02 -1.10089463E-01  1.81208057E-01  0.00000000E+00
  0.00000000E+00  9.44842609E-02  2.31094059E-01  1.71522076E-01  2.86568236E-03
 -2.58410260E-01  2.59419681E-01  0.00000000E+00 -7.00729470E-01  3.79957314E-01
 -4.64698361E-01  0.00000000E+00  1.90977657E-01 -3.85120917E-01  2.64990494E-01
  0.00000000E+00  8.18753614E-02 -1.87783348E-01  4.16783922E-01  0.00000000E+00
  8.44767820E-02  0.00000000E+00  0.00000000E+00  4.29702317E-02 -1.10080530E-01
 -1.81202159E-01  0.00000000E+00  0.00000000E+00 -9.44896155E-02  2.31077993E-01
  3.61457392E-01 -1.78347229E-01  9.44383589E-06  1.25977760E-01  0.00000000E+00
 -7.94798071E-01 -7.23827816E-06 -3.70950865E-02  0.00000000E+00 -3.66044011E-02
  6.10480485E-06  4.57615610E-01  0.00000000E+00  4.15714003E-01  1.67263050E-05
 -3.76442390E-01  0.00000000E+00  2.80163687E-01  0.00000000E+00  0.00000000E+00
 -2.65779448E-01 -7.30071717E-06 -4.37682139E-01  0.00000000E+00  0.00000000E+00
  8.73731639E-01  3.35223926E-06 -2.50744358E-02 -1.59386312E-04  1.94655203E-01
  2.97783588E-01  0.00000000E+00  5.57107573E-02 -2.97477978E-01 -5.34147301E-01
  0.00000000E+00 -2.73466700E-01  5.32320169E-02  2.06042756E-01  0.00000000E+00
 -5.41972552E-02 -5.61234330E-01 -4.53817357E-02  0.00000000E+00  5.84729754E-02
  0.00000000E+00  0.00000000E+00 -1.80457577E-01  1.18635962E-01 -1.27274839E-01
  0.00000000E+00  0.00000000E+00  4.21222822E-01 -2.48315470E-01 -2.50719634E-02
 -1.59454478E-04 -1.94680070E-01  2.97797758E-01  0.00000000E+00  5.56987789E-02
  2.97518605E-01 -5.34172918E-01  0.00000000E+00 -2.73463410E-01 -5.32560100E-02
  2.06061371E-01  0.00000000E+00 -5.41942605E-02  5.61210562E-01 -4.53734122E-02
  0.00000000E+00  5.84742545E-02  0.00000000E+00  0.00000000E+00 -1.80456110E-01
 -1.18638548E-01 -1.27278806E-01  0.00000000E+00  0.00000000E+00  4.21220526E-01
  2.48321987E-01 -6.28109884E-01  4.12538123E-01 -2.51686040E-06 -3.41685015E-01
  0.00000000E+00  9.92859804E-01  3.03074090E-07  3.99341011E-01  0.00000000E+00
 -2.04378101E-01 -1.08012683E-05  7.57006645E-02  0.00000000E+00  3.79940880E-01
 -1.27390689E-05  8.24081540E-01  0.00000000E+00 -1.99823373E-01  0.00000000E+00
  0.00000000E+00 -1.27472916E-01  3.68767137E-06  2.95893258E-01  0.00000000E+00
  0.00000000E+00  8.07923820E-01 -8.35495611E-06 -7.87558404E-02  1.67108742E-02
  1.08958393E-01  1.47058490E-01  0.00000000E+00  2.61632960E-01 -2.17400925E-01
 -2.52431316E-01  0.00000000E+00 -1.40672105E-01  3.96661857E-03  3.40808485E-02
  0.00000000E+00 -1.20425037E-01  7.25916803E-02 -7.82868818E-01  0.00000000E+00
 -5.59546351E-02  0.00000000E+00  0.00000000E+00 -1.18129632E-01 -1.61333588E-01
  1.12986884E-01  0.00000000E+00  0.00000000E+00  3.06051521E-01  3.61565698E-01
 -7.87517677E-02  1.67100322E-02 -1.08929643E-01  1.47052242E-01  0.00000000E+00
  2.61621055E-01  2.17348480E-01 -2.52419321E-01  0.00000000E+00 -1.40665354E-01
 -3.92434931E-03  3.40580180E-02  0.00000000E+00 -1.20423484E-01 -7.25687596E-02
 -7.82880698E-01  0.00000000E+00 -5.59530448E-02  0.00000000E+00  0.00000000E+00
 -1.18132084E-01  1.61339120E-01  1.12984343E-01  0.00000000E+00  0.00000000E+00
  3.06056732E-01 -3.61580103E-01 -1.90553331E-05  1.35432509E-05 -3.61913326E-01
 -1.05872221E-05  0.00000000E+00  3.28614434E-05  3.41107559E-01  1.14319771E-05
  0.00000000E+00 -4.16951796E-06  3.26187418E-01 -3.70700356E-06  0.00000000E+00
  1.99706660E-06  6.22312450E-01  1.71037882E-05  0.00000000E+00 -6.83725919E-06
  0.00000000E+00  0.00000000E+00  2.04404051E-06  2.72436578E-01  1.50876619E-05
  0.00000000E+00  0.00000000E+00 -2.42361306E-06 -8.01162178E-01  2.02981693E-01
 -5.76828703E-02 -4.34012510E-01 -8.06719612E-02  0.00000000E+00 -6.40307646E-01
  8.81065983E-01  1.25641243E-01  0.00000000E+00  1.66227497E-01 -6.24637568E-01
 -2.74242577E-01  0.00000000E+00 -1.72827983E-02 -5.31521756E-01  1.31970222E-01
  0.00000000E+00  1.09734115E-01  0.00000000E+00  0.00000000E+00 -9.17412689E-02
  4.15028594E-02 -2.32029498E-01  0.00000000E+00  0.00000000E+00  1.88725001E-01
 -7.32090093E-02 -2.02987355E-01  5.76844868E-02 -4.34008718E-01  8.06761236E-02
  0.00000000E+00  6.40327986E-01  8.81061582E-01 -1.25647382E-01  0.00000000E+00
 -1.66228109E-01 -6.24630205E-01  2.74241891E-01  0.00000000E+00  1.72789880E-02
 -5.31549100E-01 -1.31995960E-01  0.00000000E+00 -1.09738717E-01  0.00000000E+00
  0.00000000E+00  9.17418931E-02  4.15116833E-02  2.32040436E-01  0.00000000E+00
  0.00000000E+00 -1.88725900E-01 -7.32306139E-02  3.65852712E-01 -3.00057266E-01
  4.18066756E-06 -3.15121107E-01  0.00000000E+00 -2.64920622E-02 -4.10055412E-06
  5.37122663E-01  0.00000000E+00  2.85484414E-01  5.59986313E-06 -1.60919550E-01
  0.00000000E+00 -8.61601618E-01 -8.66884096E-07  4.87802167E-01  0.00000000E+00
  7.06042056E-02  0.00000000E+00  0.00000000E+00 -6.52476168E-02 -3.16238634E-06
  1.65885561E-01  0.00000000E+00  0.00000000E+00  1.68659481E-01 -1.41078599E-06
  1.36465579E-01 -4.92836000E-02  4.41769983E-01 -1.87217931E-01  0.00000000E+00
 -3.95058494E-01 -8.65701265E-01  3.74097700E-01  0.00000000E+00  5.35380480E-01
  7.23148169E-01 -3.58252994E-01  0.00000000E+00  1.22749840E-01 -3.86854708E-01
 -1.29962437E-02  0.00000000E+00  2.27931306E-02  0.00000000E+00  0.00000000E+00
 -6.40902184E-02 -1.25679891E-02 -7.16444396E-02  0.00000000E+00  0.00000000E+00
  1.71986168E-01  5.75948291E-03  1.36461734E-01 -4.92821909E-02 -4.41773236E-01
 -1.87210214E-01  0.00000000E+00 -3.95047991E-01  8.65707780E-01  3.74082506E-01
  0.00000000E+00  5.35371549E-01 -7.23151522E-01 -3.58238625E-01  0.00000000E+00
  1.22748308E-01  3.86846985E-01 -1.30070076E-02  0.00000000E+00  2.27929061E-02
  0.00000000E+00  0.00000000E+00 -6.40900512E-02  1.25697589E-02 -7.16441259E-02
  0.00000000E+00  0.00000000E+00  1.71986755E-01 -5.76395749E-03  2.26665643E-05
 -2.29320801E-05 -4.60159324E-01  4.37455574E-06  0.00000000E+00  2.94115218E-06
  8.91868912E-01 -5.49256437E-06  0.00000000E+00  5.77205326E-06 -6.51979604E-01
  9.31794661E-06  0.00000000E+00 -6.94954730E-06  2.55894735E-01  3.30918839E-06
  0.00000000E+00  1.78441068E-06  0.00000000E+00  0.00000000E+00 -4.81226974E-06
 -2.73228600E-01  3.07919028E-06  0.00000000E+00  0.00000000E+00  9.70602851E-07
 -8.54250643E-02 -3.97731017E-02  2.38618957E-02 -2.16756664E-01  4.58034738E-01
  0.00000000E+00  1.14099424E-01  4.63105502E-01 -9.76919853E-01  0.00000000E+00
 -2.85572722E-01 -2.84074474E-01  9.90541644E-01  0.00000000E+00 -5.93179450E-02
  3.61470177E-01 -7.24583523E-01  0.00000000E+00 -1.64841861E-02  0.00000000E+00
  0.00000000E+00 -1.06190643E-04 -4.66911204E-02  8.00851213E-02  0.00000000E+00
  0.00000000E+00 -7.48750596E-03  1.83438904E-01  3.97708236E-02 -2.38603807E-02
 -2.16764763E-01 -4.58032906E-01  0.00000000E+00 -1.14095708E-01  4.63124275E-01
  9.76917058E-01  0.00000000E+00  2.85577911E-01 -2.84090326E-01 -9.90535787E-01
  0.00000000E+00  5.93193950E-02  3.61477695E-01  7.24566049E-01  0.00000000E+00
  1.64829212E-02  0.00000000E+00  0.00000000E+00  1.05868574E-04 -4.66884601E-02
 -8.00831408E-02  0.00000000E+00  0.00000000E+00  7.48961337E-03  1.83434211E-01
 -1.75111785E+00  1.91432608E+00 -9.55469205E-07  2.83513531E-01  0.00000000E+00
 -4.27313570E-01  2.15080874E-06 -6.51966187E-01  0.00000000E+00  7.27779950E-02
 -1.67688502E-06  4.61481458E-01  0.00000000E+00 -1.30489108E-01  1.30350642E-06
 -4.03924405E-01  0.00000000E+00  4.90044110E-02  0.00000000E+00  0.00000000E+00
  7.26700151E-03 -3.53225661E-06 -7.80046933E-02  0.00000000E+00  0.00000000E+00
 -2.02891840E-01  1.84054978E-06  8.58239110E-02 -6.53167711E-02  1.22741460E-01
 -4.68291768E-02  0.00000000E+00 -1.03218408E-01 -2.55727757E-01  8.62912837E-02
  0.00000000E+00  8.83662293E-02  4.62709433E-01 -8.66600967E-02  0.00000000E+00
 -2.55123514E-02 -3.85496657E-01  2.33087463E-01  0.00000000E+00  1.51180451E-02
  0.00000000E+00  0.00000000E+00  2.81526505E-02  2.54418273E-02 -2.72224949E-02
  0.00000000E+00  0.00000000E+00 -8.95609582E-02 -5.45871068E-02  8.58235148E-02
 -6.53164962E-02 -1.22746348E-01 -4.68377414E-02  0.00000000E+00 -1.03219381E-01
  2.55737519E-01  8.63097353E-02  0.00000000E+00  8.83683811E-02 -4.62717945E-01
 -8.66774328E-02  0.00000000E+00 -2.55122443E-02  3.85500125E-01  2.33102757E-01
  0.00000000E+00  1.51180390E-02  0.00000000E+00  0.00000000E+00  2.81528427E-02
 -2.54429853E-02 -2.72235891E-02  0.00000000E+00  0.00000000E+00 -8.95617222E-02
  5.45923338E-02 -3.22806153E-01  4.04591726E-01  8.15501672E-08 -3.65101610E-01
  0.00000000E+00 -3.10696984E-01  3.89900922E-06  9.76792193E-01  0.00000000E+00
 -2.97105097E-01 -7.98692013E-06 -1.03480359E+00  0.00000000E+00  2.10593788E-01
 -2.58452723E-06  9.44147848E-03  0.00000000E+00  1.73233224E-01  0.00000000E+00
  0.00000000E+00 -3.47639083E-02 -3.77440822E-06 -2.48651711E-01  0.00000000E+00
  0.00000000E+00  1.94751530E-01  1.60687663E-06 -1.30509889E+00  1.31159125E+00
  3.49118136E-02 -1.12075840E-01  0.00000000E+00  1.00959430E-02 -6.33304942E-02
  2.56869543E-01  0.00000000E+00 -3.05460327E-01 -1.50100689E-01 -3.14791828E-01
  0.00000000E+00  1.31720696E-01 -3.36733078E-02  4.97372091E-01  0.00000000E+00
  2.83248073E-02  0.00000000E+00  0.00000000E+00 -5.00896326E-02  6.04984870E-02
 -9.70568621E-02  0.00000000E+00  0.00000000E+00  1.58914685E-01 -1.92716945E-01
 -1.30509809E+00  1.31159046E+00 -3.49161486E-02 -1.12078905E-01  0.00000000E+00
  1.00946172E-02  6.33408223E-02  2.56877005E-01  0.00000000E+00 -3.05457346E-01
  1.50094355E-01 -3.14801666E-01  0.00000000E+00  1.31716783E-01  3.36857750E-02
  4.97381257E-01  0.00000000E+00  2.83248721E-02  0.00000000E+00  0.00000000E+00
 -5.00912489E-02 -6.04977591E-02 -9.70581327E-02  0.00000000E+00  0.00000000E+00
  1.58920527E-01  1.92716345E-01 -3.43084567E-07  4.15145123E-07 -3.59026879E-02
  2.13991101E-08  0.00000000E+00  1.38729746E-06 -1.32832012E-02 -7.84693052E-07
  0.00000000E+00  1.06215305E-06  2.03422418E-01  1.58754449E-06  0.00000000E+00
 -2.02731530E-06 -1.00716922E-01  1.29147864E-06  0.00000000E+00 -1.88115903E-07
  0.00000000E+00  0.00000000E+00  3.72284807E-07  6.11826675E-02  1.37117882E-06
  0.00000000E+00  0.00000000E+00 -2.11337336E-06 -2.16042981E-01 -1.62091498E+00
  1.68652175E+00 -3.13153492E-02 -1.35742568E-03  0.00000000E+00 -2.32810270E-01
  8.53436925E-02 -3.42435842E-03  0.00000000E+00 -2.07444374E-02 -7.17262913E-02
 -2.79095820E-02  0.00000000E+00  1.02594153E-01 -3.06306989E-02  3.20473353E-02
  0.00000000E+00  1.90149822E-02  0.00000000E+00  0.00000000E+00 -9.35939801E-03
  1.04413914E-02 -4.74310340E-02  0.00000000E+00  0.00000000E+00  2.01817258E-02
 -2.56953272E-02  1.62091285E+00 -1.68651952E+00 -3.13153739E-02  1.35786301E-03
  0.00000000E+00  2.32810553E-01  8.53440378E-02  3.42336657E-03  0.00000000E+00
  2.07466363E-02 -7.17281896E-02  2.79093589E-02  0.00000000E+00 -1.02593575E-01
 -3.06316897E-02 -3.20494343E-02  0.00000000E+00 -1.90152780E-02  0.00000000E+00
  0.00000000E+00  9.35972340E-03  1.04417679E-02  4.74321239E-02  0.00000000E+00
  0.00000000E+00 -2.01827200E-02 -2.56968669E-02 -3.50329970E-01  4.56711687E-01
  6.16875864E-08 -5.35852409E-01  0.00000000E+00 -3.92969145E-01  3.62692724E-06
  1.43025302E+00  0.00000000E+00 -4.99356374E-01 -8.25096481E-06 -1.25556140E+00
  0.00000000E+00  5.37110680E-01 -3.92245340E-06 -6.49654399E-02  0.00000000E+00
  2.08251794E-01  0.00000000E+00  0.00000000E+00 -5.37619952E-02 -4.87101549E-06
 -2.06434868E-01  0.00000000E+00  0.00000000E+00  3.16067179E-01  6.14798784E-07
  9.74476914E-01 -1.05862733E+00  1.53453357E-02 -1.33790123E-01  0.00000000E+00
  3.05634388E-01 -1.10176457E-02  3.13198824E-01  0.00000000E+00 -4.15812225E-01
 -4.09346067E-01 -3.64322314E-01  0.00000000E+00  3.43515534E-02  7.67164382E-02
  5.74400034E-01  0.00000000E+00  3.99635715E-02  0.00000000E+00  0.00000000E+00
 -7.68004515E-02  7.10942725E-02 -1.40555449E-01  0.00000000E+00  0.00000000E+00
  2.45142553E-01 -2.38908957E-01  9.74481125E-01 -1.05863185E+00 -1.53519054E-02
 -1.33795220E-01  0.00000000E+00  3.05634479E-01  1.10338421E-02  3.13211560E-01
  0.00000000E+00 -4.15807409E-01  4.09333690E-01 -3.64342184E-01  0.00000000E+00
  3.43449486E-02 -7.66997692E-02  5.74415836E-01  0.00000000E+00  3.99632188E-02
  0.00000000E+00  0.00000000E+00 -7.68023015E-02 -7.10925409E-02 -1.40555946E-01
  0.00000000E+00  0.00000000E+00  2.45149814E-01  2.38905830E-01 -2.11806996E-02
  3.57577498E-02 -3.24836692E-06  6.93318885E-02  0.00000000E+00 -5.16661986E-02
  7.22930566E-06 -2.68810943E-01  0.00000000E+00  7.26757236E-01 -5.05170838E-06
  1.47675757E+00  0.00000000E+00 -6.94841877E-01 -9.72895072E-06 -4.75957549E-01
  0.00000000E+00 -9.14865693E-02  0.00000000E+00  0.00000000E+00 -2.01052569E-01
 -5.05477022E-07  1.46202341E-01  0.00000000E+00  0.00000000E+00  1.63043653E+00
 -1.79244535E-05 -2.34305443E-02  3.20645388E-02 -1.29796376E-01 -2.04738442E-01
  0.00000000E+00 -5.06875176E-02  3.41911022E-01  5.29596477E-01  0.00000000E+00
  1.35417343E-01 -9.25741348E-01 -1.50728761E+00  0.00000000E+00  1.19876577E-01
  4.22593204E-01  2.71580641E-01  0.00000000E+00 -3.22507715E-02  0.00000000E+00
  0.00000000E+00 -1.42165054E-01 -6.82439321E-02  8.33344958E-02  0.00000000E+00
  0.00000000E+00  4.47239401E-01  2.18653260E-01 -2.34311424E-02  3.20653488E-02
  1.29792484E-01 -2.04737547E-01  0.00000000E+00 -5.06898021E-02 -3.41901238E-01
  5.29593566E-01  0.00000000E+00  1.35421389E-01  9.25733327E-01 -1.50728812E+00
  0.00000000E+00  1.19886568E-01 -4.22562185E-01  2.71559792E-01  0.00000000E+00
 -3.22494947E-02  0.00000000E+00  0.00000000E+00 -1.42165085E-01  6.82449552E-02
  8.33303646E-02  0.00000000E+00  0.00000000E+00  4.47239568E-01 -2.18656082E-01
  3.86583439E-06 -6.44503726E-06 -5.94936190E-01  7.50256270E-06  0.00000000E+00
  7.48449819E-06  2.24334109E+00 -2.01343810E-05  0.00000000E+00 -1.98656489E-05
 -1.96147445E+00 -5.58484771E-06  0.00000000E+00  2.45313302E-05  1.78627402E-01
 -1.16332385E-05  0.00000000E+00  3.14309772E-06  0.00000000E+00  0.00000000E+00
 -3.36939007E-06 -4.41654947E-01 -1.09201643E-05  0.00000000E+00  0.00000000E+00
 -7.00874688E-06  2.70192818E-01 -7.29640334E-02  1.21608274E-01 -5.46219457E-02
 -7.47798056E-02  0.00000000E+00 -1.52452592E-01  9.85402206E-02  2.40580064E-01
  0.00000000E+00  4.95138102E-01  4.45660159E-01 -1.01558288E+00  0.00000000E+00
 -7.64493655E-01  6.94592904E-01  1.06038373E+00  0.00000000E+00 -9.98363027E-02
  0.00000000E+00  0.00000000E+00  2.43699461E-02 -1.24176684E-01  3.44227275E-01
  0.00000000E+00  0.00000000E+00 -7.56264994E-02  4.65201456E-01  7.29676689E-02
 -1.21614052E-01 -5.46276538E-02  7.47764213E-02  0.00000000E+00  1.52464061E-01
  9.85575812E-02 -2.40569179E-01  0.00000000E+00 -4.95156828E-01  4.45629562E-01
  1.01557372E+00  0.00000000E+00  7.64472930E-01  6.94617438E-01 -1.06036481E+00
  0.00000000E+00  9.98350487E-02  0.00000000E+00  0.00000000E+00 -2.43684434E-02
 -1.24174599E-01 -3.44225428E-01  0.00000000E+00  0.00000000E+00  7.56229907E-02
  4.65199546E-01 -3.50017462E-06  5.87380789E-06  3.73428261E-02 -5.22829352E-07
  0.00000000E+00 -8.27265272E-06 -4.00245757E-01  3.34240526E-06  0.00000000E+00
  7.58731456E-06  2.80869866E-01 -6.75613846E-07  0.00000000E+00 -6.93661129E-06
 -1.88292452E+00  1.82049006E-05  0.00000000E+00  7.21240978E-07  0.00000000E+00
  0.00000000E+00  1.03322046E-06  1.08902977E-01  3.32566883E-06  0.00000000E+00
  0.00000000E+00 -1.18865280E-05 -9.64509317E-02  6.65454348E-02 -1.16898555E-01
 -2.42795413E-01 -8.49470841E-02  0.00000000E+00  2.58663665E-01  6.78152199E-01
  2.16067639E-01  0.00000000E+00 -7.10429054E-01 -1.40513148E+00 -3.21601861E-01
  0.00000000E+00  5.98824421E-01  1.91074605E+00  7.10006946E-01  0.00000000E+00
  3.75173176E-02  0.00000000E+00  0.00000000E+00 -2.30986855E-02  3.73346377E-02
 -1.12704999E-01  0.00000000E+00  0.00000000E+00  6.12550224E-02 -1.24209544E-01
 -6.65461902E-02  1.16899827E-01 -2.42794730E-01  8.49536458E-02  0.00000000E+00
 -2.58666470E-01  6.78150054E-01 -2.16086265E-01  0.00000000E+00  7.10435533E-01
 -1.40513131E+00  3.21645734E-01  0.00000000E+00 -5.98816243E-01  1.91073996E+00
 -7.10046975E-01  0.00000000E+00 -3.75163619E-02  0.00000000E+00  0.00000000E+00
  2.31008713E-02  3.73323682E-02  1.12702737E-01  0.00000000E+00  0.00000000E+00
 -6.12622055E-02 -1.24203650E-01  4.17988953E-01 -7.70146869E-01  2.12068808E-06
  1.65151619E-01  0.00000000E+00  2.10634522E+00 -3.07815558E-05 -1.04379710E+00
  0.00000000E+00 -1.44876171E+00  3.19565705E-05 -4.99494908E-02  0.00000000E+00
  1.85118498E+00 -2.11927733E-05 -1.17711241E+00  0.00000000E+00 -1.03017612E-01
  0.00000000E+00  0.00000000E+00  6.91778004E-02  8.92906387E-06 -2.99845945E-01
  0.00000000E+00  0.00000000E+00  1.35431913E-01 -1.84554791E-05 -4.72581249E-03
  1.23600375E-02  5.53984525E-02 -1.06252766E-01  0.00000000E+00  3.57088186E-02
 -2.05784585E-01  3.36617750E-01  0.00000000E+00 -1.96272158E-01  1.02000748E+00
 -1.14034003E+00  0.00000000E+00 -1.18351155E+00 -6.90056232E-01  9.67523601E-01
  0.00000000E+00 -6.61841668E-02  0.00000000E+00  0.00000000E+00  2.96674080E-02
 -1.27890957E-01  2.26583652E-01  0.00000000E+00  0.00000000E+00 -1.08599123E-01
  4.17647471E-01 -4.72859398E-03  1.23657574E-02 -5.53989584E-02 -1.06251612E-01
  0.00000000E+00  3.56965419E-02  2.05788795E-01  3.36616021E-01  0.00000000E+00
 -1.96230645E-01 -1.02004400E+00 -1.14035167E+00  0.00000000E+00 -1.18355400E+00
  6.90066716E-01  9.67537315E-01  0.00000000E+00 -6.61883682E-02  0.00000000E+00
  0.00000000E+00  2.96708630E-02  1.27894644E-01  2.26598551E-01  0.00000000E+00
  0.00000000E+00 -1.08610772E-01 -4.17662457E-01 -2.17555624E-01  4.65383630E-01
  8.17990998E-06 -3.11329431E-01  0.00000000E+00 -1.25820693E+00 -1.89326899E-05
  1.56654503E+00  0.00000000E+00 -1.63066495E-01 -2.66624460E-05  3.44651796E-01
  0.00000000E+00  2.29598869E+00  6.70995678E-06 -7.91428652E-01  0.00000000E+00
  1.17348367E-01  0.00000000E+00  0.00000000E+00 -8.09195964E-02 -1.10814668E-06
  7.01244551E-01  0.00000000E+00  0.00000000E+00 -1.25719964E-02  3.34560296E-05
 -8.78386024E-02  2.32527096E-01  2.45683498E-02 -1.78692312E-02  0.00000000E+00
 -1.09455914E+00 -5.60206846E-03  1.97499868E-02  0.00000000E+00  3.53871101E+00
 -1.11925984E+00  5.63177122E-01  0.00000000E+00 -2.82688628E+00  6.11995505E-01
 -4.14041548E-01  0.00000000E+00  6.23192710E-02  0.00000000E+00  0.00000000E+00
 -4.69665819E-02  7.21633184E-02 -2.43962089E-01  0.00000000E+00  0.00000000E+00
  1.90120845E-01 -2.91239355E-01 -8.78359365E-02  2.32519932E-01 -2.45710677E-02
 -1.78699326E-02  0.00000000E+00 -1.09452753E+00  5.61049565E-03  1.97534420E-02
  0.00000000E+00  3.53859621E+00  1.11922172E+00  5.63134768E-01  0.00000000E+00
 -2.82682108E+00 -6.11959141E-01 -4.14027589E-01  0.00000000E+00  6.23194856E-02
  0.00000000E+00  0.00000000E+00 -4.69676845E-02 -7.21597698E-02 -2.43962316E-01
  0.00000000E+00  0.00000000E+00  1.90125988E-01  2.91226309E-01 -7.15838311E-06
  1.61283321E-05 -6.52406877E-01 -6.67648647E-07  0.00000000E+00 -7.34791394E-05
  3.38713582E+00  2.99709900E-05  0.00000000E+00  3.36776439E-05  1.62872286E+00
 -1.48335756E-05  0.00000000E+00  3.48877429E-05 -3.56516470E-01 -5.20431183E-06
  0.00000000E+00  5.95295544E-06  0.00000000E+00  0.00000000E+00 -5.57114970E-06
 -3.19562214E-01  7.89904983E-06  0.00000000E+00  0.00000000E+00 -2.24373298E-05
 -2.32224238E+00  6.58014327E-02 -1.86507471E-01 -2.22266570E-02  5.55671515E-02
  0.00000000E+00  1.07251291E+00  1.26877903E-02 -1.13096575E-01  0.00000000E+00
 -4.93317975E+00  2.10631527E+00 -1.49251578E+00  0.00000000E+00  2.34293161E+00
 -1.49056262E+00  4.22110960E-01  0.00000000E+00 -5.90527181E-02  0.00000000E+00
  0.00000000E+00  2.65342774E-02 -1.63553623E-01  2.94467914E-01  0.00000000E+00
  0.00000000E+00 -1.16206107E-01  7.07415942E-01 -6.58025491E-02  1.86510676E-01
 -2.22316330E-02 -5.55707268E-02  0.00000000E+00 -1.07253466E+00  1.27026109E-02
  1.13108078E-01  0.00000000E+00  4.93331861E+00  2.10636239E+00  1.49252596E+00
  0.00000000E+00 -2.34304404E+00 -1.49059881E+00 -4.22122552E-01  0.00000000E+00
  5.90541472E-02  0.00000000E+00  0.00000000E+00 -2.65376453E-02 -1.63556226E-01
 -2.94477004E-01  0.00000000E+00  0.00000000E+00  1.16221407E-01  7.07431901E-01
  5.57608408E-07 -1.84941892E-06  1.17173005E-01 -9.91163876E-06  0.00000000E+00
  6.08580222E-05 -8.39172592E-01  5.05929418E-05  0.00000000E+00 -5.27232673E-04
 -8.93128504E+00  2.63492350E-04  0.00000000E+00 -6.93319596E-05 -1.82932706E-01
  4.58974944E-06  0.00000000E+00 -4.54576206E-06  0.00000000E+00  0.00000000E+00
 -2.97213800E-06 -1.52234705E-01  7.41624400E-05  0.00000000E+00  0.00000000E+00
  1.37846101E-05  2.61229661E+00  5.48248761E-04 -4.33805207E-03  1.88703394E-02
  9.48586345E-03  0.00000000E+00 -7.26723106E-02 -6.86517369E-02 -3.57335809E-02
  0.00000000E+00  2.26892419E+00 -1.35104537E+00  1.33796614E+00  0.00000000E+00
  9.54088685E+00 -3.20784536E+00  2.28372373E+00  0.00000000E+00  3.35780003E-02
  0.00000000E+00  0.00000000E+00 -1.52455102E-02  7.46005246E-02 -1.36771370E-01
  0.00000000E+00  0.00000000E+00  7.40681434E-02 -3.08113708E-01 -5.50940777E-04
  4.34594140E-03  1.88729945E-02 -9.48488336E-03  0.00000000E+00  7.26190272E-02
 -6.86665382E-02  3.57282886E-02  0.00000000E+00 -2.26866809E+00 -1.35086791E+00
 -1.33786140E+00  0.00000000E+00 -9.54047947E+00 -3.20774916E+00 -2.28361098E+00
  0.00000000E+00 -3.35720125E-02  0.00000000E+00  0.00000000E+00  1.52418825E-02
  7.45932245E-02  1.36746853E-01  0.00000000E+00  0.00000000E+00 -7.40541856E-02
 -3.08085209E-01  4.93631699E-03  1.85357254E-03  9.84026313E-06  2.60451612E-01
  0.00000000E+00 -1.23432610E+00 -8.42630008E-05 -1.54620415E+00  0.00000000E+00
  1.68216566E+01 -4.47408756E-04 -6.16551905E+00  0.00000000E+00  1.98348773E+00
 -5.24125076E-06 -6.50156994E-02  0.00000000E+00  6.50983632E-02  0.00000000E+00
  0.00000000E+00  4.90548573E-02 -1.71956384E-06 -1.88139529E+00  0.00000000E+00
  0.00000000E+00  3.00456774E-01  1.26580991E-04  3.29193668E-02 -9.75384941E-02
  2.59877455E-02 -1.34532627E-02  0.00000000E+00  6.67126244E-01 -1.49925192E-01
  6.59407157E-02  0.00000000E+00 -3.98113495E+00  2.44271024E+00 -1.34853863E+00
  0.00000000E+00 -6.45125589E+00  1.69646648E+00 -1.31217974E+00  0.00000000E+00
 -6.61010298E-02  0.00000000E+00  0.00000000E+00  5.40316331E-02 -8.42736730E-02
  2.76221167E-01  0.00000000E+00  0.00000000E+00 -2.14684921E-01  3.35741302E-01
  3.29199805E-02 -9.75400334E-02 -2.59840635E-02 -1.34520069E-02  0.00000000E+00
  6.67147569E-01  1.49913353E-01  6.59371189E-02  0.00000000E+00 -3.98145646E+00
 -2.44287640E+00 -1.34865993E+00  0.00000000E+00 -6.45215620E+00 -1.69676569E+00
 -1.31237041E+00  0.00000000E+00 -6.61051192E-02  0.00000000E+00  0.00000000E+00
  5.40344953E-02  8.42802787E-02  2.76239550E-01  0.00000000E+00  0.00000000E+00
 -2.14698689E-01 -3.35771761E-01  0.00000000E+00  0.00000000E+00  0.00000000E+00
  0.00000000E+00  7.35829468E-02  0.00000000E+00  0.00000000E+00  0.00000000E+00
  1.53402543E-01  0.00000000E+00  0.00000000E+00  0.00000000E+00  2.14807251E-01
  0.00000000E+00  0.00000000E+00  0.00000000E+00  1.70804312E-01  0.00000000E+00
 -4.63897612E-07 -2.98218504E-02  0.00000000E+00  0.00000000E+00  0.00000000E+00
 -8.28417006E-07 -7.64058207E-02  0.00000000E+00  0.00000000E+00  0.00000000E+00
  0.00000000E+00  0.00000000E+00  0.00000000E+00  3.55047719E-02  0.00000000E+00
  0.00000000E+00  0.00000000E+00  8.06569121E-02  0.00000000E+00  0.00000000E+00
  0.00000000E+00  1.53246143E-01  0.00000000E+00  0.00000000E+00  0.00000000E+00
  1.88481546E-01  0.00000000E+00 -8.66656109E-03  4.28850026E-03  0.00000000E+00
  0.00000000E+00  0.00000000E+00 -3.24424079E-02  1.56755679E-02  0.00000000E+00
  0.00000000E+00  0.00000000E+00  0.00000000E+00  0.00000000E+00  0.00000000E+00
  3.55050953E-02  0.00000000E+00  0.00000000E+00  0.00000000E+00  8.06576295E-02
  0.00000000E+00  0.00000000E+00  0.00000000E+00  1.53247136E-01  0.00000000E+00
  0.00000000E+00  0.00000000E+00  1.88482166E-01  0.00000000E+00  8.66671006E-03
  4.28850601E-03  0.00000000E+00  0.00000000E+00  0.00000000E+00  3.24428757E-02
  1.56755327E-02  0.00000000E+00  0.00000000E+00  0.00000000E+00  0.00000000E+00
  0.00000000E+00  0.00000000E+00 -5.46293799E-07  0.00000000E+00  0.00000000E+00
  0.00000000E+00 -6.12957287E-07  0.00000000E+00  0.00000000E+00  0.00000000E+00
  5.02969508E-07  0.00000000E+00  0.00000000E+00  0.00000000E+00  1.07456587E-06
  0.00000000E+00  1.69366896E-01 -1.33318992E-07  0.00000000E+00  0.00000000E+00
  0.00000000E+00  3.18043280E-01 -1.06350003E-06  0.00000000E+00  0.00000000E+00
  0.00000000E+00  0.00000000E+00  0.00000000E+00  0.00000000E+00  1.29924992E-01
  0.00000000E+00  0.00000000E+00  0.00000000E+00  2.10627787E-01  0.00000000E+00
  0.00000000E+00  0.00000000E+00  2.25719457E-01  0.00000000E+00  0.00000000E+00
  0.00000000E+00  1.20678903E-01  0.00000000E+00 -1.55746681E-02  2.96585848E-02
  0.00000000E+00  0.00000000E+00  0.00000000E+00 -3.17737418E-02  6.81669943E-02
  0.00000000E+00  0.00000000E+00  0.00000000E+00  0.00000000E+00  0.00000000E+00
  0.00000000E+00 -1.29924934E-01  0.00000000E+00  0.00000000E+00  0.00000000E+00
 -2.10627647E-01  0.00000000E+00  0.00000000E+00  0.00000000E+00 -2.25718307E-01
  0.00000000E+00  0.00000000E+00  0.00000000E+00 -1.20676491E-01  0.00000000E+00
 -1.55750528E-02 -2.96589002E-02  0.00000000E+00  0.00000000E+00  0.00000000E+00
 -3.17744526E-02 -6.81676298E-02  0.00000000E+00  0.00000000E+00  0.00000000E+00
  0.00000000E+00  0.00000000E+00  0.00000000E+00  1.36519030E-01  0.00000000E+00
  0.00000000E+00  0.00000000E+00  1.52802203E-01  0.00000000E+00  0.00000000E+00
  0.00000000E+00  1.67657438E-01  0.00000000E+00  0.00000000E+00  0.00000000E+00
  1.69657113E-01  0.00000000E+00  2.13328130E-06  2.68908917E-01  0.00000000E+00
  0.00000000E+00  0.00000000E+00  1.85385908E-06  3.70653820E-01  0.00000000E+00
  0.00000000E+00  0.00000000E+00  0.00000000E+00  0.00000000E+00  0.00000000E+00
 -1.82811985E-01  0.00000000E+00  0.00000000E+00  0.00000000E+00 -2.16404915E-01
  0.00000000E+00  0.00000000E+00  0.00000000E+00 -1.05793130E-01  0.00000000E+00
  0.00000000E+00  0.00000000E+00  6.63882808E-02  0.00000000E+00  7.19988068E-02
  2.37392938E-02  0.00000000E+00  0.00000000E+00  0.00000000E+00  1.10399541E-01
  4.33279970E-02  0.00000000E+00  0.00000000E+00  0.00000000E+00  0.00000000E+00
  0.00000000E+00  0.00000000E+00 -1.82811622E-01  0.00000000E+00  0.00000000E+00
  0.00000000E+00 -2.16404447E-01  0.00000000E+00  0.00000000E+00  0.00000000E+00
 -1.05791930E-01  0.00000000E+00  0.00000000E+00  0.00000000E+00  6.63895893E-02
  0.00000000E+00 -7.19998308E-02  2.37404822E-02  0.00000000E+00  0.00000000E+00
  0.00000000E+00 -1.10400888E-01  4.33300030E-02  0.00000000E+00  0.00000000E+00
  0.00000000E+00  0.00000000E+00  0.00000000E+00  0.00000000E+00  2.56451789E-01
  0.00000000E+00  0.00000000E+00  0.00000000E+00  2.53250346E-01  0.00000000E+00
  0.00000000E+00  0.00000000E+00  1.63047623E-02  0.00000000E+00  0.00000000E+00
  0.00000000E+00 -1.09507158E-01  0.00000000E+00 -3.26018810E-06 -1.70557471E-01
  0.00000000E+00  0.00000000E+00  0.00000000E+00  2.24387452E-08 -1.14176188E-01
  0.00000000E+00  0.00000000E+00  0.00000000E+00  0.00000000E+00  0.00000000E+00
  0.00000000E+00 -1.21761853E-01  0.00000000E+00  0.00000000E+00  0.00000000E+00
 -1.27499362E-01  0.00000000E+00  0.00000000E+00  0.00000000E+00 -6.97211459E-02
  0.00000000E+00  0.00000000E+00  0.00000000E+00 -8.87497983E-02  0.00000000E+00
 -2.02085738E-01  1.13255301E-01  0.00000000E+00  0.00000000E+00  0.00000000E+00
 -2.82033025E-01  1.57482117E-01  0.00000000E+00  0.00000000E+00  0.00000000E+00
  0.00000000E+00  0.00000000E+00  0.00000000E+00 -1.21765512E-01  0.00000000E+00
  0.00000000E+00  0.00000000E+00 -1.27503169E-01  0.00000000E+00  0.00000000E+00
  0.00000000E+00 -6.97237483E-02  0.00000000E+00  0.00000000E+00  0.00000000E+00
 -8.87515423E-02  0.00000000E+00  2.02092087E-01  1.13256673E-01  0.00000000E+00
  0.00000000E+00  0.00000000E+00  2.82041660E-01  1.57483910E-01  0.00000000E+00
  0.00000000E+00  0.00000000E+00  0.00000000E+00  0.00000000E+00  0.00000000E+00
  4.18037249E-07  0.00000000E+00  0.00000000E+00  0.00000000E+00  8.73309621E-07
  0.00000000E+00  0.00000000E+00  0.00000000E+00  5.93507118E-07  0.00000000E+00
  0.00000000E+00  0.00000000E+00  1.09069802E-07  0.00000000E+00  2.64395611E-01
 -3.80656518E-06  0.00000000E+00  0.00000000E+00  0.00000000E+00  1.76564732E-01
 -4.50661032E-06  0.00000000E+00  0.00000000E+00  0.00000000E+00  0.00000000E+00
  0.00000000E+00  0.00000000E+00 -1.76132746E-01  0.00000000E+00  0.00000000E+00
  0.00000000E+00 -1.75138910E-01  0.00000000E+00  0.00000000E+00  0.00000000E+00
 -8.67794341E-02  0.00000000E+00  0.00000000E+00  0.00000000E+00 -3.81555898E-02
  0.00000000E+00 -1.67022017E-01  2.08112640E-01  0.00000000E+00  0.00000000E+00
  0.00000000E+00 -2.10421698E-01  2.64601419E-01  0.00000000E+00  0.00000000E+00
  0.00000000E+00  0.00000000E+00  0.00000000E+00  0.00000000E+00  1.76126731E-01
  0.00000000E+00  0.00000000E+00  0.00000000E+00  1.75132887E-01  0.00000000E+00
  0.00000000E+00  0.00000000E+00  8.67776191E-02  0.00000000E+00  0.00000000E+00
  0.00000000E+00  3.81557606E-02  0.00000000E+00 -1.67016936E-01 -2.08112461E-01
  0.00000000E+00  0.00000000E+00  0.00000000E+00 -2.10414977E-01 -2.64601073E-01
  0.00000000E+00  0.00000000E+00  0.00000000E+00  0.00000000E+00  0.00000000E+00
  0.00000000E+00  1.52597579E-01  0.00000000E+00  0.00000000E+00  0.00000000E+00
  1.37793045E-01  0.00000000E+00  0.00000000E+00  0.00000000E+00 -2.62361219E-02
  0.00000000E+00  0.00000000E+00  0.00000000E+00 -1.44920401E-01  0.00000000E+00
  1.98290408E-06  7.50270205E-02  0.00000000E+00  0.00000000E+00  0.00000000E+00
  1.82469574E-06  9.87669353E-02  0.00000000E+00  0.00000000E+00  0.00000000E+00
  0.00000000E+00  0.00000000E+00  0.00000000E+00  1.95986395E-01  0.00000000E+00
  0.00000000E+00  0.00000000E+00  1.72086447E-01  0.00000000E+00  0.00000000E+00
  0.00000000E+00  2.20272806E-02  0.00000000E+00  0.00000000E+00  0.00000000E+00
 -1.05543208E-01  0.00000000E+00  1.48788665E-01  2.81719193E-01  0.00000000E+00
  0.00000000E+00  0.00000000E+00  1.55409538E-01  3.00156588E-01  0.00000000E+00
  0.00000000E+00  0.00000000E+00  0.00000000E+00  0.00000000E+00  0.00000000E+00
  1.95987950E-01  0.00000000E+00  0.00000000E+00  0.00000000E+00  1.72087818E-01
  0.00000000E+00  0.00000000E+00  0.00000000E+00  2.20280068E-02  0.00000000E+00
  0.00000000E+00  0.00000000E+00 -1.05542833E-01  0.00000000E+00 -1.48791732E-01
  2.81715278E-01  0.00000000E+00  0.00000000E+00  0.00000000E+00 -1.55412631E-01
  3.00152499E-01  0.00000000E+00  0.00000000E+00  0.00000000E+00  0.00000000E+00
  0.00000000E+00  0.00000000E+00 -5.58173774E-07  0.00000000E+00  0.00000000E+00
  0.00000000E+00 -6.84647049E-07  0.00000000E+00  0.00000000E+00  0.00000000E+00
  9.05430654E-08  0.00000000E+00  0.00000000E+00  0.00000000E+00  8.84393312E-07
  0.00000000E+00 -3.42949574E-02 -5.74362116E-07  0.00000000E+00  0.00000000E+00
  0.00000000E+00  1.53843281E-02 -3.63514486E-08  0.00000000E+00  0.00000000E+00
  0.00000000E+00  0.00000000E+00  0.00000000E+00  0.00000000E+00 -3.63130652E-02
  0.00000000E+00  0.00000000E+00  0.00000000E+00 -3.09744810E-02  0.00000000E+00
  0.00000000E+00  0.00000000E+00  3.27230767E-03  0.00000000E+00  0.00000000E+00
  0.00000000E+00  1.98698526E-02  0.00000000E+00  3.31140653E-01  2.48213361E-01
  0.00000000E+00  0.00000000E+00  0.00000000E+00  3.28838097E-01  2.46558565E-01
  0.00000000E+00  0.00000000E+00  0.00000000E+00  0.00000000E+00  0.00000000E+00
  0.00000000E+00  3.63115462E-02  0.00000000E+00  0.00000000E+00  0.00000000E+00
  3.09732246E-02  0.00000000E+00  0.00000000E+00  0.00000000E+00 -3.27237630E-03
  0.00000000E+00  0.00000000E+00  0.00000000E+00 -1.98686695E-02  0.00000000E+00
  3.31133518E-01 -2.48215371E-01  0.00000000E+00  0.00000000E+00  0.00000000E+00
  3.28830960E-01 -2.46560577E-01  0.00000000E+00  0.00000000E+00  0.00000000E+00
  0.00000000E+00  0.00000000E+00  0.00000000E+00  3.66289594E-01  0.00000000E+00
  0.00000000E+00  0.00000000E+00  2.81319515E-01  0.00000000E+00  0.00000000E+00
  0.00000000E+00  5.23530322E-04  0.00000000E+00  0.00000000E+00  0.00000000E+00
 -1.78589848E-01  0.00000000E+00  3.09542968E-06  2.53264820E-01  0.00000000E+00
  0.00000000E+00  0.00000000E+00  2.04574757E-06  1.93497700E-01  0.00000000E+00
  0.00000000E+00  0.00000000E+00  0.00000000E+00  0.00000000E+00  0.00000000E+00
  1.91884894E-01  0.00000000E+00  0.00000000E+00  0.00000000E+00  1.44015569E-01
  0.00000000E+00  0.00000000E+00  0.00000000E+00 -6.84825227E-03  0.00000000E+00
  0.00000000E+00  0.00000000E+00 -1.29228099E-01  0.00000000E+00 -6.93474078E-02
 -2.55402631E-01  0.00000000E+00  0.00000000E+00  0.00000000E+00 -6.38859087E-02
 -2.09889883E-01  0.00000000E+00  0.00000000E+00  0.00000000E+00  0.00000000E+00
  0.00000000E+00  0.00000000E+00  1.91886115E-01  0.00000000E+00  0.00000000E+00
  0.00000000E+00  1.44016510E-01  0.00000000E+00  0.00000000E+00  0.00000000E+00
 -6.84776079E-03  0.00000000E+00  0.00000000E+00  0.00000000E+00 -1.29228076E-01
  0.00000000E+00  6.93473114E-02 -2.55405585E-01  0.00000000E+00  0.00000000E+00
  0.00000000E+00  6.38860975E-02 -2.09892265E-01  0.00000000E+00  0.00000000E+00
  0.00000000E+00  0.00000000E+00  0.00000000E+00  0.00000000E+00 -1.00507175E-05
  0.00000000E+00  0.00000000E+00  0.00000000E+00 -5.31869065E-06  0.00000000E+00
  0.00000000E+00  0.00000000E+00  1.93212759E-06  0.00000000E+00  0.00000000E+00
  0.00000000E+00  4.53076435E-06  0.00000000E+00 -2.97798918E-01  1.36422645E-05
  0.00000000E+00  0.00000000E+00  0.00000000E+00 -2.67006748E-01  9.27079679E-06
  0.00000000E+00  0.00000000E+00  0.00000000E+00  0.00000000E+00  0.00000000E+00
  0.00000000E+00  3.57431912E-01  0.00000000E+00  0.00000000E+00  0.00000000E+00
  1.97768237E-01  0.00000000E+00  0.00000000E+00  0.00000000E+00 -1.20422526E-01
  0.00000000E+00  0.00000000E+00  0.00000000E+00 -1.42776678E-01  0.00000000E+00
 -1.66017826E-01  2.74959427E-01  0.00000000E+00  0.00000000E+00  0.00000000E+00
 -9.45157540E-02  1.50407713E-01  0.00000000E+00  0.00000000E+00  0.00000000E+00
  0.00000000E+00  0.00000000E+00  0.00000000E+00 -3.57423354E-01  0.00000000E+00
  0.00000000E+00  0.00000000E+00 -1.97763724E-01  0.00000000E+00  0.00000000E+00
  0.00000000E+00  1.20419383E-01  0.00000000E+00  0.00000000E+00  0.00000000E+00
  1.42778679E-01  0.00000000E+00 -1.65995104E-01 -2.74951738E-01  0.00000000E+00
  0.00000000E+00  0.00000000E+00 -9.45039692E-02 -1.50403790E-01  0.00000000E+00
  0.00000000E+00  0.00000000E+00  0.00000000E+00  0.00000000E+00  0.00000000E+00
 -3.40658501E-01  0.00000000E+00  0.00000000E+00  0.00000000E+00 -1.68497753E-01
  0.00000000E+00  0.00000000E+00  0.00000000E+00  5.54866137E-02  0.00000000E+00
  0.00000000E+00  0.00000000E+00  1.53754251E-01  0.00000000E+00  7.14335998E-06
  3.72085553E-01  0.00000000E+00  0.00000000E+00  0.00000000E+00  9.07367259E-06
  2.68466668E-01  0.00000000E+00  0.00000000E+00  0.00000000E+00  0.00000000E+00
  0.00000000E+00  0.00000000E+00  1.76009816E-01  0.00000000E+00  0.00000000E+00
  0.00000000E+00  8.43144094E-02  0.00000000E+00  0.00000000E+00  0.00000000E+00
 -5.76559939E-02  0.00000000E+00  0.00000000E+00  0.00000000E+00  3.97127370E-02
  0.00000000E+00 -3.79382652E-01  1.47162749E-01  0.00000000E+00  0.00000000E+00
  0.00000000E+00 -1.69694716E-01  6.68569819E-02  0.00000000E+00  0.00000000E+00
  0.00000000E+00  0.00000000E+00  0.00000000E+00  0.00000000E+00  1.76036629E-01
  0.00000000E+00  0.00000000E+00  0.00000000E+00  8.43277714E-02  0.00000000E+00
  0.00000000E+00  0.00000000E+00 -5.76661237E-02  0.00000000E+00  0.00000000E+00
  0.00000000E+00  3.97020427E-02  0.00000000E+00  3.79397472E-01  1.47174726E-01
  0.00000000E+00  0.00000000E+00  0.00000000E+00  1.69702087E-01  6.68628179E-02
  0.00000000E+00  0.00000000E+00  0.00000000E+00  0.00000000E+00  0.00000000E+00
  0.00000000E+00 -2.73626180E-06  0.00000000E+00  0.00000000E+00  0.00000000E+00
 -4.27882014E-07  0.00000000E+00  0.00000000E+00  0.00000000E+00  1.45389711E-06
  0.00000000E+00  0.00000000E+00  0.00000000E+00  1.51662534E-06  0.00000000E+00
  6.85506898E-01 -3.89702161E-06  0.00000000E+00  0.00000000E+00  0.00000000E+00
 -2.45815008E-02  5.74275437E-07  0.00000000E+00  0.00000000E+00  0.00000000E+00
  0.00000000E+00  0.00000000E+00  0.00000000E+00  2.87145208E-01  0.00000000E+00
  0.00000000E+00  0.00000000E+00  4.24643693E-02  0.00000000E+00  0.00000000E+00
  0.00000000E+00 -2.68682273E-01  0.00000000E+00  0.00000000E+00  0.00000000E+00
 -2.78189792E-01  0.00000000E+00  2.45301092E-01 -1.87510275E-01  0.00000000E+00
  0.00000000E+00  0.00000000E+00 -3.64851136E-02  3.00288797E-02  0.00000000E+00
  0.00000000E+00  0.00000000E+00  0.00000000E+00  0.00000000E+00  0.00000000E+00
 -2.87139748E-01  0.00000000E+00  0.00000000E+00  0.00000000E+00 -4.24639623E-02
  0.00000000E+00  0.00000000E+00  0.00000000E+00  2.68679046E-01  0.00000000E+00
  0.00000000E+00  0.00000000E+00  2.78188682E-01  0.00000000E+00  2.45307200E-01
  1.87512988E-01  0.00000000E+00  0.00000000E+00  0.00000000E+00 -3.64853062E-02
 -3.00287469E-02  0.00000000E+00  0.00000000E+00  0.00000000E+00  0.00000000E+00
  0.00000000E+00  0.00000000E+00  5.16398123E-03  0.00000000E+00  0.00000000E+00
  0.00000000E+00 -2.42839596E-03  0.00000000E+00  0.00000000E+00  0.00000000E+00
 -1.33974331E-01  0.00000000E+00  0.00000000E+00  0.00000000E+00 -4.29144661E-01
  0.00000000E+00  4.49361324E-06  6.72676670E-01  0.00000000E+00  0.00000000E+00
  0.00000000E+00 -3.03318338E-06 -3.39594483E-01  0.00000000E+00  0.00000000E+00
  0.00000000E+00  0.00000000E+00  0.00000000E+00  0.00000000E+00 -3.81080969E-01
  0.00000000E+00  0.00000000E+00  0.00000000E+00  6.73442843E-02  0.00000000E+00
  0.00000000E+00  0.00000000E+00  3.49293996E-01  0.00000000E+00  0.00000000E+00
  0.00000000E+00  2.43885650E-02  0.00000000E+00 -7.29686387E-02  1.80677495E-01
  0.00000000E+00  0.00000000E+00  0.00000000E+00  5.19855380E-02 -1.05573583E-01
  0.00000000E+00  0.00000000E+00  0.00000000E+00  0.00000000E+00  0.00000000E+00
  0.00000000E+00 -3.81081322E-01  0.00000000E+00  0.00000000E+00  0.00000000E+00
  6.73440193E-02  0.00000000E+00  0.00000000E+00  0.00000000E+00  3.49294631E-01
  0.00000000E+00  0.00000000E+00  0.00000000E+00  2.43883008E-02  0.00000000E+00
  7.29762679E-02  1.80680332E-01  0.00000000E+00  0.00000000E+00  0.00000000E+00
 -5.19895665E-02 -1.05574757E-01  0.00000000E+00  0.00000000E+00  0.00000000E+00
  0.00000000E+00  0.00000000E+00  0.00000000E+00  3.58782148E-01  0.00000000E+00
  0.00000000E+00  0.00000000E+00 -1.54364605E-01  0.00000000E+00  0.00000000E+00
  0.00000000E+00 -1.68725852E-01  0.00000000E+00  0.00000000E+00  0.00000000E+00
  3.01172839E-01  0.00000000E+00  9.63314060E-07  1.43320151E-01  0.00000000E+00
  0.00000000E+00  0.00000000E+00 -1.77551110E-06 -1.94080960E-01  0.00000000E+00
  0.00000000E+00  0.00000000E+00  0.00000000E+00  0.00000000E+00  0.00000000E+00
  2.01706556E-01  0.00000000E+00  0.00000000E+00  0.00000000E+00 -1.05998495E-01
  0.00000000E+00  0.00000000E+00  0.00000000E+00 -1.79629193E-01  0.00000000E+00
  0.00000000E+00  0.00000000E+00  7.74472931E-02  0.00000000E+00  2.51584779E-01
  5.22047831E-01  0.00000000E+00  0.00000000E+00  0.00000000E+00 -2.40823520E-01
 -4.96939101E-01  0.00000000E+00  0.00000000E+00  0.00000000E+00  0.00000000E+00
  0.00000000E+00  0.00000000E+00  2.01706028E-01  0.00000000E+00  0.00000000E+00
  0.00000000E+00 -1.05998229E-01  0.00000000E+00  0.00000000E+00  0.00000000E+00
 -1.79629131E-01  0.00000000E+00  0.00000000E+00  0.00000000E+00  7.74463796E-02
  0.00000000E+00 -2.51585368E-01  5.22046085E-01  0.00000000E+00  0.00000000E+00
  0.00000000E+00  2.40824212E-01 -4.96937270E-01  0.00000000E+00  0.00000000E+00
  0.00000000E+00  0.00000000E+00  0.00000000E+00  0.00000000E+00  5.88953794E-05
  0.00000000E+00  0.00000000E+00  0.00000000E+00 -2.52398738E-05  0.00000000E+00
  0.00000000E+00  0.00000000E+00 -2.66343966E-05  0.00000000E+00  0.00000000E+00
  0.00000000E+00  1.58424774E-05  0.00000000E+00  2.79541010E-01 -4.15515019E-05
  0.00000000E+00  0.00000000E+00  0.00000000E+00 -1.99701206E-01  1.23940005E-05
  0.00000000E+00  0.00000000E+00  0.00000000E+00  0.00000000E+00  0.00000000E+00
  0.00000000E+00 -9.18404538E-02  0.00000000E+00  0.00000000E+00  0.00000000E+00
  5.55589427E-02  0.00000000E+00  0.00000000E+00  0.00000000E+00  9.52141710E-02
  0.00000000E+00  0.00000000E+00  0.00000000E+00  2.84644823E-02  0.00000000E+00
  3.00346168E-01  5.78270734E-01  0.00000000E+00  0.00000000E+00  0.00000000E+00
 -3.01866557E-01 -5.67361970E-01  0.00000000E+00  0.00000000E+00  0.00000000E+00
  0.00000000E+00  0.00000000E+00  0.00000000E+00  9.18296222E-02  0.00000000E+00
  0.00000000E+00  0.00000000E+00 -5.55519506E-02  0.00000000E+00  0.00000000E+00
  0.00000000E+00 -9.52007622E-02  0.00000000E+00  0.00000000E+00  0.00000000E+00
 -2.84480306E-02  0.00000000E+00  3.00458105E-01 -5.78240201E-01  0.00000000E+00
  0.00000000E+00  0.00000000E+00 -3.01975040E-01  5.67333328E-01  0.00000000E+00
  0.00000000E+00  0.00000000E+00  0.00000000E+00  0.00000000E+00  0.00000000E+00
  5.62336266E-01  0.00000000E+00  0.00000000E+00  0.00000000E+00 -2.43219627E-01
  0.00000000E+00  0.00000000E+00  0.00000000E+00 -2.53600246E-01  0.00000000E+00
  0.00000000E+00  0.00000000E+00  1.61438764E-01  0.00000000E+00 -1.50171791E-05
 -3.45287470E-01  0.00000000E+00  0.00000000E+00  0.00000000E+00  1.14492834E-05
  8.65733098E-02  0.00000000E+00  0.00000000E+00  0.00000000E+00  0.00000000E+00
  0.00000000E+00  0.00000000E+00 -4.20700326E-02  0.00000000E+00  0.00000000E+00
  0.00000000E+00  2.86977688E-02  0.00000000E+00  0.00000000E+00  0.00000000E+00
  5.27095044E-02  0.00000000E+00  0.00000000E+00  0.00000000E+00  7.83402976E-02
  0.00000000E+00 -5.40894791E-01  1.47102892E-01  0.00000000E+00  0.00000000E+00
  0.00000000E+00  5.30517304E-01 -1.40240027E-01  0.00000000E+00  0.00000000E+00
  0.00000000E+00  0.00000000E+00  0.00000000E+00  0.00000000E+00 -4.20905003E-02
  0.00000000E+00  0.00000000E+00  0.00000000E+00  2.87100065E-02  0.00000000E+00
  0.00000000E+00  0.00000000E+00  5.27271376E-02  0.00000000E+00  0.00000000E+00
  0.00000000E+00  7.83414328E-02  0.00000000E+00  5.40799749E-01  1.47212409E-01
  0.00000000E+00  0.00000000E+00  0.00000000E+00 -5.30421998E-01 -1.40349011E-01
  0.00000000E+00  0.00000000E+00  0.00000000E+00  0.00000000E+00  0.00000000E+00
  0.00000000E+00 -2.65991962E-05  0.00000000E+00  0.00000000E+00  0.00000000E+00
  1.27126072E-05  0.00000000E+00  0.00000000E+00  0.00000000E+00  1.25354656E-05
  0.00000000E+00  0.00000000E+00  0.00000000E+00 -1.20622273E-05  0.00000000E+00
  6.27195402E-01  3.54732876E-06  0.00000000E+00  0.00000000E+00  0.00000000E+00
 -3.20087171E-01  5.75309233E-06  0.00000000E+00  0.00000000E+00  0.00000000E+00
  0.00000000E+00  0.00000000E+00  0.00000000E+00  1.14042474E-02  0.00000000E+00
  0.00000000E+00  0.00000000E+00  2.95082079E-03  0.00000000E+00  0.00000000E+00
  0.00000000E+00  3.62701689E-02  0.00000000E+00  0.00000000E+00  0.00000000E+00
  4.88565323E-02  0.00000000E+00 -5.51842691E-01  1.90550033E-01  0.00000000E+00
  0.00000000E+00  0.00000000E+00  5.99749724E-01 -1.99333334E-01  0.00000000E+00
  0.00000000E+00  0.00000000E+00  0.00000000E+00  0.00000000E+00  0.00000000E+00
 -1.14076334E-02  0.00000000E+00  0.00000000E+00  0.00000000E+00 -2.94920441E-03
  0.00000000E+00  0.00000000E+00  0.00000000E+00 -3.62667037E-02  0.00000000E+00
  0.00000000E+00  0.00000000E+00 -4.88639789E-02  0.00000000E+00 -5.51869527E-01
 -1.90546912E-01  0.00000000E+00  0.00000000E+00  0.00000000E+00  5.99779425E-01
  1.99329865E-01  0.00000000E+00  0.00000000E+00  0.00000000E+00  0.00000000E+00
  0.00000000E+00  0.00000000E+00 -4.41279767E-01  0.00000000E+00  0.00000000E+00
  0.00000000E+00  3.29231207E-01  0.00000000E+00  0.00000000E+00  0.00000000E+00
  4.00440972E-01  0.00000000E+00  0.00000000E+00  0.00000000E+00 -4.16808365E-01
  0.00000000E+00 -1.39067024E-05 -5.67248441E-01  0.00000000E+00  0.00000000E+00
  0.00000000E+00  1.01043355E-05  6.48933224E-01  0.00000000E+00  0.00000000E+00
  0.00000000E+00  0.00000000E+00  0.00000000E+00  0.00000000E+00 -1.76470187E-01
  0.00000000E+00  0.00000000E+00  0.00000000E+00  1.46135244E-01  0.00000000E+00
  0.00000000E+00  0.00000000E+00  1.64321335E-01  0.00000000E+00  0.00000000E+00
  0.00000000E+00 -1.36478429E-01  0.00000000E+00 -6.46656388E-03  3.48068135E-01
  0.00000000E+00  0.00000000E+00  0.00000000E+00 -4.58285651E-03 -4.32104836E-01
  0.00000000E+00  0.00000000E+00  0.00000000E+00  0.00000000E+00  0.00000000E+00
  0.00000000E+00 -1.76470086E-01  0.00000000E+00  0.00000000E+00  0.00000000E+00
  1.46135822E-01  0.00000000E+00  0.00000000E+00  0.00000000E+00  1.64322871E-01
  0.00000000E+00  0.00000000E+00  0.00000000E+00 -1.36475895E-01  0.00000000E+00
  6.47996762E-03  3.48075120E-01  0.00000000E+00  0.00000000E+00  0.00000000E+00
  4.56615535E-03 -4.32113740E-01  0.00000000E+00  0.00000000E+00  0.00000000E+00
  0.00000000E+00  0.00000000E+00  0.00000000E+00  4.31439109E-06  0.00000000E+00
  0.00000000E+00  0.00000000E+00 -3.80104094E-06  0.00000000E+00  0.00000000E+00
  0.00000000E+00 -9.33566688E-07  0.00000000E+00  0.00000000E+00  0.00000000E+00
  3.69646509E-06  0.00000000E+00  4.29616093E-02 -2.07521309E-06  0.00000000E+00
  0.00000000E+00  0.00000000E+00 -2.48149497E-01  3.03822445E-06  0.00000000E+00
  0.00000000E+00  0.00000000E+00  0.00000000E+00  0.00000000E+00  0.00000000E+00
 -6.58278091E-01  0.00000000E+00  0.00000000E+00  0.00000000E+00  7.18968484E-01
  0.00000000E+00  0.00000000E+00  0.00000000E+00  1.67444814E-01  0.00000000E+00
  0.00000000E+00  0.00000000E+00 -6.14724103E-01  0.00000000E+00 -1.48426860E-02
 -7.98102931E-02  0.00000000E+00  0.00000000E+00  0.00000000E+00  1.54978436E-02
  1.31026559E-01  0.00000000E+00  0.00000000E+00  0.00000000E+00  0.00000000E+00
  0.00000000E+00  0.00000000E+00  6.58271399E-01  0.00000000E+00  0.00000000E+00
  0.00000000E+00 -7.18961260E-01  0.00000000E+00  0.00000000E+00  0.00000000E+00
 -1.67443330E-01  0.00000000E+00  0.00000000E+00  0.00000000E+00  6.14719948E-01
  0.00000000E+00 -1.48449472E-02  7.98101192E-02  0.00000000E+00  0.00000000E+00
  0.00000000E+00  1.55016011E-02 -1.31026139E-01  0.00000000E+00  0.00000000E+00
  0.00000000E+00  0.00000000E+00  0.00000000E+00  0.00000000E+00  2.96990879E-01
  0.00000000E+00  0.00000000E+00  0.00000000E+00 -3.26531988E-01  0.00000000E+00
  0.00000000E+00  0.00000000E+00 -3.37118297E-01  0.00000000E+00  0.00000000E+00
  0.00000000E+00  7.30534691E-01  0.00000000E+00  7.49526448E-06 -7.14243131E-02
  0.00000000E+00  0.00000000E+00  0.00000000E+00 -8.39631179E-06  3.87675364E-01
  0.00000000E+00  0.00000000E+00  0.00000000E+00  0.00000000E+00  0.00000000E+00
  0.00000000E+00 -6.05143636E-01  0.00000000E+00  0.00000000E+00  0.00000000E+00
  7.74768716E-01  0.00000000E+00  0.00000000E+00  0.00000000E+00 -1.69003539E-02
  0.00000000E+00  0.00000000E+00  0.00000000E+00 -2.48244285E-01  0.00000000E+00
  1.71955301E-01 -4.91515255E-02  0.00000000E+00  0.00000000E+00  0.00000000E+00
 -3.16214875E-01  9.57269407E-02  0.00000000E+00  0.00000000E+00  0.00000000E+00
  0.00000000E+00  0.00000000E+00  0.00000000E+00 -6.05152233E-01  0.00000000E+00
  0.00000000E+00  0.00000000E+00  7.74779652E-01  0.00000000E+00  0.00000000E+00
  0.00000000E+00 -1.69031883E-02  0.00000000E+00  0.00000000E+00  0.00000000E+00
 -2.48260531E-01  0.00000000E+00 -1.71954541E-01 -4.91468298E-02  0.00000000E+00
  0.00000000E+00  0.00000000E+00  3.16213542E-01  9.57182202E-02  0.00000000E+00
  0.00000000E+00  0.00000000E+00  0.00000000E+00  0.00000000E+00  0.00000000E+00
 -3.06557425E-06  0.00000000E+00  0.00000000E+00  0.00000000E+00  2.63950935E-06
  0.00000000E+00  0.00000000E+00  0.00000000E+00  1.35777373E-07  0.00000000E+00
  0.00000000E+00  0.00000000E+00  1.43567231E-05  0.00000000E+00 -4.38415055E-01
  7.99888426E-06  0.00000000E+00  0.00000000E+00  0.00000000E+00  1.36484319E+00
 -1.56211242E-05  0.00000000E+00  0.00000000E+00  0.00000000E+00  0.00000000E+00
  0.00000000E+00  0.00000000E+00  8.10956749E-02  0.00000000E+00  0.00000000E+00
  0.00000000E+00 -1.24192435E-01  0.00000000E+00  0.00000000E+00  0.00000000E+00
 -2.13597634E-01  0.00000000E+00  0.00000000E+00  0.00000000E+00 -6.96207505E-01
  0.00000000E+00 -1.44285759E-01  2.22501696E-01  0.00000000E+00  0.00000000E+00
  0.00000000E+00  3.06762543E-01 -4.57130692E-01  0.00000000E+00  0.00000000E+00
  0.00000000E+00  0.00000000E+00  0.00000000E+00  0.00000000E+00 -8.11108692E-02
  0.00000000E+00  0.00000000E+00  0.00000000E+00  1.24215096E-01  0.00000000E+00
  0.00000000E+00  0.00000000E+00  2.13589158E-01  0.00000000E+00  0.00000000E+00
  0.00000000E+00  6.96190240E-01  0.00000000E+00 -1.44282543E-01 -2.22500011E-01
  0.00000000E+00  0.00000000E+00  0.00000000E+00  3.06755892E-01  4.57127250E-01
  0.00000000E+00  0.00000000E+00  0.00000000E+00  0.00000000E+00  0.00000000E+00
  0.00000000E+00 -6.15647437E-01  0.00000000E+00  0.00000000E+00  0.00000000E+00
  1.05521834E+00  0.00000000E+00  0.00000000E+00  0.00000000E+00  2.49456610E-01
  0.00000000E+00  0.00000000E+00  0.00000000E+00  9.17883065E-01  0.00000000E+00
  2.54221784E-06  2.37767918E-01  0.00000000E+00  0.00000000E+00  0.00000000E+00
 -2.10933265E-05 -9.31393654E-01  0.00000000E+00  0.00000000E+00  0.00000000E+00
  0.00000000E+00  0.00000000E+00  0.00000000E+00 -9.28668478E-02  0.00000000E+00
  0.00000000E+00  0.00000000E+00  1.72513878E-01  0.00000000E+00  0.00000000E+00
  0.00000000E+00 -3.74380327E-01  0.00000000E+00  0.00000000E+00  0.00000000E+00
 -7.00654412E-01  0.00000000E+00 -2.03083553E-01  9.22005619E-02  0.00000000E+00
  0.00000000E+00  0.00000000E+00  4.75060453E-01 -2.18710038E-01  0.00000000E+00
  0.00000000E+00  0.00000000E+00  0.00000000E+00  0.00000000E+00  0.00000000E+00
 -9.28594208E-02  0.00000000E+00  0.00000000E+00  0.00000000E+00  1.72500431E-01
  0.00000000E+00  0.00000000E+00  0.00000000E+00 -3.74382425E-01  0.00000000E+00
  0.00000000E+00  0.00000000E+00 -7.00680672E-01  0.00000000E+00  2.03088910E-01
  9.22033565E-02  0.00000000E+00  0.00000000E+00  0.00000000E+00 -4.75073972E-01
 -2.18717034E-01  0.00000000E+00  0.00000000E+00  0.00000000E+00  0.00000000E+00
  0.00000000E+00  0.00000000E+00  6.42588287E-01  0.00000000E+00  0.00000000E+00
  0.00000000E+00 -1.39617367E+00  0.00000000E+00  0.00000000E+00  0.00000000E+00
  2.30547318E+00  0.00000000E+00  0.00000000E+00  0.00000000E+00 -5.29678127E-01
  0.00000000E+00  1.70458545E-06  1.64895352E-01  0.00000000E+00  0.00000000E+00
  0.00000000E+00 -3.08200689E-06 -5.86178372E-01  0.00000000E+00  0.00000000E+00
  0.00000000E+00  0.00000000E+00  0.00000000E+00  0.00000000E+00 -1.36951280E-01
  0.00000000E+00  0.00000000E+00  0.00000000E+00  3.03586966E-01  0.00000000E+00
  0.00000000E+00  0.00000000E+00 -5.50060734E-01  0.00000000E+00  0.00000000E+00
  0.00000000E+00 -3.76423066E-01  0.00000000E+00 -4.27936264E-02  6.82263752E-03
  0.00000000E+00  0.00000000E+00  0.00000000E+00  1.06959577E-01 -1.13493639E-02
  0.00000000E+00  0.00000000E+00  0.00000000E+00  0.00000000E+00  0.00000000E+00
  0.00000000E+00 -1.36945039E-01  0.00000000E+00  0.00000000E+00  0.00000000E+00
  3.03572693E-01  0.00000000E+00  0.00000000E+00  0.00000000E+00 -5.50040032E-01
  0.00000000E+00  0.00000000E+00  0.00000000E+00 -3.76449598E-01  0.00000000E+00
  4.27933213E-02  6.82125462E-03  0.00000000E+00  0.00000000E+00  0.00000000E+00
 -1.06958052E-01 -1.13451790E-02  0.00000000E+00  0.00000000E+00  0.00000000E+00
  0.00000000E+00  0.00000000E+00  0.00000000E+00  6.41415899E-06  0.00000000E+00
  0.00000000E+00  0.00000000E+00 -1.26490620E-05  0.00000000E+00  0.00000000E+00
  0.00000000E+00  2.63200675E-05  0.00000000E+00  0.00000000E+00  0.00000000E+00
  1.08575874E-05  0.00000000E+00  5.12475184E-02  1.98088544E-06  0.00000000E+00
  0.00000000E+00  0.00000000E+00 -5.90697611E-01 -4.32365659E-06  0.00000000E+00
  0.00000000E+00  0.00000000E+00  0.00000000E+00  0.00000000E+00  0.00000000E+00
  4.30605941E-01  0.00000000E+00  0.00000000E+00  0.00000000E+00 -9.84680424E-01
  0.00000000E+00  0.00000000E+00  0.00000000E+00  1.56335321E+00  0.00000000E+00
  0.00000000E+00  0.00000000E+00 -1.02571727E+00  0.00000000E+00  3.30646981E-02
 -6.15176735E-02  0.00000000E+00  0.00000000E+00  0.00000000E+00 -9.36070017E-02
  1.65987013E-01  0.00000000E+00  0.00000000E+00  0.00000000E+00  0.00000000E+00
  0.00000000E+00  0.00000000E+00 -4.30596534E-01  0.00000000E+00  0.00000000E+00
  0.00000000E+00  9.84658715E-01  0.00000000E+00  0.00000000E+00  0.00000000E+00
 -1.56332659E+00  0.00000000E+00  0.00000000E+00  0.00000000E+00  1.02566989E+00
  0.00000000E+00  3.30660260E-02  6.15183261E-02  0.00000000E+00  0.00000000E+00
  0.00000000E+00 -9.36105494E-02 -1.65988696E-01  0.00000000E+00  0.00000000E+00
  0.00000000E+00  0.00000000E+00  0.00000000E+00  0.00000000E+00  2.66787141E-01
  0.00000000E+00  0.00000000E+00  0.00000000E+00 -6.91243827E-01  0.00000000E+00
  0.00000000E+00  0.00000000E+00  3.83157409E-01  0.00000000E+00  0.00000000E+00
  0.00000000E+00  9.92095997E-01  0.00000000E+00 -2.42089111E-07  2.10894763E-02
  0.00000000E+00  0.00000000E+00  0.00000000E+00  1.42840294E-05  2.95727912E-01
  0.00000000E+00  0.00000000E+00  0.00000000E+00  0.00000000E+00  0.00000000E+00
  0.00000000E+00  3.54709965E-01  0.00000000E+00  0.00000000E+00  0.00000000E+00
 -8.64070108E-01  0.00000000E+00  0.00000000E+00  0.00000000E+00  1.51278823E+00
  0.00000000E+00  0.00000000E+00  0.00000000E+00 -1.33524416E+00  0.00000000E+00
  6.10604008E-02 -1.72330269E-02  0.00000000E+00  0.00000000E+00  0.00000000E+00
 -1.73271464E-01  5.46775212E-02  0.00000000E+00  0.00000000E+00  0.00000000E+00
  0.00000000E+00  0.00000000E+00  0.00000000E+00  3.54720646E-01  0.00000000E+00
  0.00000000E+00  0.00000000E+00 -8.64096030E-01  0.00000000E+00  0.00000000E+00
  0.00000000E+00  1.51283943E+00  0.00000000E+00  0.00000000E+00  0.00000000E+00
 -1.33527763E+00  0.00000000E+00 -6.10626232E-02 -1.72352674E-02  0.00000000E+00
  0.00000000E+00  0.00000000E+00  1.73278420E-01  5.46840850E-02  0.00000000E+00
  0.00000000E+00
Total SCF Density                          R   N=        3321
  6.65912704E-01  5.70411989E-01  5.05922841E-01 -1.50642773E-07 -2.45412725E-07
  5.63652240E-02 -2.25813580E-02 -3.42313718E-02  6.94418378E-07  1.00715578E-01
  0.00000000E+00  0.00000000E+00  0.00000000E+00  0.00000000E+00  2.39206558E-02
 -1.20412070E-01 -2.06202405E-01  6.97131040E-07  9.31254772E-02  0.00000000E+00
  6.35562300E-01 -2.48576157E-07 -3.62600077E-07  7.61759118E-02  6.17160001E-07
  0.00000000E+00  8.90093251E-07  1.04236862E-01 -2.71620063E-02 -4.36710210E-02
  8.31065191E-07  1.42077449E-01  0.00000000E+00  1.26683184E-01  7.00799526E-07
  2.01394060E-01  0.00000000E+00  0.00000000E+00  0.00000000E+00  0.00000000E+00
  3.80079493E-02  0.00000000E+00  0.00000000E+00  0.00000000E+00  6.03914971E-02
 -1.42351269E-01 -2.20304853E-01  2.64324742E-06  2.46498048E-01  0.00000000E+00
  6.13542607E-01  2.83407331E-06  3.37090292E-01  0.00000000E+00  9.35369681E-01
 -7.82955782E-08 -1.34689884E-07  2.56739224E-02 -1.86825102E-07  0.00000000E+00
  3.87106831E-07  3.58869100E-02 -2.90035855E-07  0.00000000E+00  6.82969002E-08
  1.29078306E-02 -2.51305811E-02 -4.20829265E-02  2.69031278E-07  6.43844726E-02
  0.00000000E+00  1.25993753E-01  2.42827349E-07  9.19173602E-02  0.00000000E+00
  1.93041519E-01 -6.50740903E-08  5.36652701E-02  0.00000000E+00  0.00000000E+00
  0.00000000E+00  0.00000000E+00  1.97160820E-02  0.00000000E+00  0.00000000E+00
  0.00000000E+00  3.13272284E-02  0.00000000E+00  0.00000000E+00  0.00000000E+00
  1.62505532E-02 -1.44245984E-02 -2.31044026E-02  3.02636315E-07  3.73218981E-02
  0.00000000E+00  6.58292237E-02  3.10373542E-07  5.20876512E-02  0.00000000E+00
  1.18772281E-01 -3.27363151E-08  2.92950196E-02  0.00000000E+00  1.89788206E-02
  5.13742432E-09  5.73628095E-09  2.23566874E-04 -1.19645507E-08  0.00000000E+00
  9.16610865E-10  4.57350680E-04 -1.10666371E-08  0.00000000E+00  4.71466349E-08
 -1.04678491E-04  4.45981695E-09  0.00000000E+00  4.62713616E-09  1.09809400E-03
 -1.21548657E-03 -2.08476293E-03  2.38253162E-08  4.23085333E-03  0.00000000E+00
  6.78437964E-03  1.11741051E-08  5.71485822E-03  0.00000000E+00  1.33908758E-02
 -1.49859077E-08  2.05569771E-03  0.00000000E+00  9.41655413E-04 -5.13002827E-09
  4.80005298E-04  0.00000000E+00  0.00000000E+00  0.00000000E+00  0.00000000E+00
  2.37225277E-03  0.00000000E+00  0.00000000E+00  0.00000000E+00  3.76931402E-03
  0.00000000E+00  0.00000000E+00  0.00000000E+00  1.95527792E-03  0.00000000E+00
  0.00000000E+00  0.00000000E+00  2.35260407E-04 -7.96713162E-04 -6.12565334E-04
  1.25038762E-07  9.60988561E-03  0.00000000E+00 -1.32099273E-04  1.28872105E-07
  1.33190164E-02  0.00000000E+00  1.97007234E-02 -1.16005250E-08  4.47832146E-03
  0.00000000E+00  3.14317985E-03  2.36006966E-09  4.37463474E-04  0.00000000E+00
  1.17365998E-03  0.00000000E+00  0.00000000E+00  0.00000000E+00  0.00000000E+00
 -8.86488060E-08  0.00000000E+00  0.00000000E+00  0.00000000E+00 -1.25621274E-07
  0.00000000E+00  0.00000000E+00  0.00000000E+00 -4.06397719E-08  0.00000000E+00
  0.00000000E+00  0.00000000E+00 -7.86334258E-09  0.00000000E+00  7.53423904E-04
  0.00000000E+00  0.00000000E+00  0.00000000E+00  0.00000000E+00 -3.72747631E-03
  0.00000000E+00  0.00000000E+00  0.00000000E+00 -5.92265246E-03  0.00000000E+00
  0.00000000E+00  0.00000000E+00 -3.07229155E-03  0.00000000E+00  0.00000000E+00
  0.00000000E+00 -3.69660267E-04  0.00000000E+00  1.33435437E-08  5.80840248E-04
 -5.45395160E-04 -1.12005349E-03 -1.58553408E-07  1.25586509E-03  0.00000000E+00
  4.13791765E-03 -2.02029615E-07  2.51618453E-03  0.00000000E+00 -2.19544353E-03
 -4.04642712E-08  1.72312412E-03  0.00000000E+00 -8.73793084E-04 -7.95363004E-09
  2.05968568E-04  0.00000000E+00 -1.93488571E-04  0.00000000E+00  0.00000000E+00
  1.17153345E-03  1.56172803E-08  7.70940020E-09 -1.18012469E-02 -9.51978311E-08
  0.00000000E+00  3.15092948E-08 -1.51682660E-02 -1.05392144E-07  0.00000000E+00
 -1.95961719E-07 -4.74941951E-03 -3.91287734E-10  0.00000000E+00 -3.68575394E-09
  3.45881089E-04 -8.27674295E-09  0.00000000E+00 -1.80494913E-08  0.00000000E+00
  0.00000000E+00  1.43479571E-08  3.02884318E-03 -2.79430656E-03 -4.33927404E-03
  1.08159158E-07  7.48505988E-03  0.00000000E+00  1.19627622E-02  1.34893641E-07
  1.08184394E-02  0.00000000E+00  1.96360838E-02  3.10175305E-08  6.08779318E-03
  0.00000000E+00  3.17315937E-03  5.27704578E-12  2.07975111E-04  0.00000000E+00
  5.27032954E-04  0.00000000E+00  0.00000000E+00  2.96208965E-04 -1.77273994E-08
  7.18832495E-04  0.00000000E+00  0.00000000E+00  0.00000000E+00  0.00000000E+00
 -6.46149777E-08  0.00000000E+00  0.00000000E+00  0.00000000E+00 -7.94622439E-08
  0.00000000E+00  0.00000000E+00  0.00000000E+00 -3.86320060E-09  0.00000000E+00
  0.00000000E+00  0.00000000E+00 -4.99423884E-09  0.00000000E+00  1.14764685E-03
  9.35234874E-09  0.00000000E+00  0.00000000E+00  0.00000000E+00  1.74814376E-03
  0.00000000E+00  0.00000000E+00  0.00000000E+00  0.00000000E+00 -6.80157823E-03
  0.00000000E+00  0.00000000E+00  0.00000000E+00 -1.08071469E-02  0.00000000E+00
  0.00000000E+00  0.00000000E+00 -5.60605342E-03  0.00000000E+00  0.00000000E+00
  0.00000000E+00 -6.74524267E-04  0.00000000E+00  8.39342504E-09  1.05986734E-03
  0.00000000E+00  0.00000000E+00  0.00000000E+00 -7.23754540E-09  1.93395477E-03
 -1.12262456E-03 -2.00031949E-03 -1.19750072E-07  9.02770928E-03  0.00000000E+00
  6.72463322E-03 -1.61277347E-07  1.36635575E-02  0.00000000E+00  1.18380909E-02
 -5.31163121E-08  5.96680605E-03  0.00000000E+00  1.05505590E-03  1.16715341E-08
  6.42143444E-04  0.00000000E+00  5.75080676E-04  0.00000000E+00  0.00000000E+00
  1.61267376E-03  1.59455154E-08  8.37953670E-04  0.00000000E+00  0.00000000E+00
  2.84106185E-03  1.85118748E-08  1.42194392E-08 -1.24932389E-02 -7.77466697E-08
  0.00000000E+00  1.34320470E-08 -1.65720509E-02 -8.44790375E-08  0.00000000E+00
 -1.73752920E-07 -5.57233830E-03 -5.56593214E-10  0.00000000E+00 -3.79075806E-09
  5.17404233E-04 -6.32793941E-09  0.00000000E+00 -1.57091530E-08  0.00000000E+00
  0.00000000E+00  1.45996324E-08  2.95348367E-03 -1.94901273E-08  0.00000000E+00
  0.00000000E+00  1.77237191E-08  3.10654515E-03  1.37037623E-04 -4.42630451E-04
 -6.51725134E-03  8.16462496E-03  0.00000000E+00  5.08752891E-03 -3.74364168E-03
  7.39648565E-03  0.00000000E+00  4.34688157E-02  2.14496363E-03 -6.34211746E-03
  0.00000000E+00 -1.51219864E-03 -2.58583518E-03  2.85760584E-03  0.00000000E+00
  1.86080876E-03  0.00000000E+00  0.00000000E+00 -6.10475363E-04  2.83078372E-03
 -1.68600915E-03  0.00000000E+00  0.00000000E+00  5.60789336E-04  3.68011556E-04
  6.33825792E-01 -7.79419001E-05 -1.04019432E-03 -1.04407732E-02  1.33136873E-02
  0.00000000E+00  9.13236857E-03 -6.92560842E-03  1.30024474E-02  0.00000000E+00
  6.67700401E-02  2.86167069E-03 -7.97559075E-03  0.00000000E+00 -1.77182068E-03
 -3.74334416E-03  4.20711069E-03  0.00000000E+00  3.00568478E-03  0.00000000E+00
  0.00000000E+00 -1.03214820E-03  4.66337440E-03 -1.96270679E-03  0.00000000E+00
  0.00000000E+00  7.97065873E-04  1.18114862E-03  5.71168406E-01  5.33188267E-01
  1.44829310E-02  2.31412830E-02 -4.37952943E-02  4.70258252E-02  0.00000000E+00
 -6.66298090E-02 -5.51593911E-02  7.18180631E-02  0.00000000E+00 -1.81604000E-03
 -1.87552066E-02  2.26163374E-02  0.00000000E+00  6.15259453E-03  8.10126899E-03
  1.18815233E-03  0.00000000E+00  4.73340756E-03  0.00000000E+00  0.00000000E+00
  5.19366904E-03  1.37671627E-02  3.76056517E-03  0.00000000E+00  0.00000000E+00
  1.11537869E-02  1.45050655E-02 -7.07773432E-03 -1.11393680E-02  1.73322121E-01
 -5.88368435E-03 -8.92124261E-03  4.69835005E-02 -3.59113865E-02  0.00000000E+00
  2.66731523E-02  7.00199038E-02 -4.65329721E-02  0.00000000E+00 -9.57441405E-02
  2.60560625E-02 -1.61554492E-02  0.00000000E+00 -2.47672023E-02  5.22223217E-03
  1.15244325E-03  0.00000000E+00 -5.99819285E-03  0.00000000E+00  0.00000000E+00
  8.98771874E-03 -4.69570235E-03 -1.41857252E-03  0.00000000E+00  0.00000000E+00
  9.07685528E-03 -6.73717842E-03  4.75011920E-03  7.41402074E-03  2.34926080E-02
  1.87006858E-01  0.00000000E+00  0.00000000E+00  0.00000000E+00  0.00000000E+00
  4.30325441E-02  0.00000000E+00  0.00000000E+00  0.00000000E+00  6.83753431E-02
  0.00000000E+00  0.00000000E+00  0.00000000E+00  3.54690234E-02  0.00000000E+00
  0.00000000E+00  0.00000000E+00  4.26762269E-03  0.00000000E+00  8.86879988E-03
 -6.70562390E-03  0.00000000E+00  0.00000000E+00  0.00000000E+00  1.35094542E-02
 -1.22360337E-02  0.00000000E+00  0.00000000E+00  0.00000000E+00  0.00000000E+00
  0.00000000E+00  0.00000000E+00  1.81815566E-01  3.91679145E-03  8.05285877E-03
  2.93528018E-02 -4.06554063E-02  0.00000000E+00 -4.00547130E-02  2.17031196E-02
 -4.30554090E-02  0.00000000E+00 -1.95224765E-01 -7.08195491E-03  1.43760981E-02
  0.00000000E+00  2.02042816E-03  9.61594252E-03 -1.11462444E-02  0.00000000E+00
 -8.85941824E-03  0.00000000E+00  0.00000000E+00  3.26846139E-03 -1.38973040E-02
  3.10055629E-03  0.00000000E+00  0.00000000E+00 -1.88697913E-03 -5.22476196E-03
 -1.48797167E-01 -2.52095835E-01  3.49155787E-02 -2.23268226E-02  0.00000000E+00
  7.88570909E-01  2.16606242E-02  3.42114391E-02 -6.53321763E-02  7.08523125E-02
  0.00000000E+00 -9.71662540E-02 -8.21531668E-02  1.07699379E-01  0.00000000E+00
  3.47153812E-03 -2.77588217E-02  3.36600056E-02  0.00000000E+00  9.71672772E-03
  1.17974836E-02  1.90127484E-03  0.00000000E+00  7.24470171E-03  0.00000000E+00
  0.00000000E+00  7.39256188E-03  2.05324734E-02  5.54059318E-03  0.00000000E+00
  0.00000000E+00  1.62486551E-02  2.15204024E-02 -6.89773026E-03 -1.16543014E-02
  2.54667737E-01  3.20766194E-02  0.00000000E+00  4.05363032E-02  3.74403883E-01
 -8.85515155E-03 -1.32777147E-02  6.99464176E-02 -5.36944653E-02  0.00000000E+00
  3.90552914E-02  1.03804709E-01 -6.95568996E-02  0.00000000E+00 -1.43294920E-01
  3.84293613E-02 -2.38532471E-02  0.00000000E+00 -3.65151460E-02  7.59225479E-03
  1.56532203E-03  0.00000000E+00 -8.95987984E-03  0.00000000E+00  0.00000000E+00
  1.32254339E-02 -7.29132990E-03 -2.08730090E-03  0.00000000E+00  0.00000000E+00
  1.32558834E-02 -1.01992280E-02  4.34128718E-03  7.32273622E-03  3.23387883E-02
  2.73967892E-01  0.00000000E+00 -2.45839736E-02  4.37990007E-02  4.01499943E-01
  0.00000000E+00  0.00000000E+00  0.00000000E+00  0.00000000E+00  6.29162501E-02
  0.00000000E+00  0.00000000E+00  0.00000000E+00  9.99689949E-02  0.00000000E+00
  0.00000000E+00  0.00000000E+00  5.18579130E-02  0.00000000E+00  0.00000000E+00
  0.00000000E+00  6.23952921E-03  0.00000000E+00  1.29564541E-02 -9.80403829E-03
  0.00000000E+00  0.00000000E+00  0.00000000E+00  1.97359988E-02 -1.78898404E-02
  0.00000000E+00  0.00000000E+00  0.00000000E+00  0.00000000E+00  0.00000000E+00
  0.00000000E+00  2.65704609E-01  0.00000000E+00  0.00000000E+00  0.00000000E+00
  3.88299813E-01  1.47045327E-02  2.77885075E-02  5.01745566E-03 -4.42953177E-02
  0.00000000E+00 -1.02583392E-01 -8.49503569E-03 -4.90840225E-02  0.00000000E+00
 -2.38693088E-01 -1.48495178E-02 -7.23578912E-04  0.00000000E+00 -6.84577256E-03
  7.38041206E-03 -1.00363340E-02  0.00000000E+00 -7.72512247E-03  0.00000000E+00
  0.00000000E+00  3.45843623E-03 -7.81288178E-03  1.55219874E-03  0.00000000E+00
  0.00000000E+00 -8.01448256E-04 -3.46711202E-04 -1.44901386E-01 -2.27880847E-01
  5.23583731E-02 -3.20984324E-02  0.00000000E+00  6.57078321E-01  6.78679740E-02
 -4.04179830E-02  0.00000000E+00  5.64143648E-01  1.31791618E-02  1.94852625E-02
 -4.53188946E-02  5.49879554E-02  0.00000000E+00 -5.09624566E-02 -5.53838988E-02
  8.32103421E-02  0.00000000E+00  2.05671728E-02 -1.83835549E-02  2.83336204E-02
  0.00000000E+00  8.33300569E-03  1.02512481E-02  1.82045987E-03  0.00000000E+00
  5.27976818E-03  0.00000000E+00  0.00000000E+00  5.98016529E-03  1.57325396E-02
  4.42329371E-03  0.00000000E+00  0.00000000E+00  1.27514102E-02  1.62353331E-02
 -1.34772265E-03 -4.20198778E-03  1.98677017E-01  4.31188163E-02  0.00000000E+00
  2.20891923E-02  2.92096342E-01  6.05125033E-02  0.00000000E+00  3.96015902E-02
  2.31403880E-01 -2.18807787E-03 -1.34345565E-03  4.82163604E-02 -5.20977008E-02
  0.00000000E+00  9.50688330E-05  7.30726463E-02 -6.77933891E-02  0.00000000E+00
 -1.58060800E-01  2.74396873E-02 -2.71083670E-02  0.00000000E+00 -3.47627289E-02
  6.81796662E-03  7.87770068E-04  0.00000000E+00 -7.86023488E-03  0.00000000E+00
  0.00000000E+00  1.10854658E-02 -3.71533476E-03 -2.41226168E-03  0.00000000E+00
  0.00000000E+00  1.08176408E-02 -5.97187550E-03  1.35656497E-03  3.37149450E-03
  4.24026075E-02  2.24535002E-01  0.00000000E+00 -1.47958771E-02  5.91492572E-02
  3.28893632E-01  0.00000000E+00 -2.18099298E-02  6.64440962E-02  2.73260603E-01
  0.00000000E+00  0.00000000E+00  0.00000000E+00  0.00000000E+00  5.21209329E-02
  0.00000000E+00  0.00000000E+00  0.00000000E+00  8.28160900E-02  0.00000000E+00
  0.00000000E+00  0.00000000E+00  4.29600299E-02  0.00000000E+00  0.00000000E+00
  0.00000000E+00  5.16893675E-03  0.00000000E+00  1.11693981E-02 -8.12183877E-03
  0.00000000E+00  0.00000000E+00  0.00000000E+00  1.70138484E-02 -1.48202695E-02
  0.00000000E+00  0.00000000E+00  0.00000000E+00  0.00000000E+00  0.00000000E+00
  0.00000000E+00  2.25247285E-01  0.00000000E+00  0.00000000E+00  0.00000000E+00
  3.29173081E-01  0.00000000E+00  0.00000000E+00  0.00000000E+00  2.79157174E-01
  1.90188152E-02  2.70529935E-02 -2.25784599E-02 -1.94870511E-02  0.00000000E+00
 -6.77651697E-02 -2.92165102E-02 -2.60135410E-02  0.00000000E+00 -9.13086831E-02
 -9.09862146E-03 -1.68786899E-02  0.00000000E+00 -1.07976356E-02  1.00879075E-04
 -1.22790654E-03  0.00000000E+00 -1.39819516E-03  0.00000000E+00  0.00000000E+00
  5.14416945E-04  5.52098626E-03 -1.59335605E-03  0.00000000E+00  0.00000000E+00
 -3.29038998E-04  5.33310737E-03  4.53762275E-03  5.39310626E-03  2.83004402E-02
 -3.70868043E-03  0.00000000E+00 -7.83578741E-03  4.15945615E-02 -5.89621042E-03
  0.00000000E+00  9.48637657E-03  2.89482256E-02  3.42903380E-03  0.00000000E+00
  1.98821569E-02 -4.20744876E-03 -5.09086137E-03  2.76336131E-03  5.56456404E-03
  0.00000000E+00  9.81747209E-03  3.21386464E-03  7.87659293E-03  0.00000000E+00
  1.56697621E-02  6.27409758E-04  3.80619475E-03  0.00000000E+00  1.62005059E-03
  4.09882453E-04  4.17941629E-04  0.00000000E+00  4.28486082E-04  0.00000000E+00
  0.00000000E+00  4.25412468E-04 -7.67045834E-04  4.39317571E-04  0.00000000E+00
  0.00000000E+00  9.61633708E-04 -5.12668735E-04 -2.02223883E-03 -3.05124257E-03
  2.34277872E-03  3.22442373E-03  0.00000000E+00  8.18569561E-03  3.31470238E-03
  4.80856517E-03  0.00000000E+00  4.96371566E-03  3.12459106E-03  3.07424741E-03
  0.00000000E+00 -2.95896778E-03  1.04828302E-03  9.62513777E-03  1.40829376E-02
 -7.84021406E-04 -1.80277264E-02  0.00000000E+00 -3.63602205E-02 -3.29322836E-04
 -2.44212005E-02  0.00000000E+00 -6.60681983E-02  1.72167504E-04 -1.33913630E-02
  0.00000000E+00 -9.57459886E-03  5.34992616E-04 -6.73664783E-04  0.00000000E+00
 -1.68273528E-03  0.00000000E+00  0.00000000E+00  9.54121136E-04  7.32283381E-04
 -1.33974430E-03  0.00000000E+00  0.00000000E+00  1.55127344E-04  5.72454006E-04
 -8.75046241E-04 -1.40305991E-03  7.45534913E-03  1.95138278E-02  0.00000000E+00
  4.70101894E-03  1.04835106E-02  2.86236837E-02  0.00000000E+00  9.13972951E-03
  8.34853225E-03  2.68619520E-02  0.00000000E+00  7.47465626E-03 -9.24011551E-04
  6.00432730E-03  0.00000000E+00  0.00000000E+00  0.00000000E+00  0.00000000E+00
  1.60223525E-03  0.00000000E+00  0.00000000E+00  0.00000000E+00  2.54584064E-03
  0.00000000E+00  0.00000000E+00  0.00000000E+00  1.32065229E-03  0.00000000E+00
  0.00000000E+00  0.00000000E+00  1.58897715E-04  0.00000000E+00  1.03668941E-03
 -2.49671642E-04  0.00000000E+00  0.00000000E+00  0.00000000E+00  1.57913345E-03
 -4.55601295E-04  0.00000000E+00  0.00000000E+00  0.00000000E+00  0.00000000E+00
  0.00000000E+00  0.00000000E+00  1.50858736E-02  0.00000000E+00  0.00000000E+00
  0.00000000E+00  2.20423360E-02  0.00000000E+00  0.00000000E+00  0.00000000E+00
  1.88602459E-02  0.00000000E+00  0.00000000E+00  0.00000000E+00  1.53379055E-03
  1.86284914E-04  4.24987063E-04 -7.04013159E-04  6.22896030E-04  0.00000000E+00
 -1.61759248E-03 -9.61535761E-04  9.04323174E-04  0.00000000E+00 -5.67751078E-05
 -3.34639780E-04  1.56383092E-04  0.00000000E+00  1.18921261E-04  1.05655583E-05
  8.72460974E-06  0.00000000E+00  9.29593603E-05  0.00000000E+00  0.00000000E+00
 -3.96178940E-06  1.45417088E-04  2.97010338E-05  0.00000000E+00  0.00000000E+00
  6.05395487E-05  1.60850392E-04 -7.53806539E-05 -4.20213325E-05  1.36974104E-03
 -1.06656383E-03  0.00000000E+00 -9.87479320E-05  2.03301699E-03 -1.58315236E-03
  0.00000000E+00  3.35604078E-04  1.41235355E-03 -1.12839031E-03  0.00000000E+00
  3.55789082E-04 -1.08501252E-05 -2.33380314E-05  0.00000000E+00  2.18286061E-05
  0.00000000E+00  0.00000000E+00  0.00000000E+00  0.00000000E+00 -4.95456349E-04
  0.00000000E+00  0.00000000E+00  0.00000000E+00 -7.87240202E-04  0.00000000E+00
  0.00000000E+00  0.00000000E+00 -4.08371119E-04  0.00000000E+00  0.00000000E+00
  0.00000000E+00 -4.91353185E-05  0.00000000E+00 -4.56138352E-05  7.72053451E-05
  0.00000000E+00  0.00000000E+00  0.00000000E+00 -6.94823632E-05  1.40878641E-04
  0.00000000E+00  0.00000000E+00  0.00000000E+00  0.00000000E+00  0.00000000E+00
  0.00000000E+00 -1.42827783E-03  0.00000000E+00  0.00000000E+00  0.00000000E+00
 -2.08760833E-03  0.00000000E+00  0.00000000E+00  0.00000000E+00 -1.75581160E-03
  0.00000000E+00  0.00000000E+00  0.00000000E+00 -9.59524800E-05  0.00000000E+00
  1.30239127E-05  0.00000000E+00  0.00000000E+00  0.00000000E+00  0.00000000E+00
  3.20629620E-04  0.00000000E+00  0.00000000E+00  0.00000000E+00  5.09454835E-04
  0.00000000E+00  0.00000000E+00  0.00000000E+00  2.64273740E-04  0.00000000E+00
  0.00000000E+00  0.00000000E+00  3.17974429E-05  0.00000000E+00  4.00915746E-05
 -4.99626733E-05  0.00000000E+00  0.00000000E+00  0.00000000E+00  6.10701098E-05
 -9.11684389E-05  0.00000000E+00  0.00000000E+00  0.00000000E+00  0.00000000E+00
  0.00000000E+00  0.00000000E+00  1.04875664E-03  0.00000000E+00  0.00000000E+00
  0.00000000E+00  1.53280016E-03  0.00000000E+00  0.00000000E+00  0.00000000E+00
  1.29300234E-03  0.00000000E+00  0.00000000E+00  0.00000000E+00  7.66429633E-05
  0.00000000E+00 -9.06843403E-06  6.43118087E-06  2.73220398E-05 -9.54365500E-07
 -7.16394831E-06 -1.19941254E-03  0.00000000E+00  1.18759592E-04 -4.15248102E-05
 -1.76376981E-03  0.00000000E+00 -1.47524735E-03 -1.88140638E-05 -6.53701051E-04
  0.00000000E+00 -2.40615096E-04 -4.68782859E-05 -5.85540570E-05  0.00000000E+00
 -1.13611568E-04  0.00000000E+00  0.00000000E+00 -1.04269792E-04 -2.98274404E-05
 -9.10532431E-05  0.00000000E+00  0.00000000E+00 -2.39187737E-04 -2.73546088E-05
  1.61952045E-05 -2.88295589E-05 -1.63932471E-03 -5.57311776E-04  0.00000000E+00
  2.53723084E-04 -2.41148713E-03 -7.98049619E-04  0.00000000E+00  1.31501927E-04
 -1.89363664E-03 -6.82084506E-04  0.00000000E+00  7.17759272E-06 -9.08592383E-05
  2.61030871E-05  0.00000000E+00 -1.25207461E-05  0.00000000E+00  0.00000000E+00
  2.76578011E-05  3.27822372E-04  7.39951897E-04 -1.43205609E-03  6.58321424E-04
  0.00000000E+00 -2.80181160E-03 -1.93493544E-03  9.34487258E-04  0.00000000E+00
 -5.36321121E-04 -6.54325578E-04  1.04647183E-05  0.00000000E+00  1.21913484E-04
  2.56532987E-06 -1.69297033E-06  0.00000000E+00  1.26654513E-04  0.00000000E+00
  0.00000000E+00 -5.46897091E-05  3.02634807E-04  1.45203729E-05  0.00000000E+00
  0.00000000E+00  8.24545554E-06  3.21813141E-04 -1.37038342E-05  1.35293040E-04
  1.97887946E-03 -2.14570314E-03  0.00000000E+00 -8.57642309E-04  2.95563712E-03
 -3.18563353E-03  0.00000000E+00  4.12134824E-05  2.00334299E-03 -2.29217453E-03
  0.00000000E+00  7.20309308E-04 -7.47834169E-05 -2.29598665E-05  0.00000000E+00
  3.58502179E-05  0.00000000E+00  0.00000000E+00 -1.18384492E-05  6.38807984E-05
  1.74947684E-03  2.16003732E-03 -3.18913281E-03  2.71281585E-03  0.00000000E+00
 -4.22050828E-03 -4.19363309E-03  3.83458510E-03  0.00000000E+00  2.32540918E-03
 -1.36296671E-03  8.10559683E-04  0.00000000E+00  6.25670660E-04  5.58431557E-05
  9.72181379E-05  0.00000000E+00  3.88214185E-04  0.00000000E+00  0.00000000E+00
 -4.46677225E-05  7.53153429E-04  1.19496868E-04  0.00000000E+00  0.00000000E+00
  2.15375864E-04  7.61587886E-04  1.38689174E-03  1.96591747E-03  5.59437607E-03
 -3.79573998E-03  0.00000000E+00 -4.73446223E-03  8.36822805E-03 -5.70300382E-03
  0.00000000E+00 -2.51731102E-03  6.05238749E-03 -4.04704506E-03  0.00000000E+00
  1.42964072E-03 -9.31536901E-05 -1.53347279E-04  0.00000000E+00  8.26266237E-05
  0.00000000E+00  0.00000000E+00 -4.86645755E-05  1.41789022E-04  3.54858175E-04
  0.00000000E+00  0.00000000E+00  0.00000000E+00  0.00000000E+00 -3.68422213E-03
  0.00000000E+00  0.00000000E+00  0.00000000E+00 -5.85393615E-03  0.00000000E+00
  0.00000000E+00  0.00000000E+00 -3.03666367E-03  0.00000000E+00  0.00000000E+00
  0.00000000E+00 -3.65371346E-04  0.00000000E+00 -5.44739545E-04  5.74100432E-04
  0.00000000E+00  0.00000000E+00  0.00000000E+00 -8.29780941E-04  1.04758064E-03
  0.00000000E+00  0.00000000E+00  0.00000000E+00  0.00000000E+00  0.00000000E+00
  0.00000000E+00 -1.30403893E-02  0.00000000E+00  0.00000000E+00  0.00000000E+00
 -1.90584243E-02  0.00000000E+00  0.00000000E+00  0.00000000E+00 -1.61036102E-02
  0.00000000E+00  0.00000000E+00  0.00000000E+00 -9.96342645E-04  0.00000000E+00
  1.09291223E-04 -7.83714168E-05  0.00000000E+00  0.00000000E+00  0.00000000E+00
  9.61314753E-04  0.00000000E+00  0.00000000E+00  0.00000000E+00  0.00000000E+00
  2.37729512E-03  0.00000000E+00  0.00000000E+00  0.00000000E+00  3.77733405E-03
  0.00000000E+00  0.00000000E+00  0.00000000E+00  1.95945132E-03  0.00000000E+00
  0.00000000E+00  0.00000000E+00  2.35760962E-04  0.00000000E+00  4.02958181E-04
 -3.70446251E-04  0.00000000E+00  0.00000000E+00  0.00000000E+00  6.13809780E-04
 -6.75966997E-04  0.00000000E+00  0.00000000E+00  0.00000000E+00  0.00000000E+00
  0.00000000E+00  0.00000000E+00  9.02022472E-03  0.00000000E+00  0.00000000E+00
  0.00000000E+00  1.31826292E-02  0.00000000E+00  0.00000000E+00  0.00000000E+00
  1.11539392E-02  0.00000000E+00  0.00000000E+00  0.00000000E+00  7.13708231E-04
  0.00000000E+00 -7.36371358E-05  5.33084998E-05  0.00000000E+00  0.00000000E+00
  0.00000000E+00 -6.57507249E-04  4.51787528E-04  1.78251069E-04  5.46768574E-04
  3.54259857E-04 -4.76779320E-03  0.00000000E+00 -2.51545593E-03 -1.79704444E-04
 -7.11541119E-03  0.00000000E+00 -6.64094437E-03 -2.70005243E-04 -2.98901283E-03
  0.00000000E+00 -7.80785374E-04 -6.24857727E-04 -2.96760791E-04  0.00000000E+00
 -3.58577469E-04  0.00000000E+00  0.00000000E+00 -6.56772823E-04 -6.25466175E-04
 -4.11648458E-04  0.00000000E+00  0.00000000E+00 -1.24829365E-03 -5.07174214E-04
 -1.16913944E-03 -1.73482887E-03 -1.15649704E-02 -8.29756651E-03  0.00000000E+00
  4.58264373E-03 -1.70114541E-02 -1.19597931E-02  0.00000000E+00  3.78194693E-03
 -1.42067990E-02 -1.02645276E-02  0.00000000E+00 -5.88335301E-04 -3.87171462E-04
 -5.11367809E-04  0.00000000E+00 -4.30415804E-05  0.00000000E+00  0.00000000E+00
  1.50611063E-04 -3.18648000E-05 -2.39853391E-04  0.00000000E+00  0.00000000E+00
  1.17686812E-03  3.55183349E-03  4.61522027E-03 -5.37564842E-03  3.62810949E-03
  0.00000000E+00 -9.99444152E-03 -7.09823766E-03  4.87479422E-03  0.00000000E+00
  2.78413645E-03 -2.28247802E-03  2.98307072E-04  0.00000000E+00  1.09405487E-03
 -3.88804894E-05  7.35274247E-05  0.00000000E+00  6.91349240E-04  0.00000000E+00
  0.00000000E+00 -4.90865115E-04  1.21600619E-03  4.81609210E-05  0.00000000E+00
  0.00000000E+00 -2.33454720E-04  1.21322163E-03  2.77282228E-03  4.03210146E-03
  6.54806048E-03 -1.00468219E-02  0.00000000E+00 -1.01604620E-02  9.95966272E-03
 -1.49672899E-02  0.00000000E+00 -6.08619138E-03  6.72436219E-03 -1.12909076E-02
  0.00000000E+00  2.38002997E-03 -3.81068598E-04 -5.30146616E-04  0.00000000E+00
  1.39710250E-04  0.00000000E+00  0.00000000E+00 -3.63809959E-05  2.59442493E-04
  6.03399922E-04  0.00000000E+00  0.00000000E+00 -7.73508171E-05  1.19403137E-03
  1.37111370E-04 -4.42528243E-04  6.51753039E-03  8.16470471E-03  0.00000000E+00
  5.08739210E-03  3.74382381E-03  7.39653130E-03  0.00000000E+00  4.34690822E-02
 -2.14519331E-03 -6.34218280E-03  0.00000000E+00 -1.51219532E-03  2.58586225E-03
  2.85759411E-03  0.00000000E+00  1.86083882E-03  0.00000000E+00  0.00000000E+00
 -6.10526918E-04 -2.83082418E-03 -1.68601242E-03  0.00000000E+00  0.00000000E+00
  5.60775079E-04 -3.68022513E-04 -2.13279407E-04 -3.45771846E-04 -4.56025082E-03
 -3.51386309E-03  0.00000000E+00  1.04106960E-03 -6.45213381E-03 -5.05393000E-03
  0.00000000E+00 -5.05962743E-03 -3.71943700E-03 -6.35331674E-03  0.00000000E+00
 -1.27304333E-02  5.04233667E-03 -3.57567691E-03  0.00000000E+00  2.80078503E-06
  0.00000000E+00  0.00000000E+00 -7.31983303E-05 -9.25160398E-05 -1.25031480E-04
  0.00000000E+00  0.00000000E+00  4.36448736E-04 -1.97685808E-04  6.33825785E-01
 -7.78250719E-05 -1.04003378E-03  1.04412368E-02  1.33138249E-02  0.00000000E+00
  9.13213750E-03  6.92592548E-03  1.30025302E-02  0.00000000E+00  6.67704334E-02
 -2.86198427E-03 -7.97567248E-03  0.00000000E+00 -1.77181780E-03  3.74338521E-03
  4.20709605E-03  0.00000000E+00  3.00573055E-03  0.00000000E+00  0.00000000E+00
 -1.03223127E-03 -4.66343505E-03 -1.96270688E-03  0.00000000E+00  0.00000000E+00
  7.97030772E-04 -1.18116620E-03 -3.45771917E-04 -5.48400753E-04 -7.57920762E-03
 -5.89278564E-03  0.00000000E+00  1.54703216E-03 -1.07979708E-02 -8.51181466E-03
  0.00000000E+00 -7.68370700E-03 -6.54482541E-03 -1.05192052E-02  0.00000000E+00
 -1.88911854E-02  7.36951639E-03 -5.54103294E-03  0.00000000E+00 -2.56756509E-06
  0.00000000E+00  0.00000000E+00 -1.12639769E-04 -1.55107385E-04 -2.04789201E-04
  0.00000000E+00  0.00000000E+00  7.39960774E-04 -3.04232941E-04  5.71168400E-01
  5.33188264E-01 -1.44832785E-02 -2.31417977E-02 -4.37961195E-02 -4.70262231E-02
  0.00000000E+00  6.66313182E-02 -5.51604299E-02 -7.18182559E-02  0.00000000E+00
  1.81604395E-03 -1.87553704E-02 -2.26158457E-02  0.00000000E+00 -6.15254331E-03
  8.10121159E-03 -1.18822962E-03  0.00000000E+00 -4.73351254E-03  0.00000000E+00
  0.00000000E+00 -5.19350896E-03  1.37674016E-02 -3.76064089E-03  0.00000000E+00
  0.00000000E+00 -1.11532937E-02  1.45053256E-02  4.56022980E-03  7.57916744E-03
  3.24674226E-02  5.68353531E-03  0.00000000E+00 -2.43025521E-02  4.87613641E-02
  6.48884966E-03  0.00000000E+00 -2.27520956E-02  4.89143943E-02  1.40926753E-02
  0.00000000E+00  1.54032743E-02 -3.22589427E-03  4.83246979E-03  0.00000000E+00
 -1.28484140E-04  0.00000000E+00  0.00000000E+00  8.30080931E-04  3.67132828E-04
  8.77126437E-04  0.00000000E+00  0.00000000E+00 -1.00513677E-03  2.30607390E-03
  7.07782816E-03  1.11395083E-02  1.73321904E-01 -5.88368489E-03 -8.92122484E-03
 -4.69841078E-02 -3.59104202E-02  0.00000000E+00  2.66730938E-02 -7.00203218E-02
 -4.65315559E-02  0.00000000E+00 -9.57445781E-02 -2.60554540E-02 -1.61549668E-02
  0.00000000E+00 -2.47671609E-02 -5.22230000E-03  1.15257062E-03  0.00000000E+00
 -5.99821590E-03  0.00000000E+00  0.00000000E+00  8.98806397E-03  4.69547276E-03
 -1.41865121E-03  0.00000000E+00  0.00000000E+00  9.07703214E-03  6.73693922E-03
 -3.51394029E-03 -5.89291024E-03 -5.68426408E-03  9.00125662E-03  0.00000000E+00
  1.97123552E-02 -1.03831840E-02  1.44102430E-02  0.00000000E+00  4.22676294E-02
 -1.73377316E-02  1.91692314E-02  0.00000000E+00  2.05410076E-02  2.60832787E-04
  9.86712422E-03  0.00000000E+00  9.34766752E-05  0.00000000E+00  0.00000000E+00
  1.17331802E-04  1.70011327E-04 -8.54393411E-05  0.00000000E+00  0.00000000E+00
  2.09965669E-03 -2.47601249E-03  4.75010589E-03  7.41399449E-03 -2.34923505E-02
  1.87007442E-01  0.00000000E+00  0.00000000E+00  0.00000000E+00  0.00000000E+00
  4.30331574E-02  0.00000000E+00  0.00000000E+00  0.00000000E+00  6.83759590E-02
  0.00000000E+00  0.00000000E+00  0.00000000E+00  3.54687655E-02  0.00000000E+00
  0.00000000E+00  0.00000000E+00  4.26766166E-03  0.00000000E+00 -8.86901628E-03
 -6.70570839E-03  0.00000000E+00  0.00000000E+00  0.00000000E+00 -1.35095305E-02
 -1.22358122E-02  0.00000000E+00  0.00000000E+00  0.00000000E+00  0.00000000E+00
  0.00000000E+00  0.00000000E+00 -2.69847368E-02  0.00000000E+00  0.00000000E+00
  0.00000000E+00 -3.93323292E-02  0.00000000E+00  0.00000000E+00  0.00000000E+00
 -3.77164300E-02  0.00000000E+00  0.00000000E+00  0.00000000E+00 -9.32094487E-03
  0.00000000E+00 -3.54363378E-04  1.04863224E-04  0.00000000E+00  0.00000000E+00
  0.00000000E+00 -2.15390120E-04 -4.66743307E-04  0.00000000E+00  0.00000000E+00
  0.00000000E+00  0.00000000E+00  0.00000000E+00  0.00000000E+00  1.81815358E-01
  3.91649078E-03  8.05244076E-03 -2.93542993E-02 -4.06558866E-02  0.00000000E+00
 -4.00540615E-02 -2.17042396E-02 -4.30557480E-02  0.00000000E+00 -1.95225914E-01
  7.08265261E-03  1.43762241E-02  0.00000000E+00  2.02040827E-03 -9.61605047E-03
 -1.11462177E-02  0.00000000E+00 -8.85954621E-03  0.00000000E+00  0.00000000E+00
  3.26870275E-03  1.38974806E-02  3.10053906E-03  0.00000000E+00  0.00000000E+00
 -1.88683963E-03  5.22482696E-03  1.04107510E-03  1.54704170E-03  2.43027821E-02
  1.97120077E-02  0.00000000E+00 -3.64393994E-03  3.48859628E-02  2.86341905E-02
  0.00000000E+00  2.22384602E-02  2.22413657E-02  3.41862861E-02  0.00000000E+00
  5.09240166E-02 -1.92596514E-02  1.62295084E-02  0.00000000E+00  4.67425822E-05
  0.00000000E+00  0.00000000E+00  2.92815532E-04  4.93457108E-04  6.37032879E-04
  0.00000000E+00  0.00000000E+00 -2.38653865E-03  8.87009308E-04 -1.48797168E-01
 -2.52095856E-01 -3.49158981E-02 -2.23266714E-02  0.00000000E+00  7.88571099E-01
 -2.16611690E-02 -3.42122098E-02 -6.53334333E-02 -7.08529464E-02  0.00000000E+00
  9.71683826E-02 -8.21547164E-02 -1.07699722E-01  0.00000000E+00 -3.47171709E-03
 -2.77590306E-02 -3.36593034E-02  0.00000000E+00 -9.71666551E-03  1.17974053E-02
 -1.90139276E-03  0.00000000E+00 -7.24486260E-03  0.00000000E+00  0.00000000E+00
 -7.39232251E-03  2.05328331E-02 -5.54070843E-03  0.00000000E+00  0.00000000E+00
 -1.62479308E-02  2.15207884E-02  6.45210185E-03  1.07979091E-02  4.87614500E-02
  1.03821835E-02  0.00000000E+00 -3.48856133E-02  7.31278614E-02  1.25204424E-02
  0.00000000E+00 -3.19740795E-02  7.29783949E-02  2.35427981E-02  0.00000000E+00
  2.38488183E-02 -4.99809354E-03  7.74240373E-03  0.00000000E+00 -1.91684507E-04
  0.00000000E+00  0.00000000E+00  1.22206305E-03  5.39360582E-04  1.27900423E-03
  0.00000000E+00  0.00000000E+00 -1.56652481E-03  3.30406909E-03  6.89779694E-03
  1.16544140E-02  2.54667517E-01 -3.20763386E-02  0.00000000E+00 -4.05365650E-02
  3.74403711E-01 -8.85517583E-03 -1.32776967E-02 -6.99473303E-02 -5.36930764E-02
  0.00000000E+00  3.90551368E-02 -1.03805342E-01 -6.95548473E-02  0.00000000E+00
 -1.43295705E-01 -3.84284593E-02 -2.38525454E-02  0.00000000E+00 -3.65151005E-02
 -7.59236103E-03  1.56550645E-03  0.00000000E+00 -8.95991801E-03  0.00000000E+00
  0.00000000E+00  1.32259494E-02  7.29099143E-03 -2.08741852E-03  0.00000000E+00
  0.00000000E+00  1.32561591E-02  1.01988745E-02 -5.05404625E-03 -8.51200570E-03
 -6.48992366E-03  1.44102313E-02  0.00000000E+00  2.86347401E-02 -1.25219208E-02
  2.28664466E-02  0.00000000E+00  6.21490087E-02 -2.31723951E-02  2.98861087E-02
  0.00000000E+00  3.10953199E-02  1.54143045E-04  1.48659228E-02  0.00000000E+00
  1.40479946E-04  0.00000000E+00  0.00000000E+00  1.74396807E-04  2.64063419E-04
 -8.71275850E-05  0.00000000E+00  0.00000000E+00  2.94067259E-03 -3.59201490E-03
  4.34125466E-03  7.32268192E-03 -3.23385029E-02  2.73968814E-01  0.00000000E+00
 -2.45837185E-02 -4.37987187E-02  4.01501391E-01  0.00000000E+00  0.00000000E+00
  0.00000000E+00  0.00000000E+00  6.29171843E-02  0.00000000E+00  0.00000000E+00
  0.00000000E+00  9.99699553E-02  0.00000000E+00  0.00000000E+00  0.00000000E+00
  5.18575677E-02  0.00000000E+00  0.00000000E+00  0.00000000E+00  6.23958994E-03
  0.00000000E+00 -1.29567790E-02 -9.80416769E-03  0.00000000E+00  0.00000000E+00
  0.00000000E+00 -1.97361234E-02 -1.78895277E-02  0.00000000E+00  0.00000000E+00
  0.00000000E+00  0.00000000E+00  0.00000000E+00  0.00000000E+00 -3.93323611E-02
  0.00000000E+00  0.00000000E+00  0.00000000E+00 -5.73295388E-02  0.00000000E+00
  0.00000000E+00  0.00000000E+00 -5.49913785E-02  0.00000000E+00  0.00000000E+00
  0.00000000E+00 -1.36136617E-02  0.00000000E+00 -5.18724012E-04  1.53863723E-04
  0.00000000E+00  0.00000000E+00  0.00000000E+00 -3.22347393E-04 -6.76909363E-04
  0.00000000E+00  0.00000000E+00  0.00000000E+00  0.00000000E+00  0.00000000E+00
  0.00000000E+00  2.65704475E-01  0.00000000E+00  0.00000000E+00  0.00000000E+00
  3.88299865E-01  1.47044791E-02  2.77886244E-02 -5.01816449E-03 -4.42955456E-02
  0.00000000E+00 -1.02584672E-01  8.49487974E-03 -4.90841139E-02  0.00000000E+00
 -2.38694491E-01  1.48504172E-02 -7.23658259E-04  0.00000000E+00 -6.84579057E-03
 -7.38052198E-03 -1.00363343E-02  0.00000000E+00 -7.72514343E-03  0.00000000E+00
  0.00000000E+00  3.45851993E-03  7.81283209E-03  1.55222845E-03  0.00000000E+00
  0.00000000E+00 -8.01404943E-04  3.46558363E-04 -5.05969964E-03 -7.68382837E-03
  2.27521154E-02  4.22675092E-02  0.00000000E+00  2.22388469E-02  3.19741169E-02
  6.21487945E-02  0.00000000E+00  4.14635259E-02  2.06959498E-02  6.11197863E-02
  0.00000000E+00  4.35931799E-02 -1.57889821E-02  1.89638983E-02  0.00000000E+00
 -2.22521369E-05  0.00000000E+00  0.00000000E+00  1.05683609E-04  1.79961267E-04
 -1.27585629E-04  0.00000000E+00  0.00000000E+00 -2.60329610E-03 -5.39326697E-04
 -1.44901384E-01 -2.27880806E-01 -5.23602148E-02 -3.20990917E-02  0.00000000E+00
  6.57078163E-01 -6.78705083E-02 -4.04189315E-02  0.00000000E+00  5.64144147E-01
 -1.31795152E-02 -1.94856848E-02 -4.53194473E-02 -5.49880819E-02  0.00000000E+00
  5.09634016E-02 -5.53845707E-02 -8.32100682E-02  0.00000000E+00 -2.05669137E-02
 -1.83835765E-02 -2.83329306E-02  0.00000000E+00 -8.33284240E-03  1.02511474E-02
 -1.82055994E-03  0.00000000E+00 -5.27982581E-03  0.00000000E+00  0.00000000E+00
 -5.98001802E-03  1.57326963E-02 -4.42334400E-03  0.00000000E+00  0.00000000E+00
 -1.27507966E-02  1.62355084E-02  3.71938541E-03  6.54472981E-03  4.89143050E-02
  1.73366669E-02  0.00000000E+00 -2.22409299E-02  7.29781541E-02  2.31708253E-02
  0.00000000E+00 -2.06958729E-02  7.02465078E-02  3.03164426E-02  0.00000000E+00
  1.98013785E-02 -3.98359374E-03  7.67611277E-03  0.00000000E+00 -1.09670648E-04
  0.00000000E+00  0.00000000E+00  8.39907574E-04  4.50225476E-04  1.11913310E-03
  0.00000000E+00  0.00000000E+00 -2.22027199E-03  2.76116919E-03  1.34783904E-03
  4.20219576E-03  1.98675458E-01 -4.31189689E-02  0.00000000E+00 -2.20897804E-02
  2.92094173E-01 -6.05128553E-02  0.00000000E+00 -3.96035279E-02  2.31400686E-01
 -2.18802282E-03 -1.34329645E-03 -4.82168962E-02 -5.20965098E-02  0.00000000E+00
  9.44302392E-05 -7.30728367E-02 -6.77917024E-02  0.00000000E+00 -1.58061352E-01
 -2.74387852E-02 -2.71079111E-02  0.00000000E+00 -3.47626699E-02 -6.81806386E-03
  7.87921128E-04  0.00000000E+00 -7.86023193E-03  0.00000000E+00  0.00000000E+00
  1.10858167E-02  3.71497184E-03 -2.41234614E-03  0.00000000E+00  0.00000000E+00
  1.08177641E-02  5.97149500E-03 -6.35341877E-03 -1.05193763E-02 -1.40939621E-02
  1.91692255E-02  0.00000000E+00  3.41867705E-02 -2.35445919E-02  2.98861170E-02
  0.00000000E+00  6.11199564E-02 -3.03182665E-02  3.37217110E-02  0.00000000E+00
  2.57917367E-02 -1.05687229E-04  1.44856066E-02  0.00000000E+00  4.53161796E-05
  0.00000000E+00  0.00000000E+00  1.75437726E-04  6.25807483E-05 -5.90846594E-04
  0.00000000E+00  0.00000000E+00  2.98155261E-03 -3.74382479E-03  1.35661918E-03
  3.37157187E-03 -4.24027853E-02  2.24535281E-01  0.00000000E+00 -1.47959936E-02
 -5.91496458E-02  3.28894118E-01  0.00000000E+00 -2.18106312E-02 -6.64447029E-02
  2.73260571E-01  0.00000000E+00  0.00000000E+00  0.00000000E+00  0.00000000E+00
  5.21215786E-02  0.00000000E+00  0.00000000E+00  0.00000000E+00  8.28166642E-02
  0.00000000E+00  0.00000000E+00  0.00000000E+00  4.29596006E-02  0.00000000E+00
  0.00000000E+00  0.00000000E+00  5.16897326E-03  0.00000000E+00 -1.11696480E-02
 -8.12192544E-03  0.00000000E+00  0.00000000E+00  0.00000000E+00 -1.70139222E-02
 -1.48199546E-02  0.00000000E+00  0.00000000E+00  0.00000000E+00  0.00000000E+00
  0.00000000E+00  0.00000000E+00 -3.77165193E-02  0.00000000E+00  0.00000000E+00
  0.00000000E+00 -5.49914658E-02  0.00000000E+00  0.00000000E+00  0.00000000E+00
 -5.20202020E-02  0.00000000E+00  0.00000000E+00  0.00000000E+00 -1.18777653E-02
  0.00000000E+00 -4.03318665E-04  1.04259125E-04  0.00000000E+00  0.00000000E+00
  0.00000000E+00  4.82423857E-05 -7.93982465E-04  0.00000000E+00  0.00000000E+00
  0.00000000E+00  0.00000000E+00  0.00000000E+00  0.00000000E+00  2.25246657E-01
  0.00000000E+00  0.00000000E+00  0.00000000E+00  3.29172373E-01  0.00000000E+00
  0.00000000E+00  0.00000000E+00  2.79155943E-01  1.90191498E-02  2.70534138E-02
  2.25779209E-02 -1.94879386E-02  0.00000000E+00 -6.77660459E-02  2.92158897E-02
 -2.60148671E-02  0.00000000E+00 -9.13108470E-02  9.09854866E-03 -1.68793435E-02
  0.00000000E+00 -1.07980203E-02 -1.00904015E-04 -1.22794907E-03  0.00000000E+00
 -1.39825871E-03  0.00000000E+00  0.00000000E+00  5.14350421E-04 -5.52096207E-03
 -1.59336375E-03  0.00000000E+00  0.00000000E+00 -3.29191932E-04 -5.33308404E-03
 -1.27306410E-02 -1.88914875E-02 -1.54034449E-02  2.05416072E-02  0.00000000E+00
  5.09247724E-02 -2.38490711E-02  3.10962055E-02  0.00000000E+00  4.35942157E-02
 -1.98018040E-02  2.57927163E-02  0.00000000E+00 -8.30874153E-04  2.73961530E-04
  5.34866106E-03  0.00000000E+00 -1.88561471E-04  0.00000000E+00  0.00000000E+00
  6.80530714E-05 -4.27663429E-04 -1.36404012E-03  0.00000000E+00  0.00000000E+00
  1.05578505E-03 -2.26126722E-03  4.53733378E-03  5.39270751E-03 -2.83004998E-02
 -3.70754964E-03  0.00000000E+00 -7.83484637E-03 -4.15946111E-02 -5.89451843E-03
  0.00000000E+00  9.48769740E-03 -2.89480788E-02  3.43066534E-03  0.00000000E+00
  1.98825058E-02  4.20757603E-03  5.09100343E-03  2.76316906E-03 -5.56478101E-03
  0.00000000E+00 -9.81768582E-03  3.21360967E-03 -7.87687835E-03  0.00000000E+00
 -1.56705446E-02  6.27346619E-04 -3.80629959E-03  0.00000000E+00 -1.62016823E-03
  4.09848061E-04 -4.17956560E-04  0.00000000E+00 -4.28513418E-04  0.00000000E+00
  0.00000000E+00 -4.25392105E-04 -7.67025377E-04 -4.39318808E-04  0.00000000E+00
  0.00000000E+00 -9.61613673E-04 -5.12647233E-04 -5.04243536E-03 -7.36966330E-03
 -3.22599042E-03 -2.60743271E-04  0.00000000E+00  1.92600490E-02 -4.99824286E-03
 -1.54001687E-04  0.00000000E+00  1.57894682E-02 -3.98379964E-03  1.05842602E-04
  0.00000000E+00 -2.73898716E-04  3.94500244E-05  6.41480325E-04  0.00000000E+00
 -3.75981414E-05  0.00000000E+00  0.00000000E+00  7.91521907E-05 -5.91210478E-05
 -2.66960798E-04  0.00000000E+00  0.00000000E+00  4.86670942E-04 -3.13104846E-04
  2.02208542E-03  3.05101728E-03  2.34244803E-03 -3.22375274E-03  0.00000000E+00
 -8.18510385E-03  3.31423697E-03 -4.80757862E-03  0.00000000E+00 -4.96317237E-03
  3.12417872E-03 -3.07337149E-03  0.00000000E+00  2.95905785E-03  1.04827025E-03
  9.62519496E-03  1.40830149E-02  7.83662277E-04 -1.80278818E-02  0.00000000E+00
 -3.63604070E-02  3.28989863E-04 -2.44214469E-02  0.00000000E+00 -6.60686197E-02
 -1.72096177E-04 -1.33914945E-02  0.00000000E+00 -9.57465489E-03 -5.34986644E-04
 -6.73668650E-04  0.00000000E+00 -1.68275076E-03  0.00000000E+00  0.00000000E+00
  9.54110535E-04 -7.32262434E-04 -1.33975894E-03  0.00000000E+00  0.00000000E+00
  1.55070049E-04 -5.72444421E-04 -3.57564928E-03 -5.54098670E-03 -4.83250981E-03
  9.86730464E-03  0.00000000E+00  1.62293487E-02 -7.74244252E-03  1.48661764E-02
  0.00000000E+00  1.89637755E-02 -7.67619570E-03  1.44858764E-02  0.00000000E+00
  5.34852168E-03 -6.41443543E-04  4.77802239E-03  0.00000000E+00 -4.37249260E-05
  0.00000000E+00  0.00000000E+00  9.80154068E-05 -7.03462379E-05 -4.19359630E-04
  0.00000000E+00  0.00000000E+00  7.02335892E-04 -8.37253953E-04 -8.75170656E-04
 -1.40324512E-03 -7.45499033E-03  1.95136798E-02  0.00000000E+00  4.70152113E-03
 -1.04829774E-02  2.86234924E-02  0.00000000E+00  9.14020350E-03 -8.34808713E-03
  2.68617804E-02  0.00000000E+00  7.47488026E-03  9.24125493E-04  6.00433380E-03
  0.00000000E+00  0.00000000E+00  0.00000000E+00  0.00000000E+00  1.60213267E-03
  0.00000000E+00  0.00000000E+00  0.00000000E+00  2.54563573E-03  0.00000000E+00
  0.00000000E+00  0.00000000E+00  1.32047851E-03  0.00000000E+00  0.00000000E+00
  0.00000000E+00  1.58884989E-04  0.00000000E+00 -1.03667054E-03 -2.49654364E-04
  0.00000000E+00  0.00000000E+00  0.00000000E+00 -1.57909527E-03 -4.55525862E-04
  0.00000000E+00  0.00000000E+00  0.00000000E+00  0.00000000E+00  0.00000000E+00
  0.00000000E+00 -9.32094969E-03  0.00000000E+00  0.00000000E+00  0.00000000E+00
 -1.36136599E-02  0.00000000E+00  0.00000000E+00  0.00000000E+00 -1.18777639E-02
  0.00000000E+00  0.00000000E+00  0.00000000E+00 -1.31911571E-03  0.00000000E+00
  2.95801795E-05 -3.36903615E-05  0.00000000E+00  0.00000000E+00  0.00000000E+00
  5.02788663E-04 -3.95233619E-04  0.00000000E+00  0.00000000E+00  0.00000000E+00
  0.00000000E+00  0.00000000E+00  0.00000000E+00  1.50852272E-02  0.00000000E+00
  0.00000000E+00  0.00000000E+00  2.20414055E-02  0.00000000E+00  0.00000000E+00
  0.00000000E+00  1.88594222E-02  0.00000000E+00  0.00000000E+00  0.00000000E+00
  1.53369221E-03  1.86287841E-04  4.24993302E-04  7.04041085E-04  6.22916727E-04
  0.00000000E+00 -1.61761635E-03  9.61568164E-04  9.04349367E-04  0.00000000E+00
 -5.67348724E-05  3.34642792E-04  1.56387296E-04  0.00000000E+00  1.18927769E-04
 -1.05659990E-05  8.72502657E-06  0.00000000E+00  9.29633773E-05  0.00000000E+00
  0.00000000E+00 -3.96569261E-06 -1.45423269E-04  2.97037364E-05  0.00000000E+00
  0.00000000E+00  6.05368922E-05 -1.60856532E-04  2.80045036E-06 -2.56788457E-06
  1.28479227E-04  9.34705234E-05  0.00000000E+00  4.67421662E-05  1.91677507E-04
  1.40470974E-04  0.00000000E+00 -2.22568291E-05  1.09665940E-04  4.53074879E-05
  0.00000000E+00 -1.88567165E-04  3.75997116E-05 -4.37277236E-05  0.00000000E+00
  3.68014991E-06  0.00000000E+00  0.00000000E+00 -1.20248663E-05 -1.65378902E-07
  3.33446680E-06  0.00000000E+00  0.00000000E+00 -2.96659469E-05  9.07881057E-06
 -7.53765763E-05 -4.20140375E-05 -1.36978972E-03 -1.06658423E-03  0.00000000E+00
 -9.87719409E-05 -2.03308943E-03 -1.58318287E-03  0.00000000E+00  3.35611687E-04
 -1.41239372E-03 -1.12840488E-03  0.00000000E+00  3.55788961E-04  1.08478792E-05
 -2.33417622E-05  0.00000000E+00  2.18297189E-05  0.00000000E+00  0.00000000E+00
  0.00000000E+00  0.00000000E+00  4.95474387E-04  0.00000000E+00  0.00000000E+00
  0.00000000E+00  7.87267018E-04  0.00000000E+00  0.00000000E+00  0.00000000E+00
  4.08382060E-04  0.00000000E+00  0.00000000E+00  0.00000000E+00  4.91369950E-05
  0.00000000E+00 -4.56180493E-05 -7.72080989E-05  0.00000000E+00  0.00000000E+00
  0.00000000E+00 -6.94858650E-05 -1.40881734E-04  0.00000000E+00  0.00000000E+00
  0.00000000E+00  0.00000000E+00  0.00000000E+00  0.00000000E+00  3.54370538E-04
  0.00000000E+00  0.00000000E+00  0.00000000E+00  5.18734230E-04  0.00000000E+00
  0.00000000E+00  0.00000000E+00  4.03328304E-04  0.00000000E+00  0.00000000E+00
  0.00000000E+00 -2.95794534E-05  0.00000000E+00 -7.50069772E-06  4.21385465E-06
  0.00000000E+00  0.00000000E+00  0.00000000E+00 -4.33299928E-05  2.48437711E-05
  0.00000000E+00  0.00000000E+00  0.00000000E+00  0.00000000E+00  0.00000000E+00
  0.00000000E+00  1.42832315E-03  0.00000000E+00  0.00000000E+00  0.00000000E+00
  2.08767588E-03  0.00000000E+00  0.00000000E+00  0.00000000E+00  1.75586404E-03
  0.00000000E+00  0.00000000E+00  0.00000000E+00  9.59504476E-05  0.00000000E+00
  1.30247255E-05  0.00000000E+00  0.00000000E+00  0.00000000E+00  0.00000000E+00
  3.20636405E-04  0.00000000E+00  0.00000000E+00  0.00000000E+00  5.09463995E-04
  0.00000000E+00  0.00000000E+00  0.00000000E+00  2.64275881E-04  0.00000000E+00
  0.00000000E+00  0.00000000E+00  3.17980170E-05  0.00000000E+00 -4.00940359E-05
 -4.99636806E-05  0.00000000E+00  0.00000000E+00  0.00000000E+00 -6.10719711E-05
 -9.11685789E-05  0.00000000E+00  0.00000000E+00  0.00000000E+00  0.00000000E+00
  0.00000000E+00  0.00000000E+00  1.04860755E-04  0.00000000E+00  0.00000000E+00
  0.00000000E+00  1.53860068E-04  0.00000000E+00  0.00000000E+00  0.00000000E+00
  1.04256739E-04  0.00000000E+00  0.00000000E+00  0.00000000E+00 -3.36902848E-05
  0.00000000E+00 -4.21377712E-06  2.16426802E-06  0.00000000E+00  0.00000000E+00
  0.00000000E+00 -2.03953158E-05  1.04220903E-05  0.00000000E+00  0.00000000E+00
  0.00000000E+00  0.00000000E+00  0.00000000E+00  0.00000000E+00  1.04877261E-03
  0.00000000E+00  0.00000000E+00  0.00000000E+00  1.53282447E-03  0.00000000E+00
  0.00000000E+00  0.00000000E+00  1.29301978E-03  0.00000000E+00  0.00000000E+00
  0.00000000E+00  7.66405235E-05  0.00000000E+00  9.06885031E-06  6.43137179E-06
  2.73187783E-05 -9.63893432E-07  7.12879388E-06 -1.19945774E-03  0.00000000E+00
  1.18800400E-04  4.14841937E-05 -1.76383389E-03  0.00000000E+00 -1.47528700E-03
  1.88072261E-05 -6.53718745E-04  0.00000000E+00 -2.40624579E-04  4.68796904E-05
 -5.85561887E-05  0.00000000E+00 -1.13616666E-04  0.00000000E+00  0.00000000E+00
 -1.04271603E-04  2.98378751E-05 -9.10557841E-05  0.00000000E+00  0.00000000E+00
 -2.39191928E-04  2.73647836E-05 -7.31966103E-05 -1.12636893E-04 -8.30084649E-04
  1.17349019E-04  0.00000000E+00  2.92806169E-04 -1.22206865E-03  1.74421848E-04
  0.00000000E+00  1.05682922E-04 -8.39913937E-04  1.75460894E-04  0.00000000E+00
  6.80561446E-05 -7.91542801E-05  9.80182732E-05  0.00000000E+00 -1.20248862E-05
  0.00000000E+00  0.00000000E+00  2.26379310E-05 -1.14958447E-05 -3.93995666E-05
  0.00000000E+00  0.00000000E+00  7.44404577E-05 -3.25275999E-05  1.61921764E-05
 -2.88373035E-05  1.63939446E-03 -5.57304710E-04  0.00000000E+00  2.53754634E-04
  2.41159176E-03 -7.98038686E-04  0.00000000E+00  1.31508423E-04  1.89370451E-03
 -6.82080286E-04  0.00000000E+00  7.17252661E-06  9.08576227E-05  2.61091865E-05
  0.00000000E+00 -1.25219514E-05  0.00000000E+00  0.00000000E+00  2.76595361E-05
 -3.27829487E-04 -7.39965152E-04 -1.43210507E-03 -6.58327021E-04  0.00000000E+00
  2.80185758E-03 -1.93499427E-03 -9.34487123E-04  0.00000000E+00  5.36288771E-04
 -6.54333065E-04 -1.04531354E-05  0.00000000E+00 -1.21917844E-04  2.56492237E-06
  1.69377436E-06  0.00000000E+00 -1.26659153E-04  0.00000000E+00  0.00000000E+00
  5.47001569E-05  3.02644041E-04 -1.45230673E-05  0.00000000E+00  0.00000000E+00
 -8.23412923E-06  3.21822397E-04  9.25169635E-05  1.55109286E-04  3.67162997E-04
 -1.70012360E-04  0.00000000E+00 -4.93462322E-04  5.39404449E-04 -2.64065323E-04
  0.00000000E+00 -1.79959070E-04  4.50259794E-04 -6.25810277E-05  0.00000000E+00
  4.27675018E-04 -5.91219027E-05  7.03499149E-05  0.00000000E+00  1.65537885E-07
  0.00000000E+00  0.00000000E+00  1.14956301E-05  9.08786869E-06  2.11084747E-05
  0.00000000E+00  0.00000000E+00  4.93475399E-06  1.31907599E-05  1.36952100E-05
 -1.35307144E-04  1.97892975E-03  2.14575688E-03  0.00000000E+00  8.57685125E-04
  2.95571257E-03  3.18571327E-03  0.00000000E+00 -4.12263846E-05  2.00337408E-03
  2.29221940E-03  0.00000000E+00 -7.20312521E-04 -7.47805654E-05  2.29641938E-05
  0.00000000E+00 -3.58518779E-05  0.00000000E+00  0.00000000E+00  1.18396853E-05
  6.38837189E-05  1.74950798E-03  2.16006379E-03  3.18915905E-03  2.71282949E-03
  0.00000000E+00 -4.22051562E-03  4.19364854E-03  3.83458822E-03  0.00000000E+00
  2.32548986E-03  1.36293850E-03  8.10545417E-04  0.00000000E+00  6.25672858E-04
 -5.58396415E-05  9.72189010E-05  0.00000000E+00  3.88220849E-04  0.00000000E+00
  0.00000000E+00 -4.46818544E-05 -7.53153476E-04  1.19504267E-04  0.00000000E+00
  0.00000000E+00  2.15358216E-04 -7.61587177E-04 -1.25022575E-04 -2.04774597E-04
 -8.77080108E-04 -8.54180650E-05  0.00000000E+00  6.36985842E-04 -1.27893478E-03
 -8.70971024E-05  0.00000000E+00 -1.27605848E-04 -1.11907939E-03 -5.90804270E-04
  0.00000000E+00 -1.36401141E-03  2.66955536E-04 -4.19356337E-04  0.00000000E+00
  3.33481318E-06  0.00000000E+00  0.00000000E+00 -3.93993804E-05 -2.11067346E-05
 -3.26285954E-05  0.00000000E+00  0.00000000E+00 -2.56050939E-05 -3.13319170E-05
  1.38689046E-03  1.96591410E-03 -5.59438278E-03 -3.79571417E-03  0.00000000E+00
 -4.73445259E-03 -8.36823971E-03 -5.70296428E-03  0.00000000E+00 -2.51723043E-03
 -6.05233787E-03 -4.04698744E-03  0.00000000E+00  1.42959459E-03  9.31402194E-05
 -1.53361207E-04  0.00000000E+00  8.26288487E-05  0.00000000E+00  0.00000000E+00
 -4.86681724E-05 -1.41791828E-04  3.54856542E-04  0.00000000E+00  0.00000000E+00
  0.00000000E+00  0.00000000E+00  3.68432327E-03  0.00000000E+00  0.00000000E+00
  0.00000000E+00  5.85407483E-03  0.00000000E+00  0.00000000E+00  0.00000000E+00
  3.03670015E-03  0.00000000E+00  0.00000000E+00  0.00000000E+00  3.65380035E-04
  0.00000000E+00 -5.44768510E-04 -5.74115514E-04  0.00000000E+00  0.00000000E+00
  0.00000000E+00 -8.29803369E-04 -1.04758508E-03  0.00000000E+00  0.00000000E+00
  0.00000000E+00  0.00000000E+00  0.00000000E+00  0.00000000E+00  2.15383967E-04
  0.00000000E+00  0.00000000E+00  0.00000000E+00  3.22338836E-04  0.00000000E+00
  0.00000000E+00  0.00000000E+00 -4.82446369E-05  0.00000000E+00  0.00000000E+00
  0.00000000E+00 -5.02790599E-04  0.00000000E+00 -4.33296011E-05  2.03955996E-05
  0.00000000E+00  0.00000000E+00  0.00000000E+00 -1.73575929E-04  7.47964979E-05
  0.00000000E+00  0.00000000E+00  0.00000000E+00  0.00000000E+00  0.00000000E+00
  0.00000000E+00  1.30406110E-02  0.00000000E+00  0.00000000E+00  0.00000000E+00
  1.90587605E-02  0.00000000E+00  0.00000000E+00  0.00000000E+00  1.61038560E-02
  0.00000000E+00  0.00000000E+00  0.00000000E+00  9.96313673E-04  0.00000000E+00
  1.09296588E-04  7.83739672E-05  0.00000000E+00  0.00000000E+00  0.00000000E+00
  9.61348307E-04  0.00000000E+00  0.00000000E+00  0.00000000E+00  0.00000000E+00
  2.37733218E-03  0.00000000E+00  0.00000000E+00  0.00000000E+00  3.77737663E-03
  0.00000000E+00  0.00000000E+00  0.00000000E+00  1.95944717E-03  0.00000000E+00
  0.00000000E+00  0.00000000E+00  2.35763644E-04  0.00000000E+00 -4.02973024E-04
 -3.70451523E-04  0.00000000E+00  0.00000000E+00  0.00000000E+00 -6.13818393E-04
 -6.75959549E-04  0.00000000E+00  0.00000000E+00  0.00000000E+00  0.00000000E+00
  0.00000000E+00  0.00000000E+00 -4.66759750E-04  0.00000000E+00  0.00000000E+00
  0.00000000E+00 -6.76932588E-04  0.00000000E+00  0.00000000E+00  0.00000000E+00
 -7.93997674E-04  0.00000000E+00  0.00000000E+00  0.00000000E+00 -3.95233564E-04
  0.00000000E+00 -2.48432039E-05  1.04221058E-05  0.00000000E+00  0.00000000E+00
  0.00000000E+00 -7.47950475E-05  2.07408144E-05  0.00000000E+00  0.00000000E+00
  0.00000000E+00  0.00000000E+00  0.00000000E+00  0.00000000E+00  9.02026479E-03
  0.00000000E+00  0.00000000E+00  0.00000000E+00  1.31826961E-02  0.00000000E+00
  0.00000000E+00  0.00000000E+00  1.11539700E-02  0.00000000E+00  0.00000000E+00
  0.00000000E+00  7.13680254E-04  0.00000000E+00  7.36398176E-05  5.33095684E-05
  0.00000000E+00  0.00000000E+00  0.00000000E+00  6.57521887E-04  4.51791923E-04
  1.78178733E-04  5.46680175E-04 -3.54343183E-04 -4.76793746E-03  0.00000000E+00
 -2.51528457E-03  1.79616008E-04 -7.11559668E-03  0.00000000E+00 -6.64099306E-03
  2.69989984E-04 -2.98903231E-03  0.00000000E+00 -7.80795090E-04  6.24864972E-04
 -2.96775212E-04  0.00000000E+00 -3.58592247E-04  0.00000000E+00  0.00000000E+00
 -6.56782467E-04  6.25504512E-04 -4.11652628E-04  0.00000000E+00  0.00000000E+00
 -1.24828629E-03  5.07209858E-04  4.36457565E-04  7.39975569E-04  1.00519056E-03
  2.09972596E-03  0.00000000E+00 -2.38658272E-03  1.56659717E-03  2.94077011E-03
  0.00000000E+00 -2.60334840E-03  2.22035946E-03  2.98161809E-03  0.00000000E+00
  1.05577708E-03 -4.86664473E-04  7.02351457E-04  0.00000000E+00 -2.96667703E-05
  0.00000000E+00  0.00000000E+00  7.44407949E-05 -4.93711310E-06 -2.56031390E-05
  0.00000000E+00  0.00000000E+00 -5.61466329E-05  1.22515875E-04 -1.16918340E-03
 -1.73489290E-03  1.15651117E-02 -8.29767590E-03  0.00000000E+00  4.58281051E-03
  1.70116775E-02 -1.19599557E-02  0.00000000E+00  3.78202428E-03  1.42069092E-02
 -1.02646740E-02  0.00000000E+00 -5.88366469E-04  3.87136859E-04 -5.11338586E-04
  0.00000000E+00 -4.30451846E-05  0.00000000E+00  0.00000000E+00  1.50618130E-04
  3.18670005E-05 -2.39860736E-04  0.00000000E+00  0.00000000E+00  1.17690089E-03
 -3.55189321E-03 -4.61528000E-03 -5.37569965E-03 -3.62802025E-03  0.00000000E+00
  9.99450845E-03 -7.09827200E-03 -4.87463556E-03  0.00000000E+00 -2.78411704E-03
 -2.28241881E-03 -2.98216927E-04  0.00000000E+00 -1.09403807E-03 -3.88938469E-05
 -7.35211609E-05  0.00000000E+00 -6.91352189E-04  0.00000000E+00  0.00000000E+00
  4.90903060E-04  1.21599208E-03 -4.81642973E-05  0.00000000E+00  0.00000000E+00
  2.33506315E-04  1.21320683E-03  1.97674428E-04  3.04209784E-04  2.30605237E-03
  2.47595781E-03  0.00000000E+00 -8.86919149E-04  3.30403449E-03  3.59193594E-03
  0.00000000E+00  5.39389442E-04  2.76112694E-03  3.74373796E-03  0.00000000E+00
  2.26119816E-03 -3.13078853E-04  8.37241751E-04  0.00000000E+00 -9.07834030E-06
  0.00000000E+00  0.00000000E+00  3.25256347E-05  1.31895642E-05  3.13334939E-05
  0.00000000E+00  0.00000000E+00 -1.22517342E-04 -1.22725096E-04 -2.77280625E-03
 -4.03207759E-03  6.54792407E-03  1.00469111E-02  0.00000000E+00  1.01604068E-02
  9.95946358E-03  1.49674178E-02  0.00000000E+00  6.08601892E-03  6.72410453E-03
  1.12909613E-02  0.00000000E+00 -2.37994024E-03 -3.81038505E-04  5.30164551E-04
  0.00000000E+00 -1.39713236E-04  0.00000000E+00  0.00000000E+00  3.63836285E-05
  2.59447934E-04 -6.03393377E-04  0.00000000E+00  0.00000000E+00  7.73432792E-05
  1.19402524E-03
Grdnt Energy                               R     -2.377085679377926E+02
Grdnt NVar                                 I                3
Grdnt IGetFC                               I                4
Internal Forces                            R   N=           3
 -4.57087934E-06 -1.69974330E-08 -1.18404602E-05
Internal Force Constants                   R   N=           6
  4.03502858E-01  1.00251811E-01  4.03523910E-01  8.46517284E-02  8.46517108E-02
  5.56110781E-01
Mulliken Charges                           R   N=           3
  2.37896395E-01 -1.18952006E-01 -1.18944389E-01
Optimization MaxStp                        I                2
Optimization MaxJob                        I                1
Optimization Job offset                    I                0
Optimization Num results per geometry      I                2
Optimization Num geometry variables        I                9
Optimization Reference Energy              R     -2.370000000000000E+02
Opt point       1 Results for each geome   R   N=           2
 -7.08567938E-01  0.00000000E+00
Opt point       1 Geometries               R   N=           9
  0.00000000E+00  1.12385013E+00  0.00000000E+00  1.94178052E+00 -3.74628992E-01
  0.00000000E+00 -1.94178052E+00 -3.74604425E-01  0.00000000E+00
Opt point       1 Gradient at each geome   R   N=           9
 -3.60542655E-06 -4.84066718E-06  0.00000000E+00  6.56803821E-06  1.02964634E-06
  0.00000000E+00 -2.96261169E-06  3.81102088E-06  0.00000000E+00
Optimization Number of geometries          I   N=           1
           1
ONIOM Charges                              I   N=          16
           0           0           0           0           0           0
           0           0           0           0           0           0
           0           0           0           0
ONIOM Multiplicities                       I   N=          16
           1           0           0           0           0           0
           0           0           0           0           0           0
           0           0           0           0
Atom Layers                                I   N=           3
           1           1           1
Atom Modifiers                             I   N=           3
           0           0           0
Int Atom Modified Types                    I   N=           3
           0           0           0
Force Field                                I                0
Atom Modified Types                        C   N=           3
                                    
Link Atoms                                 I   N=           3
           0           0           0
Atom Modified MM Charges                   R   N=           3
  0.00000000E+00  0.00000000E+00  0.00000000E+00
Link Distances                             R   N=          12
  0.00000000E+00  0.00000000E+00  0.00000000E+00  0.00000000E+00  0.00000000E+00
  0.00000000E+00  0.00000000E+00  0.00000000E+00  0.00000000E+00  0.00000000E+00
  0.00000000E+00  0.00000000E+00
Cartesian Gradient                         R   N=           9
 -3.60542655E-06 -4.84066718E-06  0.00000000E+00  6.56803821E-06  1.02964634E-06
  0.00000000E+00 -2.96261169E-06  3.81102088E-06  0.00000000E+00
Cartesian Force Constants                  R   N=          45
  3.80133447E-01  1.10784755E-05  4.74265859E-01 -2.01584750E-14  1.76217711E-15
 -3.77720888E-04 -1.90059045E-01  1.36729478E-01  2.74011516E-14  3.20782225E-01
  1.46679967E-01 -2.37130462E-01  6.60494346E-16 -1.41705586E-01  1.75149982E-01
  1.69060101E-14 -4.19074364E-14  1.87919771E-04 -2.05951331E-14  2.08528773E-14
 -1.06351494E-04 -1.90074402E-01 -1.36740556E-01  3.46447960E-14 -1.30723180E-01
 -4.97438037E-03 -1.72543982E-14  3.20797583E-01 -1.46691045E-01 -2.37135397E-01
 -2.42267146E-15  4.97610855E-03  6.19804798E-02  2.10545591E-14  1.41714937E-01
  1.75154917E-01  3.25250057E-15  4.03908048E-14  1.89801118E-04 -6.87880057E-15
 -2.16361375E-14 -8.15682741E-05 -1.73176516E-14 -1.87546673E-14 -1.08232846E-04
Nonadiabatic coupling                      R   N=           9
  0.00000000E+00  0.00000000E+00  0.00000000E+00  0.00000000E+00  0.00000000E+00
  0.00000000E+00  0.00000000E+00  0.00000000E+00  0.00000000E+00
Dipole Moment                              R   N=           3
 -1.85696268E-05 -2.40134833E-01  0.00000000E+00
Dipole Derivatives                         R   N=          27
  1.80015126E+00 -6.13745374E-06 -7.49897478E-12 -1.43984260E-07  1.08247698E+00
  9.27098069E-13 -8.00040804E-14 -4.44184538E-13 -1.60533214E-01 -9.00073146E-01
  2.76778245E-01  2.14862003E-12  7.56358167E-01 -5.41247391E-01  2.55660893E-13
 -1.57044983E-12  1.30367749E-13  8.02618305E-02 -9.00078119E-01 -2.76772107E-01
  4.58305416E-12 -7.56358023E-01 -5.41229588E-01 -1.18275896E-12  1.65045396E-12
  3.56982993E-13  8.02713832E-02
Polarizability                             R   N=           6
  1.80418937E+01 -7.08498409E-05  1.43944219E+01  2.94468879E-11  7.89729341E-12
  1.34125239E+01
Quadrupole Moment                          R   N=           6
  1.00772512E-03 -1.07386950E+00  1.07286178E+00  7.78588965E-07  0.00000000E+00
  0.00000000E+00
QEq coupling tensors                       R   N=          18
 -1.05022828E-01  1.26410486E-05  8.88638318E-01  0.00000000E+00  0.00000000E+00
 -7.83615490E-01 -6.00916253E-01  1.89460203E+00  4.93152170E-01  0.00000000E+00
  0.00000000E+00  1.07764082E-01 -6.00939480E-01 -1.89458376E+00  4.93194356E-01
  0.00000000E+00  0.00000000E+00  1.07745124E-01
Number of Normal Modes                     I                3
Vib-LE2Fix                                 I               14
Vib-NDFDPol                                I                0
Vib-NumROA                                 I                0
Vib-NDim                                   I                3
Vib-NDim0                                  I                3
Vib-LFlags                                 I                8
Vib-IFlags                                 I   N=          24
           0           0           1           0           0           0
           0           0           0           0           2           0
           0           0           0           0           0           0
           3           0           0           0           0           0
Vib-AtMass                                 R   N=           3
  1.20000000E+01  1.89984032E+01  1.89984032E+01
Vib-E2                                     R   N=          42
  6.80202983E+02  1.12200024E+03  1.24076963E+03  1.77879609E+01  1.36896366E+01
  1.38152636E+01  4.84901394E+00  1.01537863E+01  1.25311719E+01  3.26027269E+00
  4.04772524E+02  1.29858613E+02  0.00000000E+00  0.00000000E+00  0.00000000E+00
  0.00000000E+00  0.00000000E+00  0.00000000E+00  0.00000000E+00  0.00000000E+00
  0.00000000E+00  0.00000000E+00  0.00000000E+00  0.00000000E+00  0.00000000E+00
  0.00000000E+00  0.00000000E+00  1.00000000E+02  1.00000000E+02  1.00000000E+02
  0.00000000E+00  0.00000000E+00  0.00000000E+00  0.00000000E+00  0.00000000E+00
  0.00000000E+00  0.00000000E+00  0.00000000E+00  0.00000000E+00  0.00000000E+00
  0.00000000E+00  0.00000000E+00
Vib-Modes                                  R   N=          27
 -7.61977819E-06 -4.15884342E-01  0.00000000E+00  6.29501525E-01  1.31337096E-01
  0.00000000E+00 -6.29496712E-01  1.31348774E-01  0.00000000E+00  8.70958242E-01
 -1.21472291E-04  0.00000000E+00 -2.75089560E-01  2.12303406E-01  0.00000000E+00
 -2.75035562E-01 -2.12226680E-01  0.00000000E+00  1.21203832E-04  8.60591334E-01
  0.00000000E+00  2.36229082E-01 -2.71760481E-01  0.00000000E+00 -2.36305639E-01
 -2.71816570E-01  0.00000000E+00
ClPar MaxAn                                I              200
ClPar NIntPar                              I                4
ClPar NRealPar                             I               16
ClPar NBits                                I               30
ClPar LenBitVec                            I                1
ClPar Read BitMap                          I   N=         200
           0           0           0           0           0           0
           0           0           0           0           0           0
           0           0           0           0           0           0
           0           0           0           0           0           0
           0           0           0           0           0           0
           0           0           0           0           0           0
           0           0           0           0           0           0
           0           0           0           0           0           0
           0           0           0           0           0           0
           0           0           0           0           0           0
           0           0           0           0           0           0
           0           0           0           0           0           0
           0           0           0           0           0           0
           0           0           0           0           0           0
           0           0           0           0           0           0
           0           0           0           0           0           0
           0           0           0           0           0           0
           0           0           0           0           0           0
           0           0           0           0           0           0
           0           0           0           0           0           0
           0           0           0           0           0           0
           0           0           0           0           0           0
           0           0           0           0           0           0
           0           0           0           0           0           0
           0           0           0           0           0           0
           0           0           0           0           0           0
           0           0           0           0           0           0
           0           0           0           0           0           0
           0           0           0           0           0           0
           0           0           0           0           0           0
           0           0           0           0           0           0
           0           0           0           0           0           0
           0           0           0           0           0           0
           0           0
ClPar Default BitMap                       I   N=         200
        2016        2016        2016        2016        2016        2016
        2016        2016        2016        2016        2016        2016
        2016        2016        2016        2016        2016        2016
        2016        2016        2016        2016        2016        2016
        2016        2016        2016        2016        2016        2016
        2016        2016        2016        2016        2016        2016
        2016        2016        2016        2016        2016        2016
        2016        2016        2016        2016        2016        2016
        2016        2016        2016        2016        2016        2016
        2016        2016        2016        2016        2016        2016
        2016        2016        2016        2016        2016        2016
        2016        2016        2016        2016        2016        2016
        2016        2016        2016        2016        2016        2016
        2016        2016        2016        2016        2016        2016
        2016        2016         480         480         480         480
         480         480         480         480         480         480
         480         480         480         480         480         480
         480         480         480         480         480         480
         480         480         480         480         480         480
         480         480         480         480         480         480
         480         480         480         480         480         480
         480         480         480         480         480         480
         480         480         480         480         480         480
         480         480         480         480         480         480
         480         480         480         480         480         480
         480         480         480         480         480         480
         480         480         480         480         480         480
         480         480         480         480         480         480
         480         480         480         480         480         480
         480         480         480         480         480         480
         480         480         480         480         480         480
         480         480         480         480         480         480
         480         480         480         480         480         480
         480         480
ClPar Int Params                           I   N=         800
           0           0           0           0           0           0
           0           0           0           0           0           0
           0           0           0           0           0           0
           0           0           0           0           0           0
           0           0           0           0           0           0
           0           0           0           0           0           0
           0           0           0           0           0           0
           0           0           0           0           0           0
           0           0           0           0           0           0
           0           0           0           0           0           0
           0           0           0           0           0           0
           0           0           0           0           0           0
           0           0           0           0           0           0
           0           0           0           0           0           0
           0           0           0           0           0           0
           0           0           0           0           0           0
           0           0           0           0           0           0
           0           0           0           0           0           0
           0           0           0           0           0           0
           0           0           0           0           0           0
           0           0           0           0           0           0
           0           0           0           0           0           0
           0           0           0           0           0           0
           0           0           0           0           0           0
           0           0           0           0           0           0
           0           0           0           0           0           0
           0           0           0           0           0           0
           0           0           0           0           0           0
           0           0           0           0           0           0
           0           0           0           0           0           0
           0           0           0           0           0           0
           0           0           0           0           0           0
           0           0           0           0           0           0
           0           0           0           0           0           0
           0           0           0           0           0           0
           0           0           0           0           0           0
           0           0           0           0           0           0
           0           0           0           0           0           0
           0           0           0           0           0           0
           0           0           0           0           0           0
           0           0           0           0           0           0
           0           0           0           0           0           0
           0           0           0           0           0           0
           0           0           0           0           0           0
           0           0           0           0           0           0
           0           0           0           0           0           0
           0           0           0           0           0           0
           0           0           0           0           0           0
           0           0           0           0           0           0
           0           0           0           0           0           0
           0           0           0           0           0           0
           0           0           0           0           0           0
           0           0           0           0           0           0
           0           0           0           0           0           0
           0           0           0           0           0           0
           0           0           0           0           0           0
           0           0           0           0           0           0
           0           0           0           0           0           0
           0           0           0           0           0           0
           0           0           0           0           0           0
           0           0           0           0           0           0
           0           0           0           0           0           0
           0           0           0           0           0           0
           0           0           0           0           0           0
           0           0           0           0           0           0
           0           0           0           0           0           0
           0           0           0           0           0           0
           0           0           0           0           0           0
           0           0           0           0           0           0
           0           0           0           0           0           0
           0           0           0           0           0           0
           0           0           0           0           0           0
           0           0           0           0           0           0
           0           0           0           0           0           0
           0           0           0           0           0           0
           0           0           0           0           0           0
           0           0           0           0           0           0
           0           0           0           0           0           0
           0           0           0           0           0           0
           0           0           0           0           0           0
           0           0           0           0           0           0
           0           0           0           0           0           0
           0           0           0           0           0           0
           0           0           0           0           0           0
           0           0           0           0           0           0
           0           0           0           0           0           0
           0           0           0           0           0           0
           0           0           0           0           0           0
           0           0           0           0           0           0
           0           0           0           0           0           0
           0           0           0           0           0           0
           0           0           0           0           0           0
           0           0           0           0           0           0
           0           0           0           0           0           0
           0           0           0           0           0           0
           0           0           0           0           0           0
           0           0           0           0           0           0
           0           0           0           0           0           0
           0           0           0           0           0           0
           0           0           0           0           0           0
           0           0           0           0           0           0
           0           0           0           0           0           0
           0           0           0           0           0           0
           0           0           0           0           0           0
           0           0           0           0           0           0
           0           0           0           0           0           0
           0           0           0           0           0           0
           0           0           0           0           0           0
           0           0           0           0           0           0
           0           0           0           0           0           0
           0           0           0           0           0           0
           0           0           0           0           0           0
           0           0           0           0           0           0
           0           0           0           0           0           0
           0           0           0           0           0           0
           0           0           0           0           0           0
           0           0           0           0           0           0
           0           0           0           0           0           0
           0           0           0           0           0           0
           0           0           0           0           0           0
           0           0           0           0           0           0
           0           0           0           0           0           0
           0           0           0           0           0           0
           0           0           0           0           0           0
           0           0           0           0           0           0
           0           0           0           0           0           0
           0           0           0           0           0           0
           0           0           0           0           0           0
           0           0           0           0           0           0
           0           0           0           0           0           0
           0           0           0           0           0           0
           0           0           0           0           0           0
           0           0           0           0           0           0
           0           0
ClPar Real Params                          R   N=        3200
  0.00000000E+00  0.00000000E+00  0.00000000E+00  0.00000000E+00  0.00000000E+00
  0.00000000E+00  0.00000000E+00  0.00000000E+00  0.00000000E+00  0.00000000E+00
  0.00000000E+00  0.00000000E+00  0.00000000E+00  0.00000000E+00  0.00000000E+00
  0.00000000E+00  0.00000000E+00  0.00000000E+00  0.00000000E+00  0.00000000E+00
  0.00000000E+00  0.00000000E+00  0.00000000E+00  0.00000000E+00  0.00000000E+00
  0.00000000E+00  0.00000000E+00  0.00000000E+00  0.00000000E+00  0.00000000E+00
  0.00000000E+00  0.00000000E+00  0.00000000E+00  0.00000000E+00  0.00000000E+00
  0.00000000E+00  0.00000000E+00  0.00000000E+00  0.00000000E+00  0.00000000E+00
  0.00000000E+00  0.00000000E+00  0.00000000E+00  0.00000000E+00  0.00000000E+00
  0.00000000E+00  0.00000000E+00  0.00000000E+00  0.00000000E+00  0.00000000E+00
  0.00000000E+00  0.00000000E+00  0.00000000E+00  0.00000000E+00  0.00000000E+00
  0.00000000E+00  0.00000000E+00  0.00000000E+00  0.00000000E+00  0.00000000E+00
  0.00000000E+00  0.00000000E+00  0.00000000E+00  0.00000000E+00  0.00000000E+00
  0.00000000E+00  0.00000000E+00  0.00000000E+00  0.00000000E+00  0.00000000E+00
  0.00000000E+00  0.00000000E+00  0.00000000E+00  0.00000000E+00  0.00000000E+00
  0.00000000E+00  0.00000000E+00  0.00000000E+00  0.00000000E+00  0.00000000E+00
  0.00000000E+00  0.00000000E+00  0.00000000E+00  0.00000000E+00  0.00000000E+00
  0.00000000E+00  0.00000000E+00  0.00000000E+00  0.00000000E+00  0.00000000E+00
  0.00000000E+00  0.00000000E+00  0.00000000E+00  0.00000000E+00  0.00000000E+00
  0.00000000E+00  0.00000000E+00  0.00000000E+00  0.00000000E+00  0.00000000E+00
  0.00000000E+00  0.00000000E+00  0.00000000E+00  0.00000000E+00  0.00000000E+00
  0.00000000E+00  0.00000000E+00  0.00000000E+00  0.00000000E+00  0.00000000E+00
  0.00000000E+00  0.00000000E+00  0.00000000E+00  0.00000000E+00  0.00000000E+00
  0.00000000E+00  0.00000000E+00  0.00000000E+00  0.00000000E+00  0.00000000E+00
  0.00000000E+00  0.00000000E+00  0.00000000E+00  0.00000000E+00  0.00000000E+00
  0.00000000E+00  0.00000000E+00  0.00000000E+00  0.00000000E+00  0.00000000E+00
  0.00000000E+00  0.00000000E+00  0.00000000E+00  0.00000000E+00  0.00000000E+00
  0.00000000E+00  0.00000000E+00  0.00000000E+00  0.00000000E+00  0.00000000E+00
  0.00000000E+00  0.00000000E+00  0.00000000E+00  0.00000000E+00  0.00000000E+00
  0.00000000E+00  0.00000000E+00  0.00000000E+00  0.00000000E+00  0.00000000E+00
  0.00000000E+00  0.00000000E+00  0.00000000E+00  0.00000000E+00  0.00000000E+00
  0.00000000E+00  0.00000000E+00  0.00000000E+00  0.00000000E+00  0.00000000E+00
  0.00000000E+00  0.00000000E+00  0.00000000E+00  0.00000000E+00  0.00000000E+00
  0.00000000E+00  0.00000000E+00  0.00000000E+00  0.00000000E+00  0.00000000E+00
  0.00000000E+00  0.00000000E+00  0.00000000E+00  0.00000000E+00  0.00000000E+00
  0.00000000E+00  0.00000000E+00  0.00000000E+00  0.00000000E+00  0.00000000E+00
  0.00000000E+00  0.00000000E+00  0.00000000E+00  0.00000000E+00  0.00000000E+00
  0.00000000E+00  0.00000000E+00  0.00000000E+00  0.00000000E+00  0.00000000E+00
  0.00000000E+00  0.00000000E+00  0.00000000E+00  0.00000000E+00  0.00000000E+00
  0.00000000E+00  0.00000000E+00  0.00000000E+00  0.00000000E+00  0.00000000E+00
  2.26000000E-01  4.43000000E-01  1.01000000E-01  1.47000000E-01  1.92000000E-01
  2.40000000E-01  2.75000000E-01  3.03000000E-01  3.25000000E-01  4.13000000E-01
  9.60000000E-02  1.35000000E-01  1.73000000E-01  2.11000000E-01  2.48000000E-01
  2.86000000E-01  3.23000000E-01  3.60000000E-01  8.20000000E-02  1.04000000E-01
  1.17000000E-01  1.23000000E-01  1.29000000E-01  1.34000000E-01  1.40000000E-01
  1.44000000E-01  1.48000000E-01  1.52000000E-01  1.55000000E-01  1.76000000E-01
  1.98000000E-01  2.19000000E-01  2.39000000E-01  2.60000000E-01  2.80000000E-01
  3.00000000E-01  7.90000000E-02  9.90000000E-02  1.19000000E-01  1.26000000E-01
  1.33000000E-01  1.40000000E-01  1.47000000E-01  1.53000000E-01  1.58000000E-01
  1.63000000E-01  1.57000000E-01  1.70000000E-01  1.87000000E-01  2.03000000E-01
  2.19000000E-01  2.34000000E-01  2.50000000E-01  2.65000000E-01  7.40000000E-02
  9.20000000E-02  1.05000000E-01  1.06000000E-01  1.07000000E-01  1.08000000E-01
  1.09000000E-01  1.10000000E-01  1.11000000E-01  1.12000000E-01  1.13000000E-01
  1.14000000E-01  1.15000000E-01  1.16000000E-01  1.17000000E-01  1.17000000E-01
  1.26000000E-01  1.36000000E-01  1.46000000E-01  1.55000000E-01  1.65000000E-01
  1.73000000E-01  1.82000000E-01  1.90000000E-01  1.62000000E-01  1.78000000E-01
  1.10000000E-01  1.35000000E-01  1.59000000E-01  1.83000000E-01  2.07000000E-01
  2.31000000E-01  6.90000000E-02  9.40000000E-02  1.02000000E-01  1.03000000E-01
  1.05000000E-01  1.07000000E-01  1.09000000E-01  1.11000000E-01  1.13000000E-01
  1.15000000E-01  1.17000000E-01  1.19000000E-01  1.20000000E-01  1.22000000E-01
  1.24000000E-01  1.26000000E-01  1.28000000E-01  1.28000000E-01  1.28000000E-01
  1.28000000E-01  1.28000000E-01  1.28000000E-01  1.28000000E-01  1.28000000E-01
  1.28000000E-01  1.28000000E-01  1.28000000E-01  1.28000000E-01  1.28000000E-01
  1.28000000E-01  1.28000000E-01  1.28000000E-01  1.28000000E-01  1.28000000E-01
  1.28000000E-01  1.28000000E-01  1.28000000E-01  1.28000000E-01  1.28000000E-01
  1.28000000E-01  1.28000000E-01  1.28000000E-01  1.28000000E-01  1.28000000E-01
  1.28000000E-01  1.28000000E-01  1.28000000E-01  1.28000000E-01  1.28000000E-01
  1.28000000E-01  1.28000000E-01  1.28000000E-01  1.28000000E-01  1.28000000E-01
  1.28000000E-01  1.28000000E-01  1.28000000E-01  1.28000000E-01  1.28000000E-01
  1.28000000E-01  1.28000000E-01  1.28000000E-01  1.28000000E-01  1.28000000E-01
  1.28000000E-01  1.28000000E-01  1.28000000E-01  1.28000000E-01  1.28000000E-01
  1.28000000E-01  1.28000000E-01  1.28000000E-01  1.28000000E-01  1.28000000E-01
  1.28000000E-01  1.28000000E-01  1.28000000E-01  1.28000000E-01  1.28000000E-01
  1.28000000E-01  1.28000000E-01  1.28000000E-01  1.28000000E-01  1.28000000E-01
  1.28000000E-01  1.28000000E-01  1.28000000E-01  1.28000000E-01  1.28000000E-01
  1.28000000E-01  1.28000000E-01  1.28000000E-01  1.28000000E-01  1.28000000E-01
  1.28000000E-01  1.28000000E-01  1.28000000E-01  1.28000000E-01  1.28000000E-01
  1.28000000E-01  1.28000000E-01  1.28000000E-01  1.28000000E-01  1.28000000E-01
  1.28000000E-01  1.28000000E-01  1.28000000E-01  1.28000000E-01  1.28000000E-01
  1.28000000E-01  1.28000000E-01  1.28000000E-01  1.28000000E-01  1.28000000E-01
  5.47000000E-01  5.92000000E-01  5.99000000E-01  6.68000000E-01  6.98000000E-01
  7.18000000E-01  7.26000000E-01  7.36000000E-01  7.43000000E-01  7.45000000E-01
  6.07000000E-01  6.66000000E-01  6.93000000E-01  7.09000000E-01  7.20000000E-01
  7.29000000E-01  7.35000000E-01  7.40000000E-01  6.08000000E-01  7.34000000E-01
  7.46000000E-01  7.55000000E-01  7.61000000E-01  7.65000000E-01  7.67000000E-01
  7.60000000E-01  7.49000000E-01  7.33000000E-01  7.08000000E-01  6.48000000E-01
  6.88000000E-01  7.09000000E-01  7.22000000E-01  7.31000000E-01  7.38000000E-01
  7.44000000E-01  6.09000000E-01  7.30000000E-01  7.41000000E-01  7.52000000E-01
  7.58000000E-01  7.63000000E-01  7.66000000E-01  7.58000000E-01  7.48000000E-01
  7.33000000E-01  7.01000000E-01  6.45000000E-01  6.86000000E-01  7.08000000E-01
  7.22000000E-01  7.31000000E-01  7.38000000E-01  7.44000000E-01  6.08000000E-01
  7.28000000E-01  7.32000000E-01  7.32000000E-01  7.32000000E-01  7.32000000E-01
  7.32000000E-01  7.32000000E-01  7.32000000E-01  7.32000000E-01  7.32000000E-01
  7.31000000E-01  7.31000000E-01  7.31000000E-01  7.31000000E-01  7.46000000E-01
  7.37000000E-01  7.46000000E-01  7.51000000E-01  7.55000000E-01  7.58000000E-01
  7.47000000E-01  7.32000000E-01  7.11000000E-01  7.41000000E-01  7.07000000E-01
  7.47000000E-01  7.43000000E-01  7.42000000E-01  7.42000000E-01  7.43000000E-01
  7.44000000E-01  6.05000000E-01  7.24000000E-01  7.26000000E-01  7.26000000E-01
  7.27000000E-01  7.27000000E-01  7.27000000E-01  7.28000000E-01  7.28000000E-01
  7.28000000E-01  7.28000000E-01  7.28000000E-01  7.29000000E-01  7.29000000E-01
  7.29000000E-01  7.29000000E-01  7.29000000E-01  7.29000000E-01  7.29000000E-01
  7.29000000E-01  7.29000000E-01  7.29000000E-01  7.29000000E-01  7.29000000E-01
  7.29000000E-01  7.29000000E-01  7.29000000E-01  7.29000000E-01  7.29000000E-01
  7.29000000E-01  7.29000000E-01  7.29000000E-01  7.29000000E-01  7.29000000E-01
  7.29000000E-01  7.29000000E-01  7.29000000E-01  7.29000000E-01  7.29000000E-01
  7.29000000E-01  7.29000000E-01  7.29000000E-01  7.29000000E-01  7.29000000E-01
  7.29000000E-01  7.29000000E-01  7.29000000E-01  7.29000000E-01  7.29000000E-01
  7.29000000E-01  7.29000000E-01  7.29000000E-01  7.29000000E-01  7.29000000E-01
  7.29000000E-01  7.29000000E-01  7.29000000E-01  7.29000000E-01  7.29000000E-01
  7.29000000E-01  7.29000000E-01  7.29000000E-01  7.29000000E-01  7.29000000E-01
  7.29000000E-01  7.29000000E-01  7.29000000E-01  7.29000000E-01  7.29000000E-01
  7.29000000E-01  7.29000000E-01  7.29000000E-01  7.29000000E-01  7.29000000E-01
  7.29000000E-01  7.29000000E-01  7.29000000E-01  7.29000000E-01  7.29000000E-01
  7.29000000E-01  7.29000000E-01  7.29000000E-01  7.29000000E-01  7.29000000E-01
  7.29000000E-01  7.29000000E-01  7.29000000E-01  7.29000000E-01  7.29000000E-01
  7.29000000E-01  7.29000000E-01  7.29000000E-01  7.29000000E-01  7.29000000E-01
  7.29000000E-01  7.29000000E-01  7.29000000E-01  7.29000000E-01  7.29000000E-01
  7.29000000E-01  7.29000000E-01  7.29000000E-01  7.29000000E-01  7.29000000E-01
  7.29000000E-01  7.29000000E-01  7.29000000E-01  7.29000000E-01  7.29000000E-01
  7.29000000E-01  7.29000000E-01  7.29000000E-01  7.29000000E-01  7.29000000E-01
  1.00000000E+00  1.70400000E+00  3.23000000E-01  3.89000000E-01  4.67000000E-01
  5.67000000E-01  6.36000000E-01  6.64000000E-01  6.96000000E-01  8.79000000E-01
  3.07000000E-01  3.48000000E-01  4.00000000E-01  4.54000000E-01  5.09000000E-01
  5.65000000E-01  6.21000000E-01  6.77000000E-01  2.56000000E-01  3.50000000E-01
  3.64000000E-01  3.62000000E-01  3.62000000E-01  3.62000000E-01  3.62000000E-01
  3.65000000E-01  3.69000000E-01  3.75000000E-01  3.86000000E-01  4.46000000E-01
  4.55000000E-01  4.74000000E-01  4.96000000E-01  5.20000000E-01  5.45000000E-01
  5.70000000E-01  2.45000000E-01  3.22000000E-01  3.55000000E-01  3.59000000E-01
  3.64000000E-01  3.70000000E-01  3.76000000E-01  3.85000000E-01  3.95000000E-01
  4.08000000E-01  3.76000000E-01  4.23000000E-01  4.22000000E-01  4.32000000E-01
  4.45000000E-01  4.59000000E-01  4.75000000E-01  4.91000000E-01  2.28000000E-01
  2.92000000E-01  2.89000000E-01  2.92000000E-01  2.95000000E-01  2.98000000E-01
  3.00000000E-01  3.03000000E-01  3.06000000E-01  3.09000000E-01  3.12000000E-01
  3.15000000E-01  3.18000000E-01  3.21000000E-01  3.24000000E-01  3.61000000E-01
  3.69000000E-01  3.70000000E-01  3.72000000E-01  3.75000000E-01  3.78000000E-01
  3.85000000E-01  3.94000000E-01  4.07000000E-01  5.26000000E-01  6.21000000E-01
  3.36000000E-01  3.54000000E-01  3.71000000E-01  3.86000000E-01  4.02000000E-01
  4.17000000E-01  2.09000000E-01  2.94000000E-01  2.65000000E-01  2.72000000E-01
  2.78000000E-01  2.84000000E-01  2.91000000E-01  2.97000000E-01  3.03000000E-01
  3.10000000E-01  3.16000000E-01  3.22000000E-01  3.29000000E-01  3.35000000E-01
  3.41000000E-01  3.48000000E-01  3.54000000E-01  3.54000000E-01  3.54000000E-01
  3.54000000E-01  3.54000000E-01  3.54000000E-01  3.54000000E-01  3.54000000E-01
  3.54000000E-01  3.54000000E-01  3.54000000E-01  3.54000000E-01  3.54000000E-01
  3.54000000E-01  3.54000000E-01  3.54000000E-01  3.54000000E-01  3.54000000E-01
  3.54000000E-01  3.54000000E-01  3.54000000E-01  3.54000000E-01  3.54000000E-01
  3.54000000E-01  3.54000000E-01  3.54000000E-01  3.54000000E-01  3.54000000E-01
  3.54000000E-01  3.54000000E-01  3.54000000E-01  3.54000000E-01  3.54000000E-01
  3.54000000E-01  3.54000000E-01  3.54000000E-01  3.54000000E-01  3.54000000E-01
  3.54000000E-01  3.54000000E-01  3.54000000E-01  3.54000000E-01  3.54000000E-01
  3.54000000E-01  3.54000000E-01  3.54000000E-01  3.54000000E-01  3.54000000E-01
  3.54000000E-01  3.54000000E-01  3.54000000E-01  3.54000000E-01  3.54000000E-01
  3.54000000E-01  3.54000000E-01  3.54000000E-01  3.54000000E-01  3.54000000E-01
  3.54000000E-01  3.54000000E-01  3.54000000E-01  3.54000000E-01  3.54000000E-01
  3.54000000E-01  3.54000000E-01  3.54000000E-01  3.54000000E-01  3.54000000E-01
  3.54000000E-01  3.54000000E-01  3.54000000E-01  3.54000000E-01  3.54000000E-01
  3.54000000E-01  3.54000000E-01  3.54000000E-01  3.54000000E-01  3.54000000E-01
  3.54000000E-01  3.54000000E-01  3.54000000E-01  3.54000000E-01  3.54000000E-01
  3.54000000E-01  3.54000000E-01  3.54000000E-01  3.54000000E-01  3.54000000E-01
  3.54000000E-01  3.54000000E-01  3.54000000E-01  3.54000000E-01  3.54000000E-01
  3.54000000E-01  3.54000000E-01  3.54000000E-01  3.54000000E-01  3.54000000E-01
  2.74000000E-01  2.96000000E-01  5.80000000E-02  4.40000000E-02  3.90000000E-02
  3.90000000E-02  3.60000000E-02  3.20000000E-02  2.90000000E-02  3.30000000E-02
  5.50000000E-02  3.90000000E-02  3.30000000E-02  3.00000000E-02  2.80000000E-02
  2.60000000E-02  2.50000000E-02  2.50000000E-02  4.50000000E-02  4.40000000E-02
  3.30000000E-02  2.50000000E-02  2.10000000E-02  1.80000000E-02  1.50000000E-02
  1.80000000E-02  2.10000000E-02  2.50000000E-02  3.30000000E-02  5.00000000E-02
  3.80000000E-02  3.10000000E-02  2.70000000E-02  2.40000000E-02  2.20000000E-02
  2.10000000E-02  4.30000000E-02  4.00000000E-02  3.20000000E-02  2.50000000E-02
  2.10000000E-02  1.80000000E-02  1.60000000E-02  1.90000000E-02  2.20000000E-02
  2.80000000E-02  3.10000000E-02  4.70000000E-02  3.40000000E-02  2.80000000E-02
  2.40000000E-02  2.10000000E-02  1.90000000E-02  1.80000000E-02  3.90000000E-02
  3.60000000E-02  2.50000000E-02  2.50000000E-02  2.50000000E-02  2.60000000E-02
  2.60000000E-02  2.60000000E-02  2.70000000E-02  2.70000000E-02  2.70000000E-02
  2.70000000E-02  2.80000000E-02  2.80000000E-02  2.80000000E-02  3.30000000E-02
  3.30000000E-02  2.60000000E-02  2.10000000E-02  1.80000000E-02  1.60000000E-02
  1.80000000E-02  2.20000000E-02  2.60000000E-02  4.90000000E-02  8.20000000E-02
  3.00000000E-02  2.40000000E-02  2.10000000E-02  1.80000000E-02  1.60000000E-02
  1.50000000E-02  3.50000000E-02  3.60000000E-02  2.20000000E-02  2.30000000E-02
  2.40000000E-02  2.40000000E-02  2.50000000E-02  2.50000000E-02  2.60000000E-02
  2.70000000E-02  2.70000000E-02  2.80000000E-02  2.80000000E-02  2.90000000E-02
  3.00000000E-02  3.00000000E-02  3.10000000E-02  3.10000000E-02  3.10000000E-02
  3.10000000E-02  3.10000000E-02  3.10000000E-02  3.10000000E-02  3.10000000E-02
  3.10000000E-02  3.10000000E-02  3.10000000E-02  3.10000000E-02  3.10000000E-02
  3.10000000E-02  3.10000000E-02  3.10000000E-02  3.10000000E-02  3.10000000E-02
  3.10000000E-02  3.10000000E-02  3.10000000E-02  3.10000000E-02  3.10000000E-02
  3.10000000E-02  3.10000000E-02  3.10000000E-02  3.10000000E-02  3.10000000E-02
  3.10000000E-02  3.10000000E-02  3.10000000E-02  3.10000000E-02  3.10000000E-02
  3.10000000E-02  3.10000000E-02  3.10000000E-02  3.10000000E-02  3.10000000E-02
  3.10000000E-02  3.10000000E-02  3.10000000E-02  3.10000000E-02  3.10000000E-02
  3.10000000E-02  3.10000000E-02  3.10000000E-02  3.10000000E-02  3.10000000E-02
  3.10000000E-02  3.10000000E-02  3.10000000E-02  3.10000000E-02  3.10000000E-02
  3.10000000E-02  3.10000000E-02  3.10000000E-02  3.10000000E-02  3.10000000E-02
  3.10000000E-02  3.10000000E-02  3.10000000E-02  3.10000000E-02  3.10000000E-02
  3.10000000E-02  3.10000000E-02  3.10000000E-02  3.10000000E-02  3.10000000E-02
  3.10000000E-02  3.10000000E-02  3.10000000E-02  3.10000000E-02  3.10000000E-02
  3.10000000E-02  3.10000000E-02  3.10000000E-02  3.10000000E-02  3.10000000E-02
  3.10000000E-02  3.10000000E-02  3.10000000E-02  3.10000000E-02  3.10000000E-02
  3.10000000E-02  3.10000000E-02  3.10000000E-02  3.10000000E-02  3.10000000E-02
  3.10000000E-02  3.10000000E-02  3.10000000E-02  3.10000000E-02  3.10000000E-02
  3.10000000E-02  3.10000000E-02  3.10000000E-02  3.10000000E-02  3.10000000E-02
 -5.92770000E-01 -9.17860000E-01 -2.48668000E+00 -8.36430000E-01 -3.18470000E-01
 -4.55790000E-01 -5.70730000E-01 -6.77940000E-01 -7.69860000E-01 -8.51140000E-01
 -1.51908000E+00 -3.18830000E-01 -2.17900000E-01 -3.01260000E-01 -3.72750000E-01
 -4.15890000E-01 -4.45930000E-01 -5.91320000E-01 -9.56370000E-01 -2.88450000E-01
 -4.87320000E-01 -6.34280000E-01 -7.17490000E-01 -7.91980000E-01 -8.68490000E-01
 -9.17520000E-01 -9.54890000E-01 -9.88460000E-01 -1.50055000E+00 -2.92560000E-01
 -2.14960000E-01 -2.91180000E-01 -3.42080000E-01 -3.84480000E-01 -4.34940000E-01
 -5.24310000E-01 -8.10070000E-01 -2.58460000E-01 -4.35550000E-01 -5.32740000E-01
 -6.08450000E-01 -6.10260000E-01 -7.58920000E-01 -8.90130000E-01 -8.45780000E-01
 -8.69340000E-01 -1.38234000E+00 -2.64850000E-01 -1.97280000E-01 -2.65040000E-01
 -2.94470000E-01 -3.16570000E-01 -3.63590000E-01 -4.57840000E-01 -8.61830000E-01
 -1.33004000E+00 -6.82880000E-01 -6.25540000E-01 -6.35430000E-01 -8.79690000E-01
 -9.02690000E-01 -9.59650000E-01 -1.01869000E+00 -6.81170000E-01 -7.96500000E-01
 -9.04950000E-01 -8.34790000E-01 -9.01560000E-01 -9.74130000E-01 -1.03326000E+00
 -7.15490000E-01 -7.83960000E-01 -8.28380000E-01 -5.61040000E-01 -1.03841000E+00
 -8.62500000E-01 -9.59300000E-01 -1.01755000E+00 -7.64900000E-01 -1.29467000E+00
 -1.92740000E-01 -2.56010000E-01 -3.19820000E-01 -1.94660000E-01 -2.60090000E-01
 -4.27990000E-01  0.00000000E+00  0.00000000E+00  0.00000000E+00  0.00000000E+00
  0.00000000E+00  0.00000000E+00  0.00000000E+00  0.00000000E+00  0.00000000E+00
  0.00000000E+00  0.00000000E+00  0.00000000E+00  0.00000000E+00  0.00000000E+00
  0.00000000E+00  0.00000000E+00  0.00000000E+00  0.00000000E+00  0.00000000E+00
  0.00000000E+00  0.00000000E+00  0.00000000E+00  0.00000000E+00  0.00000000E+00
  0.00000000E+00  0.00000000E+00  0.00000000E+00  0.00000000E+00  0.00000000E+00
  0.00000000E+00  0.00000000E+00  0.00000000E+00  0.00000000E+00  0.00000000E+00
  0.00000000E+00  0.00000000E+00  0.00000000E+00  0.00000000E+00  0.00000000E+00
  0.00000000E+00  0.00000000E+00  0.00000000E+00  0.00000000E+00  0.00000000E+00
  0.00000000E+00  0.00000000E+00  0.00000000E+00  0.00000000E+00  0.00000000E+00
  0.00000000E+00  0.00000000E+00  0.00000000E+00  0.00000000E+00  0.00000000E+00
  0.00000000E+00  0.00000000E+00  0.00000000E+00  0.00000000E+00  0.00000000E+00
  0.00000000E+00  0.00000000E+00  0.00000000E+00  0.00000000E+00  0.00000000E+00
  0.00000000E+00  0.00000000E+00  0.00000000E+00  0.00000000E+00  0.00000000E+00
  0.00000000E+00  0.00000000E+00  0.00000000E+00  0.00000000E+00  0.00000000E+00
  0.00000000E+00  0.00000000E+00  0.00000000E+00  0.00000000E+00  0.00000000E+00
  0.00000000E+00  0.00000000E+00  0.00000000E+00  0.00000000E+00  0.00000000E+00
  0.00000000E+00  0.00000000E+00  0.00000000E+00  0.00000000E+00  0.00000000E+00
  0.00000000E+00  0.00000000E+00  0.00000000E+00  0.00000000E+00  0.00000000E+00
  0.00000000E+00  0.00000000E+00  0.00000000E+00  0.00000000E+00  0.00000000E+00
  0.00000000E+00  0.00000000E+00  0.00000000E+00  0.00000000E+00  0.00000000E+00
  0.00000000E+00  0.00000000E+00  0.00000000E+00  0.00000000E+00  0.00000000E+00
  0.00000000E+00  0.00000000E+00  0.00000000E+00  0.00000000E+00  0.00000000E+00
  1.90440000E+00  1.36430000E+00  4.84000000E-01  7.31600000E+00  9.24030000E+00
  8.78200000E+00  5.61290000E+00  4.83340000E+00  3.24870000E+00  2.71090000E+00
  2.01130000E+00  1.50282000E+01  1.46788000E+01  2.13546000E+01  2.38290000E+01
  1.98022000E+01  1.50468000E+01  1.09745000E+01  1.27219000E+01  1.51949000E+01
  1.57342000E+01  2.79222000E+01  1.61366000E+01  2.21252000E+01  2.45676000E+01
  1.96016000E+01  1.79818000E+01  1.72396000E+01  5.01500000E+00  1.92898000E+01
  2.34477000E+01  2.23993000E+01  2.96586000E+01  2.60081000E+01  2.15580000E+01
  1.69594000E+01  1.56479000E+01  1.86897000E+01  1.93530000E+01  3.43444000E+01
  1.98480000E+01  2.72140000E+01  3.02182000E+01  2.41099000E+01  2.21176000E+01
  2.12047000E+01  7.56690000E+00  2.37264000E+01  2.93879000E+01  3.01278000E+01
  4.19382000E+01  3.85203000E+01  3.39511000E+01  2.75774000E+01  1.56460000E+01
  1.04460000E+01  2.01830000E+01  4.99540000E+01  4.76430000E+01  1.18690000E+01
  1.08670000E+01  9.96100000E+00  9.18700000E+00  3.67980000E+01  1.34070000E+01
  9.38200000E+00  9.81700000E+00  8.90800000E+00  8.40700000E+00  8.05800000E+00
  1.29600000E+01  2.67920000E+01  2.49300000E+01  3.45630000E+01  1.11860000E+01
  1.09440000E+01  1.01270000E+01  9.40400000E+00  1.36660000E+01  7.81000000E+00
  6.93600000E+01  5.86630000E+01  4.79690000E+01  4.52740000E+01  3.92290000E+01
  3.30660000E+01  0.00000000E+00  0.00000000E+00  0.00000000E+00  0.00000000E+00
  0.00000000E+00  0.00000000E+00  0.00000000E+00  0.00000000E+00  0.00000000E+00
  0.00000000E+00  0.00000000E+00  0.00000000E+00  0.00000000E+00  0.00000000E+00
  0.00000000E+00  0.00000000E+00  0.00000000E+00  0.00000000E+00  0.00000000E+00
  0.00000000E+00  0.00000000E+00  0.00000000E+00  0.00000000E+00  0.00000000E+00
  0.00000000E+00  0.00000000E+00  0.00000000E+00  0.00000000E+00  0.00000000E+00
  0.00000000E+00  0.00000000E+00  0.00000000E+00  0.00000000E+00  0.00000000E+00
  0.00000000E+00  0.00000000E+00  0.00000000E+00  0.00000000E+00  0.00000000E+00
  0.00000000E+00  0.00000000E+00  0.00000000E+00  0.00000000E+00  0.00000000E+00
  0.00000000E+00  0.00000000E+00  0.00000000E+00  0.00000000E+00  0.00000000E+00
  0.00000000E+00  0.00000000E+00  0.00000000E+00  0.00000000E+00  0.00000000E+00
  0.00000000E+00  0.00000000E+00  0.00000000E+00  0.00000000E+00  0.00000000E+00
  0.00000000E+00  0.00000000E+00  0.00000000E+00  0.00000000E+00  0.00000000E+00
  0.00000000E+00  0.00000000E+00  0.00000000E+00  0.00000000E+00  0.00000000E+00
  0.00000000E+00  0.00000000E+00  0.00000000E+00  0.00000000E+00  0.00000000E+00
  0.00000000E+00  0.00000000E+00  0.00000000E+00  0.00000000E+00  0.00000000E+00
  0.00000000E+00  0.00000000E+00  0.00000000E+00  0.00000000E+00  0.00000000E+00
  0.00000000E+00  0.00000000E+00  0.00000000E+00  0.00000000E+00  0.00000000E+00
  0.00000000E+00  0.00000000E+00  0.00000000E+00  0.00000000E+00  0.00000000E+00
  0.00000000E+00  0.00000000E+00  0.00000000E+00  0.00000000E+00  0.00000000E+00
  0.00000000E+00  0.00000000E+00  0.00000000E+00  0.00000000E+00  0.00000000E+00
  0.00000000E+00  0.00000000E+00  0.00000000E+00  0.00000000E+00  0.00000000E+00
  0.00000000E+00  0.00000000E+00  0.00000000E+00  0.00000000E+00  0.00000000E+00
  0.00000000E+00  0.00000000E+00  0.00000000E+00  0.00000000E+00  0.00000000E+00
  0.00000000E+00  0.00000000E+00  0.00000000E+00  0.00000000E+00  0.00000000E+00
  0.00000000E+00  0.00000000E+00  0.00000000E+00  0.00000000E+00  0.00000000E+00
  0.00000000E+00  0.00000000E+00  0.00000000E+00  0.00000000E+00  0.00000000E+00
  0.00000000E+00  0.00000000E+00  0.00000000E+00  0.00000000E+00  0.00000000E+00
  0.00000000E+00  0.00000000E+00  0.00000000E+00  0.00000000E+00  0.00000000E+00
  0.00000000E+00  0.00000000E+00  0.00000000E+00  0.00000000E+00  0.00000000E+00
  0.00000000E+00  0.00000000E+00  0.00000000E+00  0.00000000E+00  0.00000000E+00
  0.00000000E+00  0.00000000E+00  0.00000000E+00  0.00000000E+00  0.00000000E+00
  0.00000000E+00  0.00000000E+00  0.00000000E+00  0.00000000E+00  0.00000000E+00
  0.00000000E+00  0.00000000E+00  0.00000000E+00  0.00000000E+00  0.00000000E+00
  0.00000000E+00  0.00000000E+00  0.00000000E+00  0.00000000E+00  0.00000000E+00
  0.00000000E+00  0.00000000E+00  0.00000000E+00  0.00000000E+00  0.00000000E+00
  0.00000000E+00  0.00000000E+00  0.00000000E+00  0.00000000E+00  0.00000000E+00
  0.00000000E+00  0.00000000E+00  0.00000000E+00  0.00000000E+00  0.00000000E+00
  0.00000000E+00  0.00000000E+00  0.00000000E+00  0.00000000E+00  0.00000000E+00
  0.00000000E+00  0.00000000E+00  0.00000000E+00  0.00000000E+00  0.00000000E+00
  0.00000000E+00  0.00000000E+00  0.00000000E+00  0.00000000E+00  0.00000000E+00
  0.00000000E+00  0.00000000E+00  0.00000000E+00  0.00000000E+00  0.00000000E+00
  0.00000000E+00  0.00000000E+00  0.00000000E+00  0.00000000E+00  0.00000000E+00
  0.00000000E+00  0.00000000E+00  0.00000000E+00  0.00000000E+00  0.00000000E+00
  0.00000000E+00  0.00000000E+00  0.00000000E+00  0.00000000E+00  0.00000000E+00
  0.00000000E+00  0.00000000E+00  0.00000000E+00  0.00000000E+00  0.00000000E+00
  0.00000000E+00  0.00000000E+00  0.00000000E+00  0.00000000E+00  0.00000000E+00
  0.00000000E+00  0.00000000E+00  0.00000000E+00  0.00000000E+00  0.00000000E+00
  0.00000000E+00  0.00000000E+00  0.00000000E+00  0.00000000E+00  0.00000000E+00
  0.00000000E+00  0.00000000E+00  0.00000000E+00  0.00000000E+00  0.00000000E+00
  0.00000000E+00  0.00000000E+00  0.00000000E+00  0.00000000E+00  0.00000000E+00
  0.00000000E+00  0.00000000E+00  0.00000000E+00  0.00000000E+00  0.00000000E+00
  0.00000000E+00  0.00000000E+00  0.00000000E+00  0.00000000E+00  0.00000000E+00
  0.00000000E+00  0.00000000E+00  0.00000000E+00  0.00000000E+00  0.00000000E+00
  0.00000000E+00  0.00000000E+00  0.00000000E+00  0.00000000E+00  0.00000000E+00
  0.00000000E+00  0.00000000E+00  0.00000000E+00  0.00000000E+00  0.00000000E+00
  0.00000000E+00  0.00000000E+00  0.00000000E+00  0.00000000E+00  0.00000000E+00
  0.00000000E+00  0.00000000E+00  0.00000000E+00  0.00000000E+00  0.00000000E+00
  0.00000000E+00  0.00000000E+00  0.00000000E+00  0.00000000E+00  0.00000000E+00
  0.00000000E+00  0.00000000E+00  0.00000000E+00  0.00000000E+00  0.00000000E+00
  0.00000000E+00  0.00000000E+00  0.00000000E+00  0.00000000E+00  0.00000000E+00
  0.00000000E+00  0.00000000E+00  0.00000000E+00  0.00000000E+00  0.00000000E+00
  0.00000000E+00  0.00000000E+00  0.00000000E+00  0.00000000E+00  0.00000000E+00
  0.00000000E+00  0.00000000E+00  0.00000000E+00  0.00000000E+00  0.00000000E+00
  0.00000000E+00  0.00000000E+00  0.00000000E+00  0.00000000E+00  0.00000000E+00
  0.00000000E+00  0.00000000E+00  0.00000000E+00  0.00000000E+00  0.00000000E+00
  0.00000000E+00  0.00000000E+00  0.00000000E+00  0.00000000E+00  0.00000000E+00
  0.00000000E+00  0.00000000E+00  0.00000000E+00  0.00000000E+00  0.00000000E+00
  0.00000000E+00  0.00000000E+00  0.00000000E+00  0.00000000E+00  0.00000000E+00
  0.00000000E+00  0.00000000E+00  0.00000000E+00  0.00000000E+00  0.00000000E+00
  0.00000000E+00  0.00000000E+00  0.00000000E+00  0.00000000E+00  0.00000000E+00
  0.00000000E+00  0.00000000E+00  0.00000000E+00  0.00000000E+00  0.00000000E+00
  0.00000000E+00  0.00000000E+00  0.00000000E+00  0.00000000E+00  0.00000000E+00
  0.00000000E+00  0.00000000E+00  0.00000000E+00  0.00000000E+00  0.00000000E+00
  0.00000000E+00  0.00000000E+00  0.00000000E+00  0.00000000E+00  0.00000000E+00
  0.00000000E+00  0.00000000E+00  0.00000000E+00  0.00000000E+00  0.00000000E+00
  0.00000000E+00  0.00000000E+00  0.00000000E+00  0.00000000E+00  0.00000000E+00
  0.00000000E+00  0.00000000E+00  0.00000000E+00  0.00000000E+00  0.00000000E+00
  0.00000000E+00  0.00000000E+00  0.00000000E+00  0.00000000E+00  0.00000000E+00
  0.00000000E+00  0.00000000E+00  0.00000000E+00  0.00000000E+00  0.00000000E+00
  0.00000000E+00  0.00000000E+00  0.00000000E+00  0.00000000E+00  0.00000000E+00
  0.00000000E+00  0.00000000E+00  0.00000000E+00  0.00000000E+00  0.00000000E+00
  0.00000000E+00  0.00000000E+00  0.00000000E+00  0.00000000E+00  0.00000000E+00
  0.00000000E+00  0.00000000E+00  0.00000000E+00  0.00000000E+00  0.00000000E+00
  0.00000000E+00  0.00000000E+00  0.00000000E+00  0.00000000E+00  0.00000000E+00
  0.00000000E+00  0.00000000E+00  0.00000000E+00  0.00000000E+00  0.00000000E+00
  0.00000000E+00  0.00000000E+00  0.00000000E+00  0.00000000E+00  0.00000000E+00
  0.00000000E+00  0.00000000E+00  0.00000000E+00  0.00000000E+00  0.00000000E+00
  0.00000000E+00  0.00000000E+00  0.00000000E+00  0.00000000E+00  0.00000000E+00
  0.00000000E+00  0.00000000E+00  0.00000000E+00  0.00000000E+00  0.00000000E+00
  0.00000000E+00  0.00000000E+00  0.00000000E+00  0.00000000E+00  0.00000000E+00
  0.00000000E+00  0.00000000E+00  0.00000000E+00  0.00000000E+00  0.00000000E+00
  0.00000000E+00  0.00000000E+00  0.00000000E+00  0.00000000E+00  0.00000000E+00
  0.00000000E+00  0.00000000E+00  0.00000000E+00  0.00000000E+00  0.00000000E+00
  0.00000000E+00  0.00000000E+00  0.00000000E+00  0.00000000E+00  0.00000000E+00
  0.00000000E+00  0.00000000E+00  0.00000000E+00  0.00000000E+00  0.00000000E+00
  0.00000000E+00  0.00000000E+00  0.00000000E+00  0.00000000E+00  0.00000000E+00
  0.00000000E+00  0.00000000E+00  0.00000000E+00  0.00000000E+00  0.00000000E+00
  0.00000000E+00  0.00000000E+00  0.00000000E+00  0.00000000E+00  0.00000000E+00
  0.00000000E+00  0.00000000E+00  0.00000000E+00  0.00000000E+00  0.00000000E+00
  0.00000000E+00  0.00000000E+00  0.00000000E+00  0.00000000E+00  0.00000000E+00
  0.00000000E+00  0.00000000E+00  0.00000000E+00  0.00000000E+00  0.00000000E+00
  0.00000000E+00  0.00000000E+00  0.00000000E+00  0.00000000E+00  0.00000000E+00
  0.00000000E+00  0.00000000E+00  0.00000000E+00  0.00000000E+00  0.00000000E+00
  0.00000000E+00  0.00000000E+00  0.00000000E+00  0.00000000E+00  0.00000000E+00
  0.00000000E+00  0.00000000E+00  0.00000000E+00  0.00000000E+00  0.00000000E+00
  0.00000000E+00  0.00000000E+00  0.00000000E+00  0.00000000E+00  0.00000000E+00
  0.00000000E+00  0.00000000E+00  0.00000000E+00  0.00000000E+00  0.00000000E+00
  0.00000000E+00  0.00000000E+00  0.00000000E+00  0.00000000E+00  0.00000000E+00
  0.00000000E+00  0.00000000E+00  0.00000000E+00  0.00000000E+00  0.00000000E+00
  0.00000000E+00  0.00000000E+00  0.00000000E+00  0.00000000E+00  0.00000000E+00
  0.00000000E+00  0.00000000E+00  0.00000000E+00  0.00000000E+00  0.00000000E+00
  0.00000000E+00  0.00000000E+00  0.00000000E+00  0.00000000E+00  0.00000000E+00
  0.00000000E+00  0.00000000E+00  0.00000000E+00  0.00000000E+00  0.00000000E+00
  0.00000000E+00  0.00000000E+00  0.00000000E+00  0.00000000E+00  0.00000000E+00
  0.00000000E+00  0.00000000E+00  0.00000000E+00  0.00000000E+00  0.00000000E+00
  0.00000000E+00  0.00000000E+00  0.00000000E+00  0.00000000E+00  0.00000000E+00
  0.00000000E+00  0.00000000E+00  0.00000000E+00  0.00000000E+00  0.00000000E+00
  0.00000000E+00  0.00000000E+00  0.00000000E+00  0.00000000E+00  0.00000000E+00
  0.00000000E+00  0.00000000E+00  0.00000000E+00  0.00000000E+00  0.00000000E+00
  0.00000000E+00  0.00000000E+00  0.00000000E+00  0.00000000E+00  0.00000000E+00
  0.00000000E+00  0.00000000E+00  0.00000000E+00  0.00000000E+00  0.00000000E+00
  0.00000000E+00  0.00000000E+00  0.00000000E+00  0.00000000E+00  0.00000000E+00
  0.00000000E+00  0.00000000E+00  0.00000000E+00  0.00000000E+00  0.00000000E+00
  0.00000000E+00  0.00000000E+00  0.00000000E+00  0.00000000E+00  0.00000000E+00
  0.00000000E+00  0.00000000E+00  0.00000000E+00  0.00000000E+00  0.00000000E+00
  0.00000000E+00  0.00000000E+00  0.00000000E+00  0.00000000E+00  0.00000000E+00
  0.00000000E+00  0.00000000E+00  0.00000000E+00  0.00000000E+00  0.00000000E+00
  0.00000000E+00  0.00000000E+00  0.00000000E+00  0.00000000E+00  0.00000000E+00
  0.00000000E+00  0.00000000E+00  0.00000000E+00  0.00000000E+00  0.00000000E+00
  0.00000000E+00  0.00000000E+00  0.00000000E+00  0.00000000E+00  0.00000000E+00
  0.00000000E+00  0.00000000E+00  0.00000000E+00  0.00000000E+00  0.00000000E+00
  0.00000000E+00  0.00000000E+00  0.00000000E+00  0.00000000E+00  0.00000000E+00
  0.00000000E+00  0.00000000E+00  0.00000000E+00  0.00000000E+00  0.00000000E+00
  0.00000000E+00  0.00000000E+00  0.00000000E+00  0.00000000E+00  0.00000000E+00
  0.00000000E+00  0.00000000E+00  0.00000000E+00  0.00000000E+00  0.00000000E+00
  0.00000000E+00  0.00000000E+00  0.00000000E+00  0.00000000E+00  0.00000000E+00
  0.00000000E+00  0.00000000E+00  0.00000000E+00  0.00000000E+00  0.00000000E+00
  0.00000000E+00  0.00000000E+00  0.00000000E+00  0.00000000E+00  0.00000000E+00
  0.00000000E+00  0.00000000E+00  0.00000000E+00  0.00000000E+00  0.00000000E+00
  0.00000000E+00  0.00000000E+00  0.00000000E+00  0.00000000E+00  0.00000000E+00
  0.00000000E+00  0.00000000E+00  0.00000000E+00  0.00000000E+00  0.00000000E+00
  0.00000000E+00  0.00000000E+00  0.00000000E+00  0.00000000E+00  0.00000000E+00
  0.00000000E+00  0.00000000E+00  0.00000000E+00  0.00000000E+00  0.00000000E+00
  0.00000000E+00  0.00000000E+00  0.00000000E+00  0.00000000E+00  0.00000000E+00
  0.00000000E+00  0.00000000E+00  0.00000000E+00  0.00000000E+00  0.00000000E+00
  0.00000000E+00  0.00000000E+00  0.00000000E+00  0.00000000E+00  0.00000000E+00
  0.00000000E+00  0.00000000E+00  0.00000000E+00  0.00000000E+00  0.00000000E+00
  0.00000000E+00  0.00000000E+00  0.00000000E+00  0.00000000E+00  0.00000000E+00
  0.00000000E+00  0.00000000E+00  0.00000000E+00  0.00000000E+00  0.00000000E+00
  0.00000000E+00  0.00000000E+00  0.00000000E+00  0.00000000E+00  0.00000000E+00
  0.00000000E+00  0.00000000E+00  0.00000000E+00  0.00000000E+00  0.00000000E+00
  0.00000000E+00  0.00000000E+00  0.00000000E+00  0.00000000E+00  0.00000000E+00
  0.00000000E+00  0.00000000E+00  0.00000000E+00  0.00000000E+00  0.00000000E+00
  0.00000000E+00  0.00000000E+00  0.00000000E+00  0.00000000E+00  0.00000000E+00
  0.00000000E+00  0.00000000E+00  0.00000000E+00  0.00000000E+00  0.00000000E+00
  0.00000000E+00  0.00000000E+00  0.00000000E+00  0.00000000E+00  0.00000000E+00
  0.00000000E+00  0.00000000E+00  0.00000000E+00  0.00000000E+00  0.00000000E+00
  0.00000000E+00  0.00000000E+00  0.00000000E+00  0.00000000E+00  0.00000000E+00
  0.00000000E+00  0.00000000E+00  0.00000000E+00  0.00000000E+00  0.00000000E+00
  0.00000000E+00  0.00000000E+00  0.00000000E+00  0.00000000E+00  0.00000000E+00
  0.00000000E+00  0.00000000E+00  0.00000000E+00  0.00000000E+00  0.00000000E+00
  0.00000000E+00  0.00000000E+00  0.00000000E+00  0.00000000E+00  0.00000000E+00
  0.00000000E+00  0.00000000E+00  0.00000000E+00  0.00000000E+00  0.00000000E+00
  0.00000000E+00  0.00000000E+00  0.00000000E+00  0.00000000E+00  0.00000000E+00
  0.00000000E+00  0.00000000E+00  0.00000000E+00  0.00000000E+00  0.00000000E+00
  0.00000000E+00  0.00000000E+00  0.00000000E+00  0.00000000E+00  0.00000000E+00
  0.00000000E+00  0.00000000E+00  0.00000000E+00  0.00000000E+00  0.00000000E+00
  0.00000000E+00  0.00000000E+00  0.00000000E+00  0.00000000E+00  0.00000000E+00
  0.00000000E+00  0.00000000E+00  0.00000000E+00  0.00000000E+00  0.00000000E+00
  0.00000000E+00  0.00000000E+00  0.00000000E+00  0.00000000E+00  0.00000000E+00
  0.00000000E+00  0.00000000E+00  0.00000000E+00  0.00000000E+00  0.00000000E+00
  0.00000000E+00  0.00000000E+00  0.00000000E+00  0.00000000E+00  0.00000000E+00
  0.00000000E+00  0.00000000E+00  0.00000000E+00  0.00000000E+00  0.00000000E+00
  0.00000000E+00  0.00000000E+00  0.00000000E+00  0.00000000E+00  0.00000000E+00
  0.00000000E+00  0.00000000E+00  0.00000000E+00  0.00000000E+00  0.00000000E+00
  0.00000000E+00  0.00000000E+00  0.00000000E+00  0.00000000E+00  0.00000000E+00
  0.00000000E+00  0.00000000E+00  0.00000000E+00  0.00000000E+00  0.00000000E+00
  0.00000000E+00  0.00000000E+00  0.00000000E+00  0.00000000E+00  0.00000000E+00
  0.00000000E+00  0.00000000E+00  0.00000000E+00  0.00000000E+00  0.00000000E+00
  0.00000000E+00  0.00000000E+00  0.00000000E+00  0.00000000E+00  0.00000000E+00
  0.00000000E+00  0.00000000E+00  0.00000000E+00  0.00000000E+00  0.00000000E+00
  0.00000000E+00  0.00000000E+00  0.00000000E+00  0.00000000E+00  0.00000000E+00
  0.00000000E+00  0.00000000E+00  0.00000000E+00  0.00000000E+00  0.00000000E+00
  0.00000000E+00  0.00000000E+00  0.00000000E+00  0.00000000E+00  0.00000000E+00
  0.00000000E+00  0.00000000E+00  0.00000000E+00  0.00000000E+00  0.00000000E+00
  0.00000000E+00  0.00000000E+00  0.00000000E+00  0.00000000E+00  0.00000000E+00
  0.00000000E+00  0.00000000E+00  0.00000000E+00  0.00000000E+00  0.00000000E+00
  0.00000000E+00  0.00000000E+00  0.00000000E+00  0.00000000E+00  0.00000000E+00
  0.00000000E+00  0.00000000E+00  0.00000000E+00  0.00000000E+00  0.00000000E+00
  0.00000000E+00  0.00000000E+00  0.00000000E+00  0.00000000E+00  0.00000000E+00
  0.00000000E+00  0.00000000E+00  0.00000000E+00  0.00000000E+00  0.00000000E+00
  0.00000000E+00  0.00000000E+00  0.00000000E+00  0.00000000E+00  0.00000000E+00
  0.00000000E+00  0.00000000E+00  0.00000000E+00  0.00000000E+00  0.00000000E+00
  0.00000000E+00  0.00000000E+00  0.00000000E+00  0.00000000E+00  0.00000000E+00
  0.00000000E+00  0.00000000E+00  0.00000000E+00  0.00000000E+00  0.00000000E+00
  0.00000000E+00  0.00000000E+00  0.00000000E+00  0.00000000E+00  0.00000000E+00
  0.00000000E+00  0.00000000E+00  0.00000000E+00  0.00000000E+00  0.00000000E+00
  0.00000000E+00  0.00000000E+00  0.00000000E+00  0.00000000E+00  0.00000000E+00
  0.00000000E+00  0.00000000E+00  0.00000000E+00  0.00000000E+00  0.00000000E+00
  0.00000000E+00  0.00000000E+00  0.00000000E+00  0.00000000E+00  0.00000000E+00
  0.00000000E+00  0.00000000E+00  0.00000000E+00  0.00000000E+00  0.00000000E+00
  0.00000000E+00  0.00000000E+00  0.00000000E+00  0.00000000E+00  0.00000000E+00
  0.00000000E+00  0.00000000E+00  0.00000000E+00  0.00000000E+00  0.00000000E+00
  0.00000000E+00  0.00000000E+00  0.00000000E+00  0.00000000E+00  0.00000000E+00
  0.00000000E+00  0.00000000E+00  0.00000000E+00  0.00000000E+00  0.00000000E+00
  0.00000000E+00  0.00000000E+00  0.00000000E+00  0.00000000E+00  0.00000000E+00
  0.00000000E+00  0.00000000E+00  0.00000000E+00  0.00000000E+00  0.00000000E+00
  0.00000000E+00  0.00000000E+00  0.00000000E+00  0.00000000E+00  0.00000000E+00
  0.00000000E+00  0.00000000E+00  0.00000000E+00  0.00000000E+00  0.00000000E+00
  0.00000000E+00  0.00000000E+00  0.00000000E+00  0.00000000E+00  0.00000000E+00
  0.00000000E+00  0.00000000E+00  0.00000000E+00  0.00000000E+00  0.00000000E+00
  0.00000000E+00  0.00000000E+00  0.00000000E+00  0.00000000E+00  0.00000000E+00
  0.00000000E+00  0.00000000E+00  0.00000000E+00  0.00000000E+00  0.00000000E+00
  0.00000000E+00  0.00000000E+00  0.00000000E+00  0.00000000E+00  0.00000000E+00
  0.00000000E+00  0.00000000E+00  0.00000000E+00  0.00000000E+00  0.00000000E+00
  0.00000000E+00  0.00000000E+00  0.00000000E+00  0.00000000E+00  0.00000000E+00
  0.00000000E+00  0.00000000E+00  0.00000000E+00  0.00000000E+00  0.00000000E+00
  0.00000000E+00  0.00000000E+00  0.00000000E+00  0.00000000E+00  0.00000000E+00
  0.00000000E+00  0.00000000E+00  0.00000000E+00  0.00000000E+00  0.00000000E+00
  0.00000000E+00  0.00000000E+00  0.00000000E+00  0.00000000E+00  0.00000000E+00
  0.00000000E+00  0.00000000E+00  0.00000000E+00  0.00000000E+00  0.00000000E+00
  0.00000000E+00  0.00000000E+00  0.00000000E+00  0.00000000E+00  0.00000000E+00
  0.00000000E+00  0.00000000E+00  0.00000000E+00  0.00000000E+00  0.00000000E+00
  0.00000000E+00  0.00000000E+00  0.00000000E+00  0.00000000E+00  0.00000000E+00
  0.00000000E+00  0.00000000E+00  0.00000000E+00  0.00000000E+00  0.00000000E+00
  0.00000000E+00  0.00000000E+00  0.00000000E+00  0.00000000E+00  0.00000000E+00
  0.00000000E+00  0.00000000E+00  0.00000000E+00  0.00000000E+00  0.00000000E+00
  0.00000000E+00  0.00000000E+00  0.00000000E+00  0.00000000E+00  0.00000000E+00
  0.00000000E+00  0.00000000E+00  0.00000000E+00  0.00000000E+00  0.00000000E+00
  0.00000000E+00  0.00000000E+00  0.00000000E+00  0.00000000E+00  0.00000000E+00
  0.00000000E+00  0.00000000E+00  0.00000000E+00  0.00000000E+00  0.00000000E+00
  0.00000000E+00  0.00000000E+00  0.00000000E+00  0.00000000E+00  0.00000000E+00
  0.00000000E+00  0.00000000E+00  0.00000000E+00  0.00000000E+00  0.00000000E+00
  0.00000000E+00  0.00000000E+00  0.00000000E+00  0.00000000E+00  0.00000000E+00
  0.00000000E+00  0.00000000E+00  0.00000000E+00  0.00000000E+00  0.00000000E+00
  0.00000000E+00  0.00000000E+00  0.00000000E+00  0.00000000E+00  0.00000000E+00
  0.00000000E+00  0.00000000E+00  0.00000000E+00  0.00000000E+00  0.00000000E+00
  0.00000000E+00  0.00000000E+00  0.00000000E+00  0.00000000E+00  0.00000000E+00
  0.00000000E+00  0.00000000E+00  0.00000000E+00  0.00000000E+00  0.00000000E+00
  0.00000000E+00  0.00000000E+00  0.00000000E+00  0.00000000E+00  0.00000000E+00
  0.00000000E+00  0.00000000E+00  0.00000000E+00  0.00000000E+00  0.00000000E+00
  0.00000000E+00  0.00000000E+00  0.00000000E+00  0.00000000E+00  0.00000000E+00
  0.00000000E+00  0.00000000E+00  0.00000000E+00  0.00000000E+00  0.00000000E+00
  0.00000000E+00  0.00000000E+00  0.00000000E+00  0.00000000E+00  0.00000000E+00
  0.00000000E+00  0.00000000E+00  0.00000000E+00  0.00000000E+00  0.00000000E+00
  0.00000000E+00  0.00000000E+00  0.00000000E+00  0.00000000E+00  0.00000000E+00
  0.00000000E+00  0.00000000E+00  0.00000000E+00  0.00000000E+00  0.00000000E+00
  0.00000000E+00  0.00000000E+00  0.00000000E+00  0.00000000E+00  0.00000000E+00
  0.00000000E+00  0.00000000E+00  0.00000000E+00  0.00000000E+00  0.00000000E+00
  0.00000000E+00  0.00000000E+00  0.00000000E+00  0.00000000E+00  0.00000000E+00
  0.00000000E+00  0.00000000E+00  0.00000000E+00  0.00000000E+00  0.00000000E+00
  0.00000000E+00  0.00000000E+00  0.00000000E+00  0.00000000E+00  0.00000000E+00
  0.00000000E+00  0.00000000E+00  0.00000000E+00  0.00000000E+00  0.00000000E+00
  0.00000000E+00  0.00000000E+00  0.00000000E+00  0.00000000E+00  0.00000000E+00
  0.00000000E+00  0.00000000E+00  0.00000000E+00  0.00000000E+00  0.00000000E+00
  0.00000000E+00  0.00000000E+00  0.00000000E+00  0.00000000E+00  0.00000000E+00
  0.00000000E+00  0.00000000E+00  0.00000000E+00  0.00000000E+00  0.00000000E+00
  0.00000000E+00  0.00000000E+00  0.00000000E+00  0.00000000E+00  0.00000000E+00
  0.00000000E+00  0.00000000E+00  0.00000000E+00  0.00000000E+00  0.00000000E+00
  0.00000000E+00  0.00000000E+00  0.00000000E+00  0.00000000E+00  0.00000000E+00
  0.00000000E+00  0.00000000E+00  0.00000000E+00  0.00000000E+00  0.00000000E+00
  0.00000000E+00  0.00000000E+00  0.00000000E+00  0.00000000E+00  0.00000000E+00
  0.00000000E+00  0.00000000E+00  0.00000000E+00  0.00000000E+00  0.00000000E+00
  0.00000000E+00  0.00000000E+00  0.00000000E+00  0.00000000E+00  0.00000000E+00
  0.00000000E+00  0.00000000E+00  0.00000000E+00  0.00000000E+00  0.00000000E+00
  0.00000000E+00  0.00000000E+00  0.00000000E+00  0.00000000E+00  0.00000000E+00
  0.00000000E+00  0.00000000E+00  0.00000000E+00  0.00000000E+00  0.00000000E+00
  0.00000000E+00  0.00000000E+00  0.00000000E+00  0.00000000E+00  0.00000000E+00
  0.00000000E+00  0.00000000E+00  0.00000000E+00  0.00000000E+00  0.00000000E+00
  0.00000000E+00  0.00000000E+00  0.00000000E+00  0.00000000E+00  0.00000000E+00
  0.00000000E+00  0.00000000E+00  0.00000000E+00  0.00000000E+00  0.00000000E+00
  0.00000000E+00  0.00000000E+00  0.00000000E+00  0.00000000E+00  0.00000000E+00
  0.00000000E+00  0.00000000E+00  0.00000000E+00  0.00000000E+00  0.00000000E+00
  0.00000000E+00  0.00000000E+00  0.00000000E+00  0.00000000E+00  0.00000000E+00
  0.00000000E+00  0.00000000E+00  0.00000000E+00  0.00000000E+00  0.00000000E+00
  0.00000000E+00  0.00000000E+00  0.00000000E+00  0.00000000E+00  0.00000000E+00
  0.00000000E+00  0.00000000E+00  0.00000000E+00  0.00000000E+00  0.00000000E+00
  0.00000000E+00  0.00000000E+00  0.00000000E+00  0.00000000E+00  0.00000000E+00
  0.00000000E+00  0.00000000E+00  0.00000000E+00  0.00000000E+00  0.00000000E+00
  0.00000000E+00  0.00000000E+00  0.00000000E+00  0.00000000E+00  0.00000000E+00
  0.00000000E+00  0.00000000E+00  0.00000000E+00  0.00000000E+00  0.00000000E+00
  0.00000000E+00  0.00000000E+00  0.00000000E+00  0.00000000E+00  0.00000000E+00
  0.00000000E+00  0.00000000E+00  0.00000000E+00  0.00000000E+00  0.00000000E+00
  0.00000000E+00  0.00000000E+00  0.00000000E+00  0.00000000E+00  0.00000000E+00
  0.00000000E+00  0.00000000E+00  0.00000000E+00  0.00000000E+00  0.00000000E+00
  0.00000000E+00  0.00000000E+00  0.00000000E+00  0.00000000E+00  0.00000000E+00
  0.00000000E+00  0.00000000E+00  0.00000000E+00  0.00000000E+00  0.00000000E+00
  0.00000000E+00  0.00000000E+00  0.00000000E+00  0.00000000E+00  0.00000000E+00
  0.00000000E+00  0.00000000E+00  0.00000000E+00  0.00000000E+00  0.00000000E+00
  0.00000000E+00  0.00000000E+00  0.00000000E+00  0.00000000E+00  0.00000000E+00
  0.00000000E+00  0.00000000E+00  0.00000000E+00  0.00000000E+00  0.00000000E+00
  0.00000000E+00  0.00000000E+00  0.00000000E+00  0.00000000E+00  0.00000000E+00
  0.00000000E+00  0.00000000E+00  0.00000000E+00  0.00000000E+00  0.00000000E+00
  0.00000000E+00  0.00000000E+00  0.00000000E+00  0.00000000E+00  0.00000000E+00
  0.00000000E+00  0.00000000E+00  0.00000000E+00  0.00000000E+00  0.00000000E+00
  0.00000000E+00  0.00000000E+00  0.00000000E+00  0.00000000E+00  0.00000000E+00
  0.00000000E+00  0.00000000E+00  0.00000000E+00  0.00000000E+00  0.00000000E+00
  0.00000000E+00  0.00000000E+00  0.00000000E+00  0.00000000E+00  0.00000000E+00
  0.00000000E+00  0.00000000E+00  0.00000000E+00  0.00000000E+00  0.00000000E+00
  0.00000000E+00  0.00000000E+00  0.00000000E+00  0.00000000E+00  0.00000000E+00
  0.00000000E+00  0.00000000E+00  0.00000000E+00  0.00000000E+00  0.00000000E+00
  0.00000000E+00  0.00000000E+00  0.00000000E+00  0.00000000E+00  0.00000000E+00
  0.00000000E+00  0.00000000E+00  0.00000000E+00  0.00000000E+00  0.00000000E+00
  0.00000000E+00  0.00000000E+00  0.00000000E+00  0.00000000E+00  0.00000000E+00
  0.00000000E+00  0.00000000E+00  0.00000000E+00  0.00000000E+00  0.00000000E+00
  0.00000000E+00  0.00000000E+00  0.00000000E+00  0.00000000E+00  0.00000000E+00
  0.00000000E+00  0.00000000E+00  0.00000000E+00  0.00000000E+00  0.00000000E+00
  0.00000000E+00  0.00000000E+00  0.00000000E+00  0.00000000E+00  0.00000000E+00
  0.00000000E+00  0.00000000E+00  0.00000000E+00  0.00000000E+00  0.00000000E+00
  0.00000000E+00  0.00000000E+00  0.00000000E+00  0.00000000E+00  0.00000000E+00
  0.00000000E+00  0.00000000E+00  0.00000000E+00  0.00000000E+00  0.00000000E+00
  0.00000000E+00  0.00000000E+00  0.00000000E+00  0.00000000E+00  0.00000000E+00
  0.00000000E+00  0.00000000E+00  0.00000000E+00  0.00000000E+00  0.00000000E+00
  0.00000000E+00  0.00000000E+00  0.00000000E+00  0.00000000E+00  0.00000000E+00
  0.00000000E+00  0.00000000E+00  0.00000000E+00  0.00000000E+00  0.00000000E+00
  0.00000000E+00  0.00000000E+00  0.00000000E+00  0.00000000E+00  0.00000000E+00
  0.00000000E+00  0.00000000E+00  0.00000000E+00  0.00000000E+00  0.00000000E+00
  0.00000000E+00  0.00000000E+00  0.00000000E+00  0.00000000E+00  0.00000000E+00
  0.00000000E+00  0.00000000E+00  0.00000000E+00  0.00000000E+00  0.00000000E+00
  0.00000000E+00  0.00000000E+00  0.00000000E+00  0.00000000E+00  0.00000000E+00
  0.00000000E+00  0.00000000E+00  0.00000000E+00  0.00000000E+00  0.00000000E+00
  0.00000000E+00  0.00000000E+00  0.00000000E+00  0.00000000E+00  0.00000000E+00
  0.00000000E+00  0.00000000E+00  0.00000000E+00  0.00000000E+00  0.00000000E+00
  0.00000000E+00  0.00000000E+00  0.00000000E+00  0.00000000E+00  0.00000000E+00
  0.00000000E+00  0.00000000E+00  0.00000000E+00  0.00000000E+00  0.00000000E+00
  0.00000000E+00  0.00000000E+00  0.00000000E+00  0.00000000E+00  0.00000000E+00
  0.00000000E+00  0.00000000E+00  0.00000000E+00  0.00000000E+00  0.00000000E+00
  0.00000000E+00  0.00000000E+00  0.00000000E+00  0.00000000E+00  0.00000000E+00
  0.00000000E+00  0.00000000E+00  0.00000000E+00  0.00000000E+00  0.00000000E+00
  0.00000000E+00  0.00000000E+00  0.00000000E+00  0.00000000E+00  0.00000000E+00
  0.00000000E+00  0.00000000E+00  0.00000000E+00  0.00000000E+00  0.00000000E+00
  0.00000000E+00  0.00000000E+00  0.00000000E+00  0.00000000E+00  0.00000000E+00
  0.00000000E+00  0.00000000E+00  0.00000000E+00  0.00000000E+00  0.00000000E+00
  0.00000000E+00  0.00000000E+00  0.00000000E+00  0.00000000E+00  0.00000000E+00
  0.00000000E+00  0.00000000E+00  0.00000000E+00  0.00000000E+00  0.00000000E+00
  0.00000000E+00  0.00000000E+00  0.00000000E+00  0.00000000E+00  0.00000000E+00
  0.00000000E+00  0.00000000E+00  0.00000000E+00  0.00000000E+00  0.00000000E+00
  0.00000000E+00  0.00000000E+00  0.00000000E+00  0.00000000E+00  0.00000000E+00
  0.00000000E+00  0.00000000E+00  0.00000000E+00  0.00000000E+00  0.00000000E+00
  0.00000000E+00  0.00000000E+00  0.00000000E+00  0.00000000E+00  0.00000000E+00
  0.00000000E+00  0.00000000E+00  0.00000000E+00  0.00000000E+00  0.00000000E+00
  0.00000000E+00  0.00000000E+00  0.00000000E+00  0.00000000E+00  0.00000000E+00
  0.00000000E+00  0.00000000E+00  0.00000000E+00  0.00000000E+00  0.00000000E+00
  0.00000000E+00  0.00000000E+00  0.00000000E+00  0.00000000E+00  0.00000000E+00
  0.00000000E+00  0.00000000E+00  0.00000000E+00  0.00000000E+00  0.00000000E+00
  0.00000000E+00  0.00000000E+00  0.00000000E+00  0.00000000E+00  0.00000000E+00
  0.00000000E+00  0.00000000E+00  0.00000000E+00  0.00000000E+00  0.00000000E+00
  0.00000000E+00  0.00000000E+00  0.00000000E+00  0.00000000E+00  0.00000000E+00
  0.00000000E+00  0.00000000E+00  0.00000000E+00  0.00000000E+00  0.00000000E+00
  0.00000000E+00  0.00000000E+00  0.00000000E+00  0.00000000E+00  0.00000000E+00
  0.00000000E+00  0.00000000E+00  0.00000000E+00  0.00000000E+00  0.00000000E+00
  0.00000000E+00  0.00000000E+00  0.00000000E+00  0.00000000E+00  0.00000000E+00
  0.00000000E+00  0.00000000E+00  0.00000000E+00  0.00000000E+00  0.00000000E+00
  0.00000000E+00  0.00000000E+00  0.00000000E+00  0.00000000E+00  0.00000000E+00
  0.00000000E+00  0.00000000E+00  0.00000000E+00  0.00000000E+00  0.00000000E+00
  0.00000000E+00  0.00000000E+00  0.00000000E+00  0.00000000E+00  0.00000000E+00
  0.00000000E+00  0.00000000E+00  0.00000000E+00  0.00000000E+00  0.00000000E+00
  0.00000000E+00  0.00000000E+00  0.00000000E+00  0.00000000E+00  0.00000000E+00
  0.00000000E+00  0.00000000E+00  0.00000000E+00  0.00000000E+00  0.00000000E+00
  0.00000000E+00  0.00000000E+00  0.00000000E+00  0.00000000E+00  0.00000000E+00
  0.00000000E+00  0.00000000E+00  0.00000000E+00  0.00000000E+00  0.00000000E+00
  0.00000000E+00  0.00000000E+00  0.00000000E+00  0.00000000E+00  0.00000000E+00
  0.00000000E+00  0.00000000E+00  0.00000000E+00  0.00000000E+00  0.00000000E+00
  0.00000000E+00  0.00000000E+00  0.00000000E+00  0.00000000E+00  0.00000000E+00
  0.00000000E+00  0.00000000E+00  0.00000000E+00  0.00000000E+00  0.00000000E+00
  0.00000000E+00  0.00000000E+00  0.00000000E+00  0.00000000E+00  0.00000000E+00
  0.00000000E+00  0.00000000E+00  0.00000000E+00  0.00000000E+00  0.00000000E+00
  0.00000000E+00  0.00000000E+00  0.00000000E+00  0.00000000E+00  0.00000000E+00
  0.00000000E+00  0.00000000E+00  0.00000000E+00  0.00000000E+00  0.00000000E+00
  0.00000000E+00  0.00000000E+00  0.00000000E+00  0.00000000E+00  0.00000000E+00
  0.00000000E+00  0.00000000E+00  0.00000000E+00  0.00000000E+00  0.00000000E+00
  0.00000000E+00  0.00000000E+00  0.00000000E+00  0.00000000E+00  0.00000000E+00
  0.00000000E+00  0.00000000E+00  0.00000000E+00  0.00000000E+00  0.00000000E+00
  0.00000000E+00  0.00000000E+00  0.00000000E+00  0.00000000E+00  0.00000000E+00
  0.00000000E+00  0.00000000E+00  0.00000000E+00  0.00000000E+00  0.00000000E+00
  0.00000000E+00  0.00000000E+00  0.00000000E+00  0.00000000E+00  0.00000000E+00
  0.00000000E+00  0.00000000E+00  0.00000000E+00  0.00000000E+00  0.00000000E+00
  0.00000000E+00  0.00000000E+00  0.00000000E+00  0.00000000E+00  0.00000000E+00
  0.00000000E+00  0.00000000E+00  0.00000000E+00  0.00000000E+00  0.00000000E+00
  0.00000000E+00  0.00000000E+00  0.00000000E+00  0.00000000E+00  0.00000000E+00
  0.00000000E+00  0.00000000E+00  0.00000000E+00  0.00000000E+00  0.00000000E+00
  0.00000000E+00  0.00000000E+00  0.00000000E+00  0.00000000E+00  0.00000000E+00
Gaussian Version                           C   N=           2
EM64M-G16RevA.03        
