Title Card Required                                                     
SP        UCCSD(T)-FC                                                 Aug-CC-pVTZ         
Number of atoms                            I                1
Info1-9                                    I   N=           9
          10          10           0           0           0         110
           1          17         301
Full Title                                 C   N=           2
Title Card Required     
Route                                      C   N=           2
# ccsd(t)/aug-cc-pvtz   
Charge                                     I                0
Multiplicity                               I                2
Number of electrons                        I                9
Number of alpha electrons                  I                5
Number of beta electrons                   I                4
Number of basis functions                  I               46
Number of independent functions            I               46
Number of point charges in /Mol/           I                0
Number of translation vectors              I                0
Atomic numbers                             I   N=           1
           9
Nuclear charges                            R   N=           1
  9.00000000E+00
Current cartesian coordinates              R   N=           3
  0.00000000E+00  0.00000000E+00  0.00000000E+00
Number of symbols in /Mol/                 I                0
Int Atom Types                             I   N=           1
           0
Force Field                                I                0
Atom Types                                 C   N=           1
            
MM charges                                 R   N=           1
  0.00000000E+00
Integer atomic weights                     I   N=           1
          19
Real atomic weights                        R   N=           1
  1.89984032E+01
Atom fragment info                         I   N=           1
           0
Atom residue num                           I   N=           1
           0
Nuclear spins                              I   N=           1
           1
Nuclear ZEff                               R   N=           1
 -6.75000000E+00
Nuclear ZNuc                               R   N=           1
  9.00000000E+00
Nuclear QMom                               R   N=           1
  0.00000000E+00
Nuclear GFac                               R   N=           1
  2.62886700E+00
MicOpt                                     I   N=           1
          -1
Number of residues                         I                0
Number of secondary structures             I                0
SymInf integers                            I   N=          26
           1           8           1           1           1           1
          -1          -1          -1           1          -1          -1
          -1           1          -1          -1          -1          -1
           1           1           1          -1           1           1
           1          -1
RotTr to input orientation                 R   N=          12
  0.00000000E+00  0.00000000E+00 -1.00000000E+00  0.00000000E+00  1.00000000E+00
  0.00000000E+00  1.00000000E+00  0.00000000E+00  0.00000000E+00 -0.00000000E+00
 -0.00000000E+00 -0.00000000E+00
Number of contracted shells                I               14
Number of primitive shells                 I               27
Pure/Cartesian d shells                    I                0
Pure/Cartesian f shells                    I                0
Highest angular momentum                   I                3
Largest degree of contraction              I                7
Shell types                                I   N=          14
           0           0           0           0           0           1
           1           1           1          -2          -2          -2
          -3          -3
Number of primitives per shell             I   N=          14
           7           6           1           1           1           3
           1           1           1           1           1           1
           1           1
Shell to atom map                          I   N=          14
           1           1           1           1           1           1
           1           1           1           1           1           1
           1           1
Primitive exponents                        R   N=          27
  1.95000000E+04  2.92300000E+03  6.64500000E+02  1.87500000E+02  6.06200000E+01
  2.14200000E+01  7.95000000E+00  6.64500000E+02  1.87500000E+02  6.06200000E+01
  2.14200000E+01  7.95000000E+00  8.81500000E-01  2.25700000E+00  3.04100000E-01
  9.15800000E-02  4.38800000E+01  9.92600000E+00  2.93000000E+00  9.13200000E-01
  2.67200000E-01  7.36100000E-02  3.10700000E+00  8.55000000E-01  2.92000000E-01
  1.91700000E+00  7.24000000E-01
Contraction coefficients                   R   N=          27
  5.19002444E-04  4.01578135E-03  2.06774611E-02  8.08690170E-02  2.35807546E-01
  4.42582306E-01  3.56962867E-01 -3.73598087E-05 -1.27747230E-03 -1.08220140E-02
 -7.00482089E-02 -1.69746608E-01  1.07302661E+00  1.00000000E+00  1.00000000E+00
  1.00000000E+00  4.19046207E-02  2.62697842E-01  7.97759373E-01  1.00000000E+00
  1.00000000E+00  1.00000000E+00  1.00000000E+00  1.00000000E+00  1.00000000E+00
  1.00000000E+00  1.00000000E+00
Coordinates of each shell                  R   N=          42
  0.00000000E+00  0.00000000E+00  0.00000000E+00  0.00000000E+00  0.00000000E+00
  0.00000000E+00  0.00000000E+00  0.00000000E+00  0.00000000E+00  0.00000000E+00
  0.00000000E+00  0.00000000E+00  0.00000000E+00  0.00000000E+00  0.00000000E+00
  0.00000000E+00  0.00000000E+00  0.00000000E+00  0.00000000E+00  0.00000000E+00
  0.00000000E+00  0.00000000E+00  0.00000000E+00  0.00000000E+00  0.00000000E+00
  0.00000000E+00  0.00000000E+00  0.00000000E+00  0.00000000E+00  0.00000000E+00
  0.00000000E+00  0.00000000E+00  0.00000000E+00  0.00000000E+00  0.00000000E+00
  0.00000000E+00  0.00000000E+00  0.00000000E+00  0.00000000E+00  0.00000000E+00
  0.00000000E+00  0.00000000E+00
Num ILSW                                   I              100
ILSW                                       I   N=         100
           1           0           0           0           2           0
           0           0           0           0           0          -1
           5           0           0           0           0           0
           0           0           1           0           0           0
           1           0           0           0           0           0
           0           0      100000           0          -1           0
           0           0           0           0           0           0
           0           0           0           1           8           0
           0 -2000000000           1           0           0           0
           0           1           4          52           0           0
           0           0           0           0           0           0
           0           0           0           0           4           1
           0           0           0           0           0           0
           0           0           0           0           0           0
           0           0           0           0           0           0
           0           0           0           0           0           0
           0           0           0           0
Num RLSW                                   I               52
RLSW                                       R   N=          52
  1.00000000E+00  1.00000000E+00  1.00000000E+00  1.00000000E+00  1.00000000E+00
  0.00000000E+00  0.00000000E+00  1.00000000E+00  0.00000000E+00  0.00000000E+00
  0.00000000E+00  0.00000000E+00  1.00000000E+00  0.00000000E+00  0.00000000E+00
  0.00000000E+00  0.00000000E+00  1.00000000E+00  0.00000000E+00  0.00000000E+00
  0.00000000E+00  0.00000000E+00  1.00000000E+00  0.00000000E+00  0.00000000E+00
  0.00000000E+00  0.00000000E+00  1.00000000E+00  0.00000000E+00  0.00000000E+00
  0.00000000E+00  0.00000000E+00  1.00000000E+00  0.00000000E+00  0.00000000E+00
  0.00000000E+00  0.00000000E+00  0.00000000E+00  1.00000000E+00  1.00000000E+00
  0.00000000E+00  1.00000000E+00  0.00000000E+00  0.00000000E+00  0.00000000E+00
  0.00000000E+00  0.00000000E+00  0.00000000E+00  0.00000000E+00  0.00000000E+00
  0.00000000E+00  0.00000000E+00
MxBond                                     I                1
NBond                                      I   N=           1
           0
IBond                                      I   N=           1
           0
RBond                                      R   N=           1
  0.00000000E+00
Virial Ratio                               R      2.000338380739409E+00
SCF Energy                                 R     -9.940687936924167E+01
MP2 Energy                                 R     -9.961210612287692E+01
MP3 Energy                                 R     -9.962216841759438E+01
MP4D Energy                                R     -9.962453058100233E+01
MP4DQ Energy                               R     -9.962228326987182E+01
MP4SDQ Energy                              R     -9.962325881500051E+01
Cluster Energy                             R     -9.962345220304458E+01
Cluster Energy with triples                R     -9.962782680987939E+01
Total Energy                               R     -9.962782680987939E+01
PUHF Energy                                R     -9.941002321652948E+01
PMP2-0 Energy                              R     -9.961371819128384E+01
PMP3-0 Energy                              R     -9.962300584874306E+01
Post-SCF wavefunction norm                 R      1.019277425860674E+00
S**2                                       R      7.541341281239387E-01
S**2 after annihilation                    R      7.500093624715828E-01
S**2 corrected to first order              R      7.501001088678447E-01
RMS Density                                R      5.434576671715484E-09
Job Status                                 I                1
Nuclear derivative order                   I                0
External E-field                           R   N=          35
  0.00000000E+00  0.00000000E+00  0.00000000E+00  0.00000000E+00  0.00000000E+00
  0.00000000E+00  0.00000000E+00  0.00000000E+00  0.00000000E+00  0.00000000E+00
  0.00000000E+00  0.00000000E+00  0.00000000E+00  0.00000000E+00  0.00000000E+00
  0.00000000E+00  0.00000000E+00  0.00000000E+00  0.00000000E+00  0.00000000E+00
  0.00000000E+00  0.00000000E+00  0.00000000E+00  0.00000000E+00  0.00000000E+00
  0.00000000E+00  0.00000000E+00  0.00000000E+00  0.00000000E+00  0.00000000E+00
  0.00000000E+00  0.00000000E+00  0.00000000E+00  0.00000000E+00  0.00000000E+00
IOpCl                                      I                1
IROHF                                      I                0
Alpha Orbital Energies                     R   N=          46
 -2.64115615E+01 -1.67449290E+00 -8.45499729E-01 -7.32071853E-01 -7.32071853E-01
  1.86085690E-01  1.94556912E-01  1.96064696E-01  1.96064696E-01  8.48023653E-01
  8.54540942E-01  8.54540942E-01  8.74641228E-01  8.74641228E-01  1.06050686E+00
  1.10887457E+00  1.10887457E+00  1.59493901E+00  2.74389471E+00  2.76130106E+00
  2.76130106E+00  2.81690080E+00  2.81690080E+00  2.85687258E+00  2.86238472E+00
  2.86238472E+00  2.87900611E+00  2.87900611E+00  2.90708951E+00  2.90708951E+00
  5.06274027E+00  5.14856359E+00  5.14856359E+00  8.68060535E+00  8.69120373E+00
  8.69120373E+00  8.72319461E+00  8.72319461E+00  8.77723922E+00  8.77723922E+00
  9.11723379E+00  9.14296470E+00  9.14296470E+00  9.22061725E+00  9.22061725E+00
  1.04283196E+01
Beta Orbital Energies                      R   N=          46
 -2.63635409E+01 -1.47925592E+00 -6.80289822E-01 -6.80289822E-01  3.55476916E-02
  1.98143309E-01  1.98143309E-01  2.01843028E-01  2.44415089E-01  8.72810482E-01
  8.72810482E-01  8.74904935E-01  8.74904935E-01  8.76030570E-01  1.12417313E+00
  1.12417313E+00  1.21080024E+00  1.63923063E+00  2.82595555E+00  2.82595555E+00
  2.84915734E+00  2.84915734E+00  2.85798244E+00  2.88530952E+00  2.88762690E+00
  2.88762690E+00  2.89455933E+00  2.89455933E+00  2.90601963E+00  2.90601963E+00
  5.17534540E+00  5.17534540E+00  5.23925577E+00  8.75337975E+00  8.75686234E+00
  8.75686234E+00  8.76727953E+00  8.76727953E+00  8.78453564E+00  8.78453564E+00
  9.24191138E+00  9.24191138E+00  9.25308968E+00  9.25308968E+00  9.25711331E+00
  1.04780995E+01
Alpha MO coefficients                      R   N=        2116
  9.76004822E-01 -8.10834314E-03  4.47262022E-02  3.66820696E-03 -8.39685363E-04
  0.00000000E+00  0.00000000E+00  0.00000000E+00  0.00000000E+00  0.00000000E+00
  0.00000000E+00  0.00000000E+00  0.00000000E+00  0.00000000E+00  0.00000000E+00
  0.00000000E+00  0.00000000E+00  6.26164523E-04  0.00000000E+00  0.00000000E+00
 -2.45266877E-16  0.00000000E+00 -2.04367441E-04  0.00000000E+00  0.00000000E+00
  5.06250596E-16  0.00000000E+00  8.40629025E-05  0.00000000E+00  0.00000000E+00
 -3.43833359E-16  0.00000000E+00  0.00000000E+00  0.00000000E+00  0.00000000E+00
  0.00000000E+00  0.00000000E+00  0.00000000E+00  0.00000000E+00  0.00000000E+00
  0.00000000E+00  0.00000000E+00  0.00000000E+00  0.00000000E+00  0.00000000E+00
  0.00000000E+00 -2.29193614E-01  5.77664985E-01  1.76189540E-01  3.49123655E-01
  2.37842249E-03  0.00000000E+00  0.00000000E+00  0.00000000E+00  0.00000000E+00
  0.00000000E+00  0.00000000E+00  0.00000000E+00  0.00000000E+00  0.00000000E+00
  0.00000000E+00  0.00000000E+00  0.00000000E+00  7.20492755E-03  0.00000000E+00
  0.00000000E+00 -2.59851875E-16  0.00000000E+00  1.49205851E-02  0.00000000E+00
  0.00000000E+00  4.55159833E-16  0.00000000E+00  1.13905435E-03  0.00000000E+00
  0.00000000E+00 -9.46373305E-17  0.00000000E+00  0.00000000E+00  0.00000000E+00
  0.00000000E+00  0.00000000E+00  0.00000000E+00  0.00000000E+00  0.00000000E+00
  0.00000000E+00  0.00000000E+00  0.00000000E+00  0.00000000E+00  0.00000000E+00
  0.00000000E+00  0.00000000E+00  0.00000000E+00  0.00000000E+00  0.00000000E+00
  0.00000000E+00  0.00000000E+00  0.00000000E+00  0.00000000E+00  4.08001564E-01
  0.00000000E+00  0.00000000E+00  5.08255494E-01  0.00000000E+00  0.00000000E+00
  2.92987352E-01  0.00000000E+00  0.00000000E+00  6.92509999E-03  0.00000000E+00
  0.00000000E+00  0.00000000E+00  0.00000000E+00  0.00000000E+00  0.00000000E+00
  0.00000000E+00  0.00000000E+00  0.00000000E+00  0.00000000E+00  0.00000000E+00
  0.00000000E+00  0.00000000E+00  0.00000000E+00  0.00000000E+00  6.24560317E-03
  0.00000000E+00  0.00000000E+00 -7.38517984E-17  0.00000000E+00  0.00000000E+00
  0.00000000E+00  5.70235727E-03  0.00000000E+00  0.00000000E+00  2.35356452E-16
  0.00000000E+00  0.00000000E+00  0.00000000E+00  0.00000000E+00  0.00000000E+00
  0.00000000E+00  0.00000000E+00  0.00000000E+00  3.98883581E-01  0.00000000E+00
  0.00000000E+00  4.91208107E-01  0.00000000E+00  0.00000000E+00  3.19749137E-01
  0.00000000E+00  0.00000000E+00  1.89945363E-02  0.00000000E+00  0.00000000E+00
  0.00000000E+00  0.00000000E+00  0.00000000E+00  0.00000000E+00  0.00000000E+00
  0.00000000E+00  0.00000000E+00  0.00000000E+00  0.00000000E+00  0.00000000E+00
  0.00000000E+00  0.00000000E+00  0.00000000E+00  0.00000000E+00  0.00000000E+00
  0.00000000E+00  5.01782213E-03  0.00000000E+00  0.00000000E+00  0.00000000E+00
  8.71941666E-16  0.00000000E+00  0.00000000E+00  5.03859874E-03  0.00000000E+00
  0.00000000E+00  0.00000000E+00 -1.65512079E-15  0.00000000E+00  0.00000000E+00
  0.00000000E+00  0.00000000E+00  0.00000000E+00  0.00000000E+00  0.00000000E+00
  3.98883581E-01  0.00000000E+00  0.00000000E+00  4.91208107E-01  0.00000000E+00
  0.00000000E+00  3.19749137E-01  0.00000000E+00  0.00000000E+00  1.89945363E-02
  0.00000000E+00  0.00000000E+00  0.00000000E+00  0.00000000E+00  0.00000000E+00
  0.00000000E+00  0.00000000E+00  0.00000000E+00  0.00000000E+00  0.00000000E+00
  0.00000000E+00  0.00000000E+00  0.00000000E+00  0.00000000E+00  0.00000000E+00
  0.00000000E+00  0.00000000E+00  0.00000000E+00  5.01782213E-03  0.00000000E+00
  0.00000000E+00  0.00000000E+00 -8.90014777E-16  0.00000000E+00  0.00000000E+00
  5.03859874E-03  0.00000000E+00  0.00000000E+00  0.00000000E+00  1.68921804E-15
  0.00000000E+00  0.00000000E+00  0.00000000E+00  0.00000000E+00  0.00000000E+00
  0.00000000E+00  0.00000000E+00 -9.13668377E-02  0.00000000E+00  0.00000000E+00
 -5.80540173E-02  0.00000000E+00  0.00000000E+00 -3.28643181E-01  0.00000000E+00
  0.00000000E+00  1.15851523E+00  0.00000000E+00  0.00000000E+00  0.00000000E+00
  0.00000000E+00  0.00000000E+00  0.00000000E+00  0.00000000E+00  0.00000000E+00
  0.00000000E+00  0.00000000E+00  0.00000000E+00  0.00000000E+00  0.00000000E+00
  0.00000000E+00  0.00000000E+00 -1.50812706E-03  0.00000000E+00  0.00000000E+00
 -1.17316418E-18  0.00000000E+00  0.00000000E+00  0.00000000E+00  7.44088661E-04
  0.00000000E+00  0.00000000E+00  9.20620323E-17  0.00000000E+00  0.00000000E+00
  0.00000000E+00  7.23755029E-02 -5.05797928E-02 -5.24329394E-02 -8.56232083E-01
  1.49432407E+00  0.00000000E+00  0.00000000E+00  0.00000000E+00  0.00000000E+00
  0.00000000E+00  0.00000000E+00  0.00000000E+00  0.00000000E+00  0.00000000E+00
  0.00000000E+00  0.00000000E+00  0.00000000E+00 -1.44253747E-03  0.00000000E+00
  0.00000000E+00  2.54748568E-16  0.00000000E+00 -5.83071005E-03  0.00000000E+00
  0.00000000E+00 -2.69873504E-16  0.00000000E+00  1.59039114E-02  0.00000000E+00
  0.00000000E+00  3.49679397E-16  0.00000000E+00  0.00000000E+00  0.00000000E+00
  0.00000000E+00  0.00000000E+00  0.00000000E+00  0.00000000E+00  0.00000000E+00
  0.00000000E+00  0.00000000E+00  0.00000000E+00  0.00000000E+00  0.00000000E+00
  0.00000000E+00  0.00000000E+00  0.00000000E+00  0.00000000E+00  0.00000000E+00
  0.00000000E+00  0.00000000E+00 -9.64661247E-02  0.00000000E+00  0.00000000E+00
 -5.93683011E-02  0.00000000E+00  0.00000000E+00 -3.57276189E-01  0.00000000E+00
  0.00000000E+00  1.16723998E+00  0.00000000E+00  0.00000000E+00  0.00000000E+00
  0.00000000E+00  0.00000000E+00  0.00000000E+00  0.00000000E+00  0.00000000E+00
  0.00000000E+00  0.00000000E+00  0.00000000E+00  0.00000000E+00  0.00000000E+00
  0.00000000E+00  0.00000000E+00  0.00000000E+00  0.00000000E+00  0.00000000E+00
 -1.29436021E-03  0.00000000E+00  0.00000000E+00  0.00000000E+00 -5.31947927E-16
  0.00000000E+00  0.00000000E+00  3.66450156E-04  0.00000000E+00  0.00000000E+00
  0.00000000E+00  1.33722284E-15  0.00000000E+00  0.00000000E+00  0.00000000E+00
  0.00000000E+00  0.00000000E+00  0.00000000E+00  0.00000000E+00 -9.64661247E-02
  0.00000000E+00  0.00000000E+00 -5.93683011E-02  0.00000000E+00  0.00000000E+00
 -3.57276189E-01  0.00000000E+00  0.00000000E+00  1.16723998E+00  0.00000000E+00
  0.00000000E+00  0.00000000E+00  0.00000000E+00  0.00000000E+00  0.00000000E+00
  0.00000000E+00  0.00000000E+00  0.00000000E+00  0.00000000E+00  0.00000000E+00
  0.00000000E+00  0.00000000E+00  0.00000000E+00  0.00000000E+00  0.00000000E+00
  0.00000000E+00  0.00000000E+00 -1.29436021E-03  0.00000000E+00  0.00000000E+00
  0.00000000E+00  5.10011753E-16  0.00000000E+00  0.00000000E+00  3.66450156E-04
  0.00000000E+00  0.00000000E+00  0.00000000E+00 -1.25118062E-15  1.94158279E-03
 -3.10799740E-02 -6.89450778E-03  5.08958552E-02 -3.62865987E-02  0.00000000E+00
  0.00000000E+00  0.00000000E+00  0.00000000E+00  0.00000000E+00  0.00000000E+00
  0.00000000E+00  0.00000000E+00  0.00000000E+00  0.00000000E+00  0.00000000E+00
  0.00000000E+00  4.18462128E-02  0.00000000E+00  0.00000000E+00 -1.46545664E-16
  0.00000000E+00 -1.13046318E-01  0.00000000E+00  0.00000000E+00  1.22327886E-15
  0.00000000E+00  1.06117815E+00  0.00000000E+00  0.00000000E+00 -4.86325369E-15
  0.00000000E+00  0.00000000E+00  0.00000000E+00  0.00000000E+00  0.00000000E+00
  0.00000000E+00  0.00000000E+00  0.00000000E+00  0.00000000E+00  0.00000000E+00
  0.00000000E+00  0.00000000E+00  0.00000000E+00  0.00000000E+00  0.00000000E+00
  0.00000000E+00  0.00000000E+00  0.00000000E+00  0.00000000E+00  0.00000000E+00
  0.00000000E+00  0.00000000E+00  0.00000000E+00  0.00000000E+00  0.00000000E+00
  0.00000000E+00  0.00000000E+00  0.00000000E+00  0.00000000E+00  0.00000000E+00
  0.00000000E+00  0.00000000E+00  0.00000000E+00  4.20148985E-02  0.00000000E+00
  0.00000000E+00  0.00000000E+00  0.00000000E+00 -1.15820124E-01  0.00000000E+00
  0.00000000E+00  0.00000000E+00  0.00000000E+00  1.06299741E+00  0.00000000E+00
  0.00000000E+00  0.00000000E+00  0.00000000E+00  0.00000000E+00  0.00000000E+00
  0.00000000E+00  0.00000000E+00  0.00000000E+00  0.00000000E+00  0.00000000E+00
  0.00000000E+00  0.00000000E+00  0.00000000E+00  0.00000000E+00  0.00000000E+00
  0.00000000E+00  0.00000000E+00  0.00000000E+00  0.00000000E+00  0.00000000E+00
  0.00000000E+00  0.00000000E+00  0.00000000E+00  0.00000000E+00  0.00000000E+00
  0.00000000E+00  0.00000000E+00  0.00000000E+00  0.00000000E+00  0.00000000E+00
  0.00000000E+00  0.00000000E+00  0.00000000E+00  0.00000000E+00  0.00000000E+00
  4.20148985E-02  0.00000000E+00  0.00000000E+00  0.00000000E+00  0.00000000E+00
 -1.15820124E-01  0.00000000E+00  0.00000000E+00  0.00000000E+00  0.00000000E+00
  1.06299741E+00  0.00000000E+00  0.00000000E+00  0.00000000E+00  0.00000000E+00
  0.00000000E+00  0.00000000E+00  0.00000000E+00  0.00000000E+00  0.00000000E+00
  0.00000000E+00  0.00000000E+00  0.00000000E+00  0.00000000E+00  0.00000000E+00
  0.00000000E+00  0.00000000E+00  0.00000000E+00  0.00000000E+00  0.00000000E+00
  0.00000000E+00  0.00000000E+00  0.00000000E+00  0.00000000E+00  0.00000000E+00
  0.00000000E+00  0.00000000E+00  0.00000000E+00  0.00000000E+00  0.00000000E+00
  0.00000000E+00  0.00000000E+00  0.00000000E+00  0.00000000E+00  0.00000000E+00
  0.00000000E+00  0.00000000E+00  0.00000000E+00  4.19568394E-02  0.00000000E+00
  0.00000000E+00  0.00000000E+00  0.00000000E+00 -1.24682931E-01  0.00000000E+00
  0.00000000E+00  0.00000000E+00  0.00000000E+00  1.06797191E+00  0.00000000E+00
  0.00000000E+00  0.00000000E+00  0.00000000E+00  0.00000000E+00  0.00000000E+00
  0.00000000E+00  0.00000000E+00  0.00000000E+00  0.00000000E+00  0.00000000E+00
  0.00000000E+00  0.00000000E+00  0.00000000E+00 -2.79557735E-17  1.27581678E-15
  2.81895345E-16 -1.76552849E-15 -7.67538214E-17  0.00000000E+00  0.00000000E+00
  0.00000000E+00  0.00000000E+00  0.00000000E+00  0.00000000E+00  0.00000000E+00
  0.00000000E+00  0.00000000E+00  0.00000000E+00  0.00000000E+00  0.00000000E+00
  1.67829365E-16  0.00000000E+00  0.00000000E+00  4.19568394E-02  0.00000000E+00
 -3.57874476E-16  0.00000000E+00  0.00000000E+00 -1.24682931E-01  0.00000000E+00
  4.30938496E-15  0.00000000E+00  0.00000000E+00  1.06797191E+00  0.00000000E+00
  0.00000000E+00  0.00000000E+00  0.00000000E+00  0.00000000E+00  0.00000000E+00
  0.00000000E+00  0.00000000E+00  0.00000000E+00  0.00000000E+00  0.00000000E+00
  0.00000000E+00  0.00000000E+00  0.00000000E+00  0.00000000E+00  0.00000000E+00
  0.00000000E+00  0.00000000E+00  0.00000000E+00  0.00000000E+00  0.00000000E+00
  0.00000000E+00 -2.52503792E-01  0.00000000E+00  0.00000000E+00 -7.38850633E-01
  0.00000000E+00  0.00000000E+00  1.54657409E+00  0.00000000E+00  0.00000000E+00
 -6.47858398E-01  0.00000000E+00  0.00000000E+00  0.00000000E+00  0.00000000E+00
  0.00000000E+00  0.00000000E+00  0.00000000E+00  0.00000000E+00  0.00000000E+00
  0.00000000E+00  0.00000000E+00  0.00000000E+00  0.00000000E+00  0.00000000E+00
  0.00000000E+00 -5.72508112E-03  0.00000000E+00  0.00000000E+00  2.85630315E-16
  0.00000000E+00  0.00000000E+00  0.00000000E+00  1.06236140E-02  0.00000000E+00
  0.00000000E+00  2.40184097E-16  0.00000000E+00  0.00000000E+00  0.00000000E+00
  0.00000000E+00  0.00000000E+00  0.00000000E+00  0.00000000E+00  0.00000000E+00
 -2.56828757E-01  0.00000000E+00  0.00000000E+00 -7.58884206E-01  0.00000000E+00
  0.00000000E+00  1.53878866E+00  0.00000000E+00  0.00000000E+00 -6.32871526E-01
  0.00000000E+00  0.00000000E+00  0.00000000E+00  0.00000000E+00  0.00000000E+00
  0.00000000E+00  0.00000000E+00  0.00000000E+00  0.00000000E+00  0.00000000E+00
  0.00000000E+00  0.00000000E+00  0.00000000E+00  0.00000000E+00  0.00000000E+00
  0.00000000E+00  0.00000000E+00  0.00000000E+00 -4.86999877E-03  0.00000000E+00
  0.00000000E+00  0.00000000E+00  1.91715795E-15  0.00000000E+00  0.00000000E+00
  8.60068875E-03  0.00000000E+00  0.00000000E+00  0.00000000E+00 -4.55910921E-15
  0.00000000E+00  0.00000000E+00  0.00000000E+00  0.00000000E+00  0.00000000E+00
  0.00000000E+00  0.00000000E+00 -2.56828757E-01  0.00000000E+00  0.00000000E+00
 -7.58884206E-01  0.00000000E+00  0.00000000E+00  1.53878866E+00  0.00000000E+00
  0.00000000E+00 -6.32871526E-01  0.00000000E+00  0.00000000E+00  0.00000000E+00
  0.00000000E+00  0.00000000E+00  0.00000000E+00  0.00000000E+00  0.00000000E+00
  0.00000000E+00  0.00000000E+00  0.00000000E+00  0.00000000E+00  0.00000000E+00
  0.00000000E+00  0.00000000E+00  0.00000000E+00  0.00000000E+00  0.00000000E+00
 -4.86999877E-03  0.00000000E+00  0.00000000E+00  0.00000000E+00 -1.88656269E-15
  0.00000000E+00  0.00000000E+00  8.60068875E-03  0.00000000E+00  0.00000000E+00
  0.00000000E+00  4.38855337E-15  2.98212811E-02 -1.51304006E+00 -3.38207616E-01
  2.59111648E+00 -1.04632449E+00  0.00000000E+00  0.00000000E+00  0.00000000E+00
  0.00000000E+00  0.00000000E+00  0.00000000E+00  0.00000000E+00  0.00000000E+00
  0.00000000E+00  0.00000000E+00  0.00000000E+00  0.00000000E+00 -8.93310729E-03
  0.00000000E+00  0.00000000E+00 -2.01856486E-16  0.00000000E+00  6.73483500E-03
  0.00000000E+00  0.00000000E+00 -1.04205669E-15  0.00000000E+00 -1.96742550E-02
  0.00000000E+00  0.00000000E+00  2.14956800E-15  0.00000000E+00  0.00000000E+00
  0.00000000E+00  0.00000000E+00  0.00000000E+00  0.00000000E+00  0.00000000E+00
  0.00000000E+00  0.00000000E+00  0.00000000E+00  0.00000000E+00  0.00000000E+00
  0.00000000E+00  0.00000000E+00  0.00000000E+00  7.67709516E-03 -1.23050318E-03
 -1.07042848E-02 -1.38005718E-02  7.84438521E-03  0.00000000E+00  0.00000000E+00
  0.00000000E+00  0.00000000E+00  0.00000000E+00  0.00000000E+00  0.00000000E+00
  0.00000000E+00  0.00000000E+00  0.00000000E+00  0.00000000E+00  0.00000000E+00
  1.07403534E-02  0.00000000E+00  0.00000000E+00  2.22690710E-16  0.00000000E+00
  1.26071580E+00  0.00000000E+00  0.00000000E+00 -5.68611987E-14  0.00000000E+00
 -7.13647470E-01  0.00000000E+00  0.00000000E+00  3.21317288E-14  0.00000000E+00
  0.00000000E+00  0.00000000E+00  0.00000000E+00  0.00000000E+00  0.00000000E+00
  0.00000000E+00  0.00000000E+00  0.00000000E+00  0.00000000E+00  0.00000000E+00
  0.00000000E+00  0.00000000E+00  0.00000000E+00  0.00000000E+00  0.00000000E+00
  0.00000000E+00  0.00000000E+00  0.00000000E+00  0.00000000E+00  0.00000000E+00
  0.00000000E+00  0.00000000E+00  0.00000000E+00  0.00000000E+00  0.00000000E+00
  0.00000000E+00  0.00000000E+00  0.00000000E+00  0.00000000E+00  0.00000000E+00
  0.00000000E+00  0.00000000E+00  9.94144084E-03  0.00000000E+00  0.00000000E+00
  0.00000000E+00  0.00000000E+00  1.26126936E+00  0.00000000E+00  0.00000000E+00
  0.00000000E+00  0.00000000E+00 -7.11650973E-01  0.00000000E+00  0.00000000E+00
  0.00000000E+00  0.00000000E+00  0.00000000E+00  0.00000000E+00  0.00000000E+00
  0.00000000E+00  0.00000000E+00  0.00000000E+00  0.00000000E+00  0.00000000E+00
  0.00000000E+00  0.00000000E+00  0.00000000E+00  0.00000000E+00  0.00000000E+00
  0.00000000E+00  0.00000000E+00  0.00000000E+00  0.00000000E+00  0.00000000E+00
  0.00000000E+00  0.00000000E+00  0.00000000E+00  0.00000000E+00  0.00000000E+00
  0.00000000E+00  0.00000000E+00  0.00000000E+00  0.00000000E+00  0.00000000E+00
  0.00000000E+00  0.00000000E+00  0.00000000E+00  0.00000000E+00  9.94144084E-03
  0.00000000E+00  0.00000000E+00  0.00000000E+00  0.00000000E+00  1.26126936E+00
  0.00000000E+00  0.00000000E+00  0.00000000E+00  0.00000000E+00 -7.11650973E-01
  0.00000000E+00  0.00000000E+00  0.00000000E+00  0.00000000E+00  0.00000000E+00
  0.00000000E+00  0.00000000E+00  0.00000000E+00  0.00000000E+00  0.00000000E+00
  0.00000000E+00  0.00000000E+00  0.00000000E+00  0.00000000E+00  0.00000000E+00
  0.00000000E+00  0.00000000E+00  0.00000000E+00  0.00000000E+00  0.00000000E+00
  0.00000000E+00  0.00000000E+00  0.00000000E+00  0.00000000E+00  0.00000000E+00
  0.00000000E+00  0.00000000E+00  0.00000000E+00  0.00000000E+00  0.00000000E+00
  0.00000000E+00  0.00000000E+00  0.00000000E+00  0.00000000E+00  0.00000000E+00
  0.00000000E+00  0.00000000E+00  6.99178952E-03  0.00000000E+00  0.00000000E+00
  0.00000000E+00  0.00000000E+00  1.26266208E+00  0.00000000E+00  0.00000000E+00
  0.00000000E+00  0.00000000E+00 -7.05026758E-01  0.00000000E+00  0.00000000E+00
  0.00000000E+00  0.00000000E+00  0.00000000E+00  0.00000000E+00  0.00000000E+00
  0.00000000E+00  0.00000000E+00  0.00000000E+00  0.00000000E+00  0.00000000E+00
  0.00000000E+00  0.00000000E+00  2.59518042E-16 -1.40633078E-15 -8.26773496E-16
  1.81005664E-15 -4.09868694E-16  0.00000000E+00  0.00000000E+00  0.00000000E+00
  0.00000000E+00  0.00000000E+00  0.00000000E+00  0.00000000E+00  0.00000000E+00
  0.00000000E+00  0.00000000E+00  0.00000000E+00  0.00000000E+00 -1.18727734E-16
  0.00000000E+00  0.00000000E+00  6.99178952E-03  0.00000000E+00  5.81910216E-14
  0.00000000E+00  0.00000000E+00  1.26266208E+00  0.00000000E+00 -3.41005649E-14
  0.00000000E+00  0.00000000E+00 -7.05026758E-01  0.00000000E+00  0.00000000E+00
  0.00000000E+00  0.00000000E+00  0.00000000E+00  0.00000000E+00  0.00000000E+00
  0.00000000E+00  0.00000000E+00  0.00000000E+00  0.00000000E+00  0.00000000E+00
  0.00000000E+00  0.00000000E+00  0.00000000E+00  0.00000000E+00  0.00000000E+00
  0.00000000E+00  0.00000000E+00  0.00000000E+00  0.00000000E+00  0.00000000E+00
 -1.08826798E-02  0.00000000E+00  0.00000000E+00  1.27501733E-02  0.00000000E+00
  0.00000000E+00 -2.05764147E-02  0.00000000E+00  0.00000000E+00  6.82467894E-03
  0.00000000E+00  0.00000000E+00  0.00000000E+00  0.00000000E+00  0.00000000E+00
  0.00000000E+00  0.00000000E+00  0.00000000E+00  0.00000000E+00  0.00000000E+00
  0.00000000E+00  0.00000000E+00  0.00000000E+00  0.00000000E+00  0.00000000E+00
 -1.52868529E-01  0.00000000E+00  0.00000000E+00  2.39450894E-15  0.00000000E+00
  0.00000000E+00  0.00000000E+00  1.08384972E+00  0.00000000E+00  0.00000000E+00
 -1.68578167E-14  0.00000000E+00  0.00000000E+00  0.00000000E+00  0.00000000E+00
  0.00000000E+00  0.00000000E+00  0.00000000E+00  0.00000000E+00  0.00000000E+00
 -8.77987834E-03  0.00000000E+00  0.00000000E+00  1.00391437E-02  0.00000000E+00
  0.00000000E+00 -1.66930962E-02  0.00000000E+00  0.00000000E+00  5.53053485E-03
  0.00000000E+00  0.00000000E+00  0.00000000E+00  0.00000000E+00  0.00000000E+00
  0.00000000E+00  0.00000000E+00  0.00000000E+00  0.00000000E+00  0.00000000E+00
  0.00000000E+00  0.00000000E+00  0.00000000E+00  0.00000000E+00  0.00000000E+00
  0.00000000E+00  0.00000000E+00  0.00000000E+00 -1.53251167E-01  0.00000000E+00
  0.00000000E+00  0.00000000E+00  6.66176849E-15  0.00000000E+00  0.00000000E+00
  1.08407294E+00  0.00000000E+00  0.00000000E+00  0.00000000E+00 -4.13857224E-14
  0.00000000E+00  0.00000000E+00  0.00000000E+00  0.00000000E+00  0.00000000E+00
 -8.77987834E-03  0.00000000E+00  0.00000000E+00  1.00391437E-02  0.00000000E+00
  0.00000000E+00 -1.66930962E-02  0.00000000E+00  0.00000000E+00  5.53053485E-03
  0.00000000E+00  0.00000000E+00  0.00000000E+00  0.00000000E+00  0.00000000E+00
  0.00000000E+00  0.00000000E+00  0.00000000E+00  0.00000000E+00  0.00000000E+00
  0.00000000E+00  0.00000000E+00  0.00000000E+00  0.00000000E+00  0.00000000E+00
  0.00000000E+00  0.00000000E+00  0.00000000E+00 -1.53251167E-01  0.00000000E+00
  0.00000000E+00  0.00000000E+00 -1.32773255E-14  0.00000000E+00  0.00000000E+00
  1.08407294E+00  0.00000000E+00  0.00000000E+00  0.00000000E+00  8.35908737E-14
  0.00000000E+00  0.00000000E+00  0.00000000E+00  0.00000000E+00  0.00000000E+00
  0.00000000E+00  0.00000000E+00  0.00000000E+00  3.62769888E-16  0.00000000E+00
  0.00000000E+00  1.67500326E-15  0.00000000E+00  0.00000000E+00 -1.81981896E-15
  0.00000000E+00  0.00000000E+00 -7.93146158E-16  0.00000000E+00  0.00000000E+00
  0.00000000E+00  0.00000000E+00  0.00000000E+00  0.00000000E+00  0.00000000E+00
  0.00000000E+00  0.00000000E+00  0.00000000E+00  0.00000000E+00  0.00000000E+00
  0.00000000E+00  0.00000000E+00  0.00000000E+00 -2.76565111E-15  0.00000000E+00
  0.00000000E+00 -1.54390760E-01  0.00000000E+00  0.00000000E+00  0.00000000E+00
  1.72140545E-14  0.00000000E+00  0.00000000E+00  1.08470673E+00  0.00000000E+00
  0.00000000E+00  0.00000000E+00  0.00000000E+00  0.00000000E+00  0.00000000E+00
  0.00000000E+00  0.00000000E+00  0.00000000E+00  0.00000000E+00  0.00000000E+00
  0.00000000E+00  0.00000000E+00  0.00000000E+00  0.00000000E+00  0.00000000E+00
  0.00000000E+00  0.00000000E+00  0.00000000E+00  0.00000000E+00  0.00000000E+00
  0.00000000E+00  0.00000000E+00  0.00000000E+00  0.00000000E+00  0.00000000E+00
  0.00000000E+00  0.00000000E+00  0.00000000E+00  0.00000000E+00  0.00000000E+00
  0.00000000E+00  0.00000000E+00  0.00000000E+00  0.00000000E+00  0.00000000E+00
  0.00000000E+00  0.00000000E+00  0.00000000E+00 -1.54390760E-01  0.00000000E+00
  0.00000000E+00  0.00000000E+00  0.00000000E+00  0.00000000E+00  0.00000000E+00
  1.08470673E+00  0.00000000E+00  0.00000000E+00  0.00000000E+00  0.00000000E+00
  0.00000000E+00  0.00000000E+00  0.00000000E+00 -3.73136111E-17  0.00000000E+00
  0.00000000E+00 -2.46689443E-15  0.00000000E+00  0.00000000E+00  6.57824551E-15
  0.00000000E+00  0.00000000E+00 -3.20962170E-15  0.00000000E+00  0.00000000E+00
  0.00000000E+00  0.00000000E+00  0.00000000E+00  0.00000000E+00  0.00000000E+00
  0.00000000E+00  0.00000000E+00  0.00000000E+00  0.00000000E+00  0.00000000E+00
  0.00000000E+00  0.00000000E+00  0.00000000E+00  0.00000000E+00  0.00000000E+00
  0.00000000E+00  1.09407207E-14  0.00000000E+00  0.00000000E+00  0.00000000E+00
 -1.56298289E-01  0.00000000E+00  0.00000000E+00 -8.29021827E-14  0.00000000E+00
  0.00000000E+00  0.00000000E+00  1.08565648E+00  0.00000000E+00  0.00000000E+00
  0.00000000E+00  0.00000000E+00  0.00000000E+00  0.00000000E+00  0.00000000E+00
  9.59955248E-16  0.00000000E+00  0.00000000E+00  1.40409134E-15  0.00000000E+00
  0.00000000E+00 -5.51035180E-15  0.00000000E+00  0.00000000E+00  2.99006421E-15
  0.00000000E+00  0.00000000E+00  0.00000000E+00  0.00000000E+00  0.00000000E+00
  0.00000000E+00  0.00000000E+00  0.00000000E+00  0.00000000E+00  0.00000000E+00
  0.00000000E+00  0.00000000E+00  0.00000000E+00  0.00000000E+00  0.00000000E+00
  0.00000000E+00  0.00000000E+00  0.00000000E+00 -5.46462689E-15  0.00000000E+00
  0.00000000E+00  0.00000000E+00 -1.56298289E-01  0.00000000E+00  0.00000000E+00
  4.10032788E-14  0.00000000E+00  0.00000000E+00  0.00000000E+00  1.08565648E+00
  0.00000000E+00  0.00000000E+00  0.00000000E+00  0.00000000E+00  0.00000000E+00
  0.00000000E+00  0.00000000E+00 -1.22285959E+00  0.00000000E+00  0.00000000E+00
  1.52047711E+00  0.00000000E+00  0.00000000E+00 -8.04625211E-01  0.00000000E+00
  0.00000000E+00  2.48692484E-01  0.00000000E+00  0.00000000E+00  0.00000000E+00
  0.00000000E+00  0.00000000E+00  0.00000000E+00  0.00000000E+00  0.00000000E+00
  0.00000000E+00  0.00000000E+00  0.00000000E+00  0.00000000E+00  0.00000000E+00
  0.00000000E+00  0.00000000E+00  6.95753784E-03  0.00000000E+00  0.00000000E+00
  4.92831444E-16  0.00000000E+00  0.00000000E+00  0.00000000E+00 -1.11003673E-02
  0.00000000E+00  0.00000000E+00 -4.21833547E-16  0.00000000E+00  0.00000000E+00
  0.00000000E+00  0.00000000E+00  0.00000000E+00  0.00000000E+00  0.00000000E+00
  0.00000000E+00  0.00000000E+00 -1.22459170E+00  0.00000000E+00  0.00000000E+00
  1.51619402E+00  0.00000000E+00  0.00000000E+00 -7.97223989E-01  0.00000000E+00
  0.00000000E+00  2.45876218E-01  0.00000000E+00  0.00000000E+00  0.00000000E+00
  0.00000000E+00  0.00000000E+00  0.00000000E+00  0.00000000E+00  0.00000000E+00
  0.00000000E+00  0.00000000E+00  0.00000000E+00  0.00000000E+00  0.00000000E+00
  0.00000000E+00  0.00000000E+00  0.00000000E+00  0.00000000E+00  0.00000000E+00
  5.71715445E-03  0.00000000E+00  0.00000000E+00  0.00000000E+00  6.92367493E-15
  0.00000000E+00  0.00000000E+00 -8.89278989E-03  0.00000000E+00  0.00000000E+00
  0.00000000E+00 -1.92853240E-15  0.00000000E+00  0.00000000E+00  0.00000000E+00
  0.00000000E+00  0.00000000E+00 -1.22459170E+00  0.00000000E+00  0.00000000E+00
  1.51619402E+00  0.00000000E+00  0.00000000E+00 -7.97223989E-01  0.00000000E+00
  0.00000000E+00  2.45876218E-01  0.00000000E+00  0.00000000E+00  0.00000000E+00
  0.00000000E+00  0.00000000E+00  0.00000000E+00  0.00000000E+00  0.00000000E+00
  0.00000000E+00  0.00000000E+00  0.00000000E+00  0.00000000E+00  0.00000000E+00
  0.00000000E+00  0.00000000E+00  0.00000000E+00  0.00000000E+00  0.00000000E+00
  5.71715445E-03  0.00000000E+00  0.00000000E+00  0.00000000E+00 -6.72079429E-15
  0.00000000E+00  0.00000000E+00 -8.89278989E-03  0.00000000E+00  0.00000000E+00
  0.00000000E+00  2.56988644E-15  0.00000000E+00  0.00000000E+00  0.00000000E+00
  0.00000000E+00  0.00000000E+00  0.00000000E+00  0.00000000E+00  0.00000000E+00
  2.19011985E-03  0.00000000E+00  0.00000000E+00 -1.30151146E-02  0.00000000E+00
  0.00000000E+00  7.25083358E-03  0.00000000E+00  0.00000000E+00 -2.17337189E-03
  0.00000000E+00  0.00000000E+00  0.00000000E+00  0.00000000E+00  0.00000000E+00
  0.00000000E+00  0.00000000E+00  0.00000000E+00  0.00000000E+00  0.00000000E+00
  0.00000000E+00  0.00000000E+00  0.00000000E+00  0.00000000E+00  0.00000000E+00
  1.23868073E+00  0.00000000E+00  0.00000000E+00  7.15964565E-14  0.00000000E+00
  0.00000000E+00  0.00000000E+00 -6.18725981E-01  0.00000000E+00  0.00000000E+00
 -3.48616164E-14  0.00000000E+00  0.00000000E+00  0.00000000E+00  0.00000000E+00
  0.00000000E+00  0.00000000E+00  0.00000000E+00  0.00000000E+00  0.00000000E+00
  1.83951086E-03  0.00000000E+00  0.00000000E+00 -1.07917626E-02  0.00000000E+00
  0.00000000E+00  5.99574623E-03  0.00000000E+00  0.00000000E+00 -1.79608321E-03
  0.00000000E+00  0.00000000E+00  0.00000000E+00  0.00000000E+00  0.00000000E+00
  0.00000000E+00  0.00000000E+00  0.00000000E+00  0.00000000E+00  0.00000000E+00
  0.00000000E+00  0.00000000E+00  0.00000000E+00  0.00000000E+00  0.00000000E+00
  0.00000000E+00  0.00000000E+00  0.00000000E+00  1.23864927E+00  0.00000000E+00
  0.00000000E+00  0.00000000E+00  1.19042997E-14  0.00000000E+00  0.00000000E+00
 -6.18408032E-01  0.00000000E+00  0.00000000E+00  0.00000000E+00 -5.67693363E-15
  0.00000000E+00  0.00000000E+00  0.00000000E+00  0.00000000E+00  0.00000000E+00
  1.83951086E-03  0.00000000E+00  0.00000000E+00 -1.07917626E-02  0.00000000E+00
  0.00000000E+00  5.99574623E-03  0.00000000E+00  0.00000000E+00 -1.79608321E-03
  0.00000000E+00  0.00000000E+00  0.00000000E+00  0.00000000E+00  0.00000000E+00
  0.00000000E+00  0.00000000E+00  0.00000000E+00  0.00000000E+00  0.00000000E+00
  0.00000000E+00  0.00000000E+00  0.00000000E+00  0.00000000E+00  0.00000000E+00
  0.00000000E+00  0.00000000E+00  0.00000000E+00  1.23864927E+00  0.00000000E+00
  0.00000000E+00  0.00000000E+00 -3.21156765E-14  0.00000000E+00  0.00000000E+00
 -6.18408032E-01  0.00000000E+00  0.00000000E+00  0.00000000E+00  1.64766811E-14
  0.00000000E+00  0.00000000E+00  0.00000000E+00  0.00000000E+00  0.00000000E+00
  0.00000000E+00  0.00000000E+00  0.00000000E+00  0.00000000E+00  0.00000000E+00
  0.00000000E+00  0.00000000E+00  0.00000000E+00  0.00000000E+00  0.00000000E+00
  0.00000000E+00  0.00000000E+00  0.00000000E+00  0.00000000E+00  0.00000000E+00
  0.00000000E+00  0.00000000E+00  0.00000000E+00  0.00000000E+00  0.00000000E+00
  0.00000000E+00  0.00000000E+00  0.00000000E+00  0.00000000E+00  0.00000000E+00
  0.00000000E+00  0.00000000E+00  0.00000000E+00  0.00000000E+00  0.00000000E+00
  0.00000000E+00  0.00000000E+00  1.23854136E+00  0.00000000E+00  0.00000000E+00
  0.00000000E+00  0.00000000E+00  0.00000000E+00  0.00000000E+00 -6.17440281E-01
  0.00000000E+00  0.00000000E+00  0.00000000E+00  0.00000000E+00  0.00000000E+00
  0.00000000E+00  0.00000000E+00  0.00000000E+00  0.00000000E+00  8.91201852E-16
  0.00000000E+00  0.00000000E+00  9.00142557E-16  0.00000000E+00  0.00000000E+00
 -1.40229026E-15  0.00000000E+00  0.00000000E+00 -1.29207451E-16  0.00000000E+00
  0.00000000E+00  0.00000000E+00  0.00000000E+00  0.00000000E+00  0.00000000E+00
  0.00000000E+00  0.00000000E+00  0.00000000E+00  0.00000000E+00  0.00000000E+00
  0.00000000E+00  0.00000000E+00  0.00000000E+00  0.00000000E+00 -7.20576025E-14
  0.00000000E+00  0.00000000E+00  1.23854136E+00  0.00000000E+00  0.00000000E+00
  0.00000000E+00  3.59987965E-14  0.00000000E+00  0.00000000E+00 -6.17440281E-01
  0.00000000E+00  0.00000000E+00  0.00000000E+00  0.00000000E+00  0.00000000E+00
  0.00000000E+00  0.00000000E+00  0.00000000E+00 -9.41175113E-15  0.00000000E+00
  0.00000000E+00  1.38710439E-14  0.00000000E+00  0.00000000E+00 -9.69235886E-15
  0.00000000E+00  0.00000000E+00  3.55515936E-15  0.00000000E+00  0.00000000E+00
  0.00000000E+00  0.00000000E+00  0.00000000E+00  0.00000000E+00  0.00000000E+00
  0.00000000E+00  0.00000000E+00  0.00000000E+00  0.00000000E+00  0.00000000E+00
  0.00000000E+00  0.00000000E+00  0.00000000E+00  0.00000000E+00  0.00000000E+00
  0.00000000E+00  3.19738437E-14  0.00000000E+00  0.00000000E+00  0.00000000E+00
  1.23830208E+00  0.00000000E+00  0.00000000E+00 -1.47644922E-14  0.00000000E+00
  0.00000000E+00  0.00000000E+00 -6.15768786E-01  0.00000000E+00  0.00000000E+00
  0.00000000E+00  0.00000000E+00  0.00000000E+00  0.00000000E+00  0.00000000E+00
  1.00054058E-14  0.00000000E+00  0.00000000E+00 -1.49025496E-14  0.00000000E+00
  0.00000000E+00  1.06556567E-14  0.00000000E+00  0.00000000E+00 -3.99324007E-15
  0.00000000E+00  0.00000000E+00  0.00000000E+00  0.00000000E+00  0.00000000E+00
  0.00000000E+00  0.00000000E+00  0.00000000E+00  0.00000000E+00  0.00000000E+00
  0.00000000E+00  0.00000000E+00  0.00000000E+00  0.00000000E+00  0.00000000E+00
  0.00000000E+00  0.00000000E+00  0.00000000E+00 -1.16871535E-14  0.00000000E+00
  0.00000000E+00  0.00000000E+00  1.23830208E+00  0.00000000E+00  0.00000000E+00
  5.89517069E-15  0.00000000E+00  0.00000000E+00  0.00000000E+00 -6.15768786E-01
 -2.53366482E-02 -8.05414293E-02  4.82916942E-02  5.63508662E-02 -1.73510670E-02
  0.00000000E+00  0.00000000E+00  0.00000000E+00  0.00000000E+00  0.00000000E+00
  0.00000000E+00  0.00000000E+00  0.00000000E+00  0.00000000E+00  0.00000000E+00
  0.00000000E+00  0.00000000E+00  1.20065956E+00  0.00000000E+00  0.00000000E+00
 -8.14087171E-15  0.00000000E+00 -8.30589668E-01  0.00000000E+00  0.00000000E+00
  7.59248333E-15  0.00000000E+00  3.18987440E-01  0.00000000E+00  0.00000000E+00
 -3.73361109E-15  0.00000000E+00  0.00000000E+00  0.00000000E+00  0.00000000E+00
  0.00000000E+00  0.00000000E+00  0.00000000E+00  0.00000000E+00  0.00000000E+00
  0.00000000E+00  0.00000000E+00  0.00000000E+00  0.00000000E+00  0.00000000E+00
  0.00000000E+00  0.00000000E+00  0.00000000E+00  0.00000000E+00  0.00000000E+00
  0.00000000E+00  0.00000000E+00  0.00000000E+00  0.00000000E+00  0.00000000E+00
  0.00000000E+00  0.00000000E+00  0.00000000E+00  0.00000000E+00  0.00000000E+00
  0.00000000E+00  0.00000000E+00  0.00000000E+00  0.00000000E+00  0.00000000E+00
  1.20097564E+00  0.00000000E+00  0.00000000E+00  0.00000000E+00  0.00000000E+00
 -8.29814209E-01  0.00000000E+00  0.00000000E+00  0.00000000E+00  0.00000000E+00
  3.18515589E-01  0.00000000E+00  0.00000000E+00  0.00000000E+00  0.00000000E+00
  0.00000000E+00  0.00000000E+00  0.00000000E+00  0.00000000E+00  0.00000000E+00
  0.00000000E+00  0.00000000E+00  0.00000000E+00  0.00000000E+00  0.00000000E+00
  0.00000000E+00  0.00000000E+00  0.00000000E+00  0.00000000E+00  0.00000000E+00
  0.00000000E+00  0.00000000E+00  0.00000000E+00  0.00000000E+00  0.00000000E+00
  0.00000000E+00  0.00000000E+00  0.00000000E+00  0.00000000E+00  0.00000000E+00
  0.00000000E+00  0.00000000E+00  0.00000000E+00  0.00000000E+00  0.00000000E+00
  1.20097564E+00  0.00000000E+00  0.00000000E+00  0.00000000E+00  0.00000000E+00
 -8.29814209E-01  0.00000000E+00  0.00000000E+00  0.00000000E+00  0.00000000E+00
  3.18515589E-01  0.00000000E+00  0.00000000E+00  0.00000000E+00  0.00000000E+00
  0.00000000E+00  0.00000000E+00  0.00000000E+00  0.00000000E+00  0.00000000E+00
  0.00000000E+00  0.00000000E+00  0.00000000E+00  0.00000000E+00  0.00000000E+00
  0.00000000E+00  0.00000000E+00  0.00000000E+00  8.15330790E-15  1.99150399E-14
 -1.58477240E-14 -1.30929719E-14  3.72306633E-15  0.00000000E+00  0.00000000E+00
  0.00000000E+00  0.00000000E+00  0.00000000E+00  0.00000000E+00  0.00000000E+00
  0.00000000E+00  0.00000000E+00  0.00000000E+00  0.00000000E+00  0.00000000E+00
  8.38855648E-15  0.00000000E+00  0.00000000E+00  1.20099846E+00  0.00000000E+00
 -7.53005262E-15  0.00000000E+00  0.00000000E+00 -8.26404848E-01  0.00000000E+00
  4.13484714E-15  0.00000000E+00  0.00000000E+00  3.16600762E-01  0.00000000E+00
  0.00000000E+00  0.00000000E+00  0.00000000E+00  0.00000000E+00  0.00000000E+00
  0.00000000E+00  0.00000000E+00  0.00000000E+00  0.00000000E+00  0.00000000E+00
  0.00000000E+00  0.00000000E+00  0.00000000E+00  0.00000000E+00  0.00000000E+00
  0.00000000E+00  0.00000000E+00  0.00000000E+00  0.00000000E+00  0.00000000E+00
  0.00000000E+00  0.00000000E+00  0.00000000E+00  0.00000000E+00  0.00000000E+00
  0.00000000E+00  0.00000000E+00  0.00000000E+00  0.00000000E+00  0.00000000E+00
  0.00000000E+00  0.00000000E+00  0.00000000E+00  0.00000000E+00  0.00000000E+00
  1.20099846E+00  0.00000000E+00  0.00000000E+00  0.00000000E+00  0.00000000E+00
 -8.26404848E-01  0.00000000E+00  0.00000000E+00  0.00000000E+00  0.00000000E+00
  3.16600762E-01  0.00000000E+00  0.00000000E+00  0.00000000E+00  0.00000000E+00
  0.00000000E+00  0.00000000E+00  0.00000000E+00  0.00000000E+00  0.00000000E+00
  0.00000000E+00  0.00000000E+00  0.00000000E+00  0.00000000E+00  0.00000000E+00
  1.26922015E+00  3.21716271E+00 -2.48380404E+00 -2.01380529E+00  6.03549791E-01
  0.00000000E+00  0.00000000E+00  0.00000000E+00  0.00000000E+00  0.00000000E+00
  0.00000000E+00  0.00000000E+00  0.00000000E+00  0.00000000E+00  0.00000000E+00
  0.00000000E+00  0.00000000E+00  2.49507315E-02  0.00000000E+00  0.00000000E+00
 -8.74514107E-15  0.00000000E+00 -2.10075289E-02  0.00000000E+00  0.00000000E+00
  5.98525785E-15  0.00000000E+00  8.75744285E-03  0.00000000E+00  0.00000000E+00
 -2.31516842E-15  0.00000000E+00  0.00000000E+00  0.00000000E+00  0.00000000E+00
  0.00000000E+00  0.00000000E+00  0.00000000E+00  0.00000000E+00  0.00000000E+00
  0.00000000E+00  0.00000000E+00  0.00000000E+00  0.00000000E+00  0.00000000E+00
  0.00000000E+00
Beta MO coefficients                       R   N=        2116
  9.77514176E-01 -7.85044950E-03  4.20891718E-02  3.19717929E-03 -7.29046356E-04
  0.00000000E+00  0.00000000E+00  0.00000000E+00  0.00000000E+00  0.00000000E+00
  0.00000000E+00  0.00000000E+00  0.00000000E+00  0.00000000E+00  0.00000000E+00
  0.00000000E+00  0.00000000E+00 -9.28958002E-04  0.00000000E+00  0.00000000E+00
 -3.50623129E-16  0.00000000E+00 -1.80260056E-04  0.00000000E+00  0.00000000E+00
  4.33048409E-16  0.00000000E+00 -3.82535751E-05  0.00000000E+00  0.00000000E+00
 -2.90632827E-16  0.00000000E+00  0.00000000E+00  0.00000000E+00  0.00000000E+00
  0.00000000E+00  0.00000000E+00  0.00000000E+00  0.00000000E+00  0.00000000E+00
  0.00000000E+00  0.00000000E+00  0.00000000E+00  0.00000000E+00  0.00000000E+00
  0.00000000E+00 -2.24169800E-01  5.54573028E-01  1.66959713E-01  3.75802428E-01
  1.07939554E-02  0.00000000E+00  0.00000000E+00  0.00000000E+00  0.00000000E+00
  0.00000000E+00  0.00000000E+00  0.00000000E+00  0.00000000E+00  0.00000000E+00
  0.00000000E+00  0.00000000E+00  0.00000000E+00 -8.30536230E-03  0.00000000E+00
  0.00000000E+00  4.95646240E-17  0.00000000E+00 -1.67623184E-02  0.00000000E+00
  0.00000000E+00 -4.24115514E-16  0.00000000E+00 -7.98366627E-03  0.00000000E+00
  0.00000000E+00  2.23796137E-16  0.00000000E+00  0.00000000E+00  0.00000000E+00
  0.00000000E+00  0.00000000E+00  0.00000000E+00  0.00000000E+00  0.00000000E+00
  0.00000000E+00  0.00000000E+00  0.00000000E+00  0.00000000E+00  0.00000000E+00
  0.00000000E+00  0.00000000E+00  0.00000000E+00  0.00000000E+00  0.00000000E+00
  0.00000000E+00  0.00000000E+00  3.90053012E-01  0.00000000E+00  0.00000000E+00
  4.80361195E-01  0.00000000E+00  0.00000000E+00  3.38727909E-01  0.00000000E+00
  0.00000000E+00  2.75376091E-02  0.00000000E+00  0.00000000E+00  0.00000000E+00
  0.00000000E+00  0.00000000E+00  0.00000000E+00  0.00000000E+00  0.00000000E+00
  0.00000000E+00  0.00000000E+00  0.00000000E+00  0.00000000E+00  0.00000000E+00
  0.00000000E+00  0.00000000E+00  0.00000000E+00  0.00000000E+00  0.00000000E+00
 -6.30468430E-04  0.00000000E+00  0.00000000E+00  0.00000000E+00  8.35316096E-16
  0.00000000E+00  0.00000000E+00 -6.93839249E-04  0.00000000E+00  0.00000000E+00
  0.00000000E+00 -1.69356385E-15  0.00000000E+00  0.00000000E+00  0.00000000E+00
  0.00000000E+00  0.00000000E+00  0.00000000E+00  0.00000000E+00  3.90053012E-01
  0.00000000E+00  0.00000000E+00  4.80361195E-01  0.00000000E+00  0.00000000E+00
  3.38727909E-01  0.00000000E+00  0.00000000E+00  2.75376091E-02  0.00000000E+00
  0.00000000E+00  0.00000000E+00  0.00000000E+00  0.00000000E+00  0.00000000E+00
  0.00000000E+00  0.00000000E+00  0.00000000E+00  0.00000000E+00  0.00000000E+00
  0.00000000E+00  0.00000000E+00  0.00000000E+00  0.00000000E+00  0.00000000E+00
  0.00000000E+00  0.00000000E+00 -6.30468430E-04  0.00000000E+00  0.00000000E+00
  0.00000000E+00 -9.22082887E-16  0.00000000E+00  0.00000000E+00 -6.93839249E-04
  0.00000000E+00  0.00000000E+00  0.00000000E+00  1.67177382E-15  0.00000000E+00
  0.00000000E+00  0.00000000E+00  0.00000000E+00  0.00000000E+00  0.00000000E+00
  0.00000000E+00  2.54723071E-01  0.00000000E+00  0.00000000E+00  3.29871268E-01
  0.00000000E+00  0.00000000E+00  3.15753598E-01  0.00000000E+00  0.00000000E+00
  4.59805723E-01  0.00000000E+00  0.00000000E+00  0.00000000E+00  0.00000000E+00
  0.00000000E+00  0.00000000E+00  0.00000000E+00  0.00000000E+00  0.00000000E+00
  0.00000000E+00  0.00000000E+00  0.00000000E+00  0.00000000E+00  0.00000000E+00
  0.00000000E+00 -8.96430289E-04  0.00000000E+00  0.00000000E+00 -4.52782858E-17
  0.00000000E+00  0.00000000E+00  0.00000000E+00  4.67612829E-06  0.00000000E+00
  0.00000000E+00 -1.37800044E-17  0.00000000E+00  0.00000000E+00  0.00000000E+00
  0.00000000E+00  0.00000000E+00  0.00000000E+00  0.00000000E+00  0.00000000E+00
 -1.00546445E-01  0.00000000E+00  0.00000000E+00 -6.37195275E-02  0.00000000E+00
  0.00000000E+00 -3.71111712E-01  0.00000000E+00  0.00000000E+00  1.17040346E+00
  0.00000000E+00  0.00000000E+00  0.00000000E+00  0.00000000E+00  0.00000000E+00
  0.00000000E+00  0.00000000E+00  0.00000000E+00  0.00000000E+00  0.00000000E+00
  0.00000000E+00  0.00000000E+00  0.00000000E+00  0.00000000E+00  0.00000000E+00
  0.00000000E+00  0.00000000E+00  0.00000000E+00 -1.47532443E-04  0.00000000E+00
  0.00000000E+00  0.00000000E+00 -5.47671085E-16  0.00000000E+00  0.00000000E+00
  5.31842657E-04  0.00000000E+00  0.00000000E+00  0.00000000E+00  1.38051516E-15
  0.00000000E+00  0.00000000E+00  0.00000000E+00  0.00000000E+00  0.00000000E+00
  0.00000000E+00  0.00000000E+00 -1.00546445E-01  0.00000000E+00  0.00000000E+00
 -6.37195275E-02  0.00000000E+00  0.00000000E+00 -3.71111712E-01  0.00000000E+00
  0.00000000E+00  1.17040346E+00  0.00000000E+00  0.00000000E+00  0.00000000E+00
  0.00000000E+00  0.00000000E+00  0.00000000E+00  0.00000000E+00  0.00000000E+00
  0.00000000E+00  0.00000000E+00  0.00000000E+00  0.00000000E+00  0.00000000E+00
  0.00000000E+00  0.00000000E+00  0.00000000E+00  0.00000000E+00  0.00000000E+00
 -1.47532443E-04  0.00000000E+00  0.00000000E+00  0.00000000E+00  5.38795186E-16
  0.00000000E+00  0.00000000E+00  5.31842657E-04  0.00000000E+00  0.00000000E+00
  0.00000000E+00 -1.28470780E-15  7.47097217E-02 -4.47509292E-02 -4.99511035E-02
 -8.90386287E-01  1.50570018E+00  0.00000000E+00  0.00000000E+00  0.00000000E+00
  0.00000000E+00  0.00000000E+00  0.00000000E+00  0.00000000E+00  0.00000000E+00
  0.00000000E+00  0.00000000E+00  0.00000000E+00  0.00000000E+00  1.54380590E-03
  0.00000000E+00  0.00000000E+00  1.17695573E-16  0.00000000E+00 -1.30656826E-03
  0.00000000E+00  0.00000000E+00 -5.48794560E-17  0.00000000E+00  8.83469545E-03
  0.00000000E+00  0.00000000E+00 -1.09593473E-16  0.00000000E+00  0.00000000E+00
  0.00000000E+00  0.00000000E+00  0.00000000E+00  0.00000000E+00  0.00000000E+00
  0.00000000E+00  0.00000000E+00  0.00000000E+00  0.00000000E+00  0.00000000E+00
  0.00000000E+00  0.00000000E+00  0.00000000E+00  0.00000000E+00  0.00000000E+00
  0.00000000E+00  0.00000000E+00  0.00000000E+00  0.00000000E+00  0.00000000E+00
 -2.13236320E-01  0.00000000E+00  0.00000000E+00 -1.98426021E-01  0.00000000E+00
  0.00000000E+00 -6.27686613E-01  0.00000000E+00  0.00000000E+00  1.10423452E+00
  0.00000000E+00  0.00000000E+00  0.00000000E+00  0.00000000E+00  0.00000000E+00
  0.00000000E+00  0.00000000E+00  0.00000000E+00  0.00000000E+00  0.00000000E+00
  0.00000000E+00  0.00000000E+00  0.00000000E+00  0.00000000E+00  0.00000000E+00
  2.86258943E-04  0.00000000E+00  0.00000000E+00  2.58746921E-17  0.00000000E+00
  0.00000000E+00  0.00000000E+00  5.03463809E-04  0.00000000E+00  0.00000000E+00
  1.57814848E-16  0.00000000E+00  0.00000000E+00  0.00000000E+00  0.00000000E+00
  0.00000000E+00  0.00000000E+00  0.00000000E+00  0.00000000E+00  0.00000000E+00
  0.00000000E+00  0.00000000E+00  0.00000000E+00  0.00000000E+00  0.00000000E+00
  0.00000000E+00  0.00000000E+00  0.00000000E+00  0.00000000E+00  0.00000000E+00
  0.00000000E+00  0.00000000E+00  0.00000000E+00  0.00000000E+00  0.00000000E+00
  4.16816637E-02  0.00000000E+00  0.00000000E+00  0.00000000E+00  0.00000000E+00
 -1.25380354E-01  0.00000000E+00  0.00000000E+00  0.00000000E+00  0.00000000E+00
  1.06839365E+00  0.00000000E+00  0.00000000E+00  0.00000000E+00  0.00000000E+00
  0.00000000E+00  0.00000000E+00  0.00000000E+00  0.00000000E+00  0.00000000E+00
  0.00000000E+00  0.00000000E+00  0.00000000E+00  0.00000000E+00  0.00000000E+00
 -1.38188703E-15  1.62731097E-16  8.66035208E-16  7.81132293E-15 -4.72067631E-15
  0.00000000E+00  0.00000000E+00  0.00000000E+00  0.00000000E+00  0.00000000E+00
  0.00000000E+00  0.00000000E+00  0.00000000E+00  0.00000000E+00  0.00000000E+00
  0.00000000E+00  0.00000000E+00  1.07842535E-14  0.00000000E+00  0.00000000E+00
  4.16816637E-02  0.00000000E+00 -3.83694077E-14  0.00000000E+00  0.00000000E+00
 -1.25380354E-01  0.00000000E+00  2.96974948E-13  0.00000000E+00  0.00000000E+00
  1.06839365E+00  0.00000000E+00  0.00000000E+00  0.00000000E+00  0.00000000E+00
  0.00000000E+00  0.00000000E+00  0.00000000E+00  0.00000000E+00  0.00000000E+00
  0.00000000E+00  0.00000000E+00  0.00000000E+00  0.00000000E+00  0.00000000E+00
  0.00000000E+00  0.00000000E+00  0.00000000E+00  0.00000000E+00  0.00000000E+00
  0.00000000E+00  0.00000000E+00  0.00000000E+00  0.00000000E+00  0.00000000E+00
  0.00000000E+00  0.00000000E+00  0.00000000E+00  0.00000000E+00  0.00000000E+00
  0.00000000E+00  0.00000000E+00  0.00000000E+00  0.00000000E+00  3.98682248E-02
  0.00000000E+00  0.00000000E+00  0.00000000E+00  0.00000000E+00 -1.36443694E-01
  0.00000000E+00  0.00000000E+00  0.00000000E+00  0.00000000E+00  1.07472595E+00
  0.00000000E+00  0.00000000E+00  0.00000000E+00  0.00000000E+00  0.00000000E+00
  0.00000000E+00  0.00000000E+00  0.00000000E+00  0.00000000E+00  0.00000000E+00
  0.00000000E+00  0.00000000E+00  0.00000000E+00  0.00000000E+00  0.00000000E+00
  0.00000000E+00  0.00000000E+00  0.00000000E+00  0.00000000E+00  0.00000000E+00
  0.00000000E+00  0.00000000E+00  0.00000000E+00  0.00000000E+00  0.00000000E+00
  0.00000000E+00  0.00000000E+00  0.00000000E+00  0.00000000E+00  0.00000000E+00
  0.00000000E+00  0.00000000E+00  0.00000000E+00  0.00000000E+00  0.00000000E+00
  0.00000000E+00  3.98682248E-02  0.00000000E+00  0.00000000E+00  0.00000000E+00
  0.00000000E+00 -1.36443694E-01  0.00000000E+00  0.00000000E+00  0.00000000E+00
  0.00000000E+00  1.07472595E+00  0.00000000E+00  0.00000000E+00  0.00000000E+00
  0.00000000E+00  0.00000000E+00  0.00000000E+00  0.00000000E+00  0.00000000E+00
  0.00000000E+00  0.00000000E+00  0.00000000E+00  0.00000000E+00  0.00000000E+00
  0.00000000E+00  0.00000000E+00  0.00000000E+00 -4.96747444E-03 -9.99828229E-04
  2.80002460E-03  3.12417861E-02 -1.89651173E-02  0.00000000E+00  0.00000000E+00
  0.00000000E+00  0.00000000E+00  0.00000000E+00  0.00000000E+00  0.00000000E+00
  0.00000000E+00  0.00000000E+00  0.00000000E+00  0.00000000E+00  0.00000000E+00
  3.91106995E-02  0.00000000E+00  0.00000000E+00 -1.18578876E-14  0.00000000E+00
 -1.40614186E-01  0.00000000E+00  0.00000000E+00  3.55894880E-14  0.00000000E+00
  1.07687993E+00  0.00000000E+00  0.00000000E+00 -2.96373968E-13  0.00000000E+00
  0.00000000E+00  0.00000000E+00  0.00000000E+00  0.00000000E+00  0.00000000E+00
  0.00000000E+00  0.00000000E+00  0.00000000E+00  0.00000000E+00  0.00000000E+00
  0.00000000E+00  0.00000000E+00  0.00000000E+00  0.00000000E+00  0.00000000E+00
  0.00000000E+00  0.00000000E+00  0.00000000E+00  0.00000000E+00  0.00000000E+00
 -2.60552860E-01  0.00000000E+00  0.00000000E+00 -7.72226867E-01  0.00000000E+00
  0.00000000E+00  1.53336327E+00  0.00000000E+00  0.00000000E+00 -6.27161360E-01
  0.00000000E+00  0.00000000E+00  0.00000000E+00  0.00000000E+00  0.00000000E+00
  0.00000000E+00  0.00000000E+00  0.00000000E+00  0.00000000E+00  0.00000000E+00
  0.00000000E+00  0.00000000E+00  0.00000000E+00  0.00000000E+00  0.00000000E+00
  0.00000000E+00  0.00000000E+00  0.00000000E+00 -1.59921200E-03  0.00000000E+00
  0.00000000E+00  0.00000000E+00 -1.86483580E-15  0.00000000E+00  0.00000000E+00
  5.47081275E-03  0.00000000E+00  0.00000000E+00  0.00000000E+00  4.40837573E-15
  0.00000000E+00  0.00000000E+00  0.00000000E+00  0.00000000E+00  0.00000000E+00
 -2.60552860E-01  0.00000000E+00  0.00000000E+00 -7.72226867E-01  0.00000000E+00
  0.00000000E+00  1.53336327E+00  0.00000000E+00  0.00000000E+00 -6.27161360E-01
  0.00000000E+00  0.00000000E+00  0.00000000E+00  0.00000000E+00  0.00000000E+00
  0.00000000E+00  0.00000000E+00  0.00000000E+00  0.00000000E+00  0.00000000E+00
  0.00000000E+00  0.00000000E+00  0.00000000E+00  0.00000000E+00  0.00000000E+00
  0.00000000E+00  0.00000000E+00  0.00000000E+00 -1.59921200E-03  0.00000000E+00
  0.00000000E+00  0.00000000E+00  1.89611548E-15  0.00000000E+00  0.00000000E+00
  5.47081275E-03  0.00000000E+00  0.00000000E+00  0.00000000E+00 -4.40549339E-15
  0.00000000E+00  0.00000000E+00  0.00000000E+00  0.00000000E+00  0.00000000E+00
  0.00000000E+00  0.00000000E+00  0.00000000E+00 -2.96034334E-01  0.00000000E+00
  0.00000000E+00 -8.70258893E-01  0.00000000E+00  0.00000000E+00  1.46207149E+00
  0.00000000E+00  0.00000000E+00 -5.79400355E-01  0.00000000E+00  0.00000000E+00
  0.00000000E+00  0.00000000E+00  0.00000000E+00  0.00000000E+00  0.00000000E+00
  0.00000000E+00  0.00000000E+00  0.00000000E+00  0.00000000E+00  0.00000000E+00
  0.00000000E+00  0.00000000E+00  0.00000000E+00 -1.94052721E-03  0.00000000E+00
  0.00000000E+00  2.91919933E-16  0.00000000E+00  0.00000000E+00  0.00000000E+00
  7.20858572E-03  0.00000000E+00  0.00000000E+00  3.09043303E-16  0.00000000E+00
  0.00000000E+00  0.00000000E+00  2.95400890E-02 -1.53387545E+00 -3.33622795E-01
  2.58199953E+00 -1.03172586E+00  0.00000000E+00  0.00000000E+00  0.00000000E+00
  0.00000000E+00  0.00000000E+00  0.00000000E+00  0.00000000E+00  0.00000000E+00
  0.00000000E+00  0.00000000E+00  0.00000000E+00  0.00000000E+00  9.97754715E-04
  0.00000000E+00  0.00000000E+00 -1.50010453E-16  0.00000000E+00  1.37405097E-02
  0.00000000E+00  0.00000000E+00 -1.02895231E-15  0.00000000E+00 -1.38344239E-02
  0.00000000E+00  0.00000000E+00  8.92233477E-16  0.00000000E+00  0.00000000E+00
  0.00000000E+00  0.00000000E+00  0.00000000E+00  0.00000000E+00  0.00000000E+00
  0.00000000E+00  0.00000000E+00  0.00000000E+00  0.00000000E+00  0.00000000E+00
  0.00000000E+00  0.00000000E+00  0.00000000E+00  0.00000000E+00  0.00000000E+00
  0.00000000E+00  0.00000000E+00  0.00000000E+00  0.00000000E+00  0.00000000E+00
  0.00000000E+00  0.00000000E+00  0.00000000E+00  0.00000000E+00  0.00000000E+00
  0.00000000E+00  0.00000000E+00  0.00000000E+00  0.00000000E+00  0.00000000E+00
  0.00000000E+00  0.00000000E+00  0.00000000E+00  0.00000000E+00  5.22072296E-03
  0.00000000E+00  0.00000000E+00  0.00000000E+00  0.00000000E+00  1.26381201E+00
  0.00000000E+00  0.00000000E+00  0.00000000E+00  0.00000000E+00 -7.04753551E-01
  0.00000000E+00  0.00000000E+00  0.00000000E+00  0.00000000E+00  0.00000000E+00
  0.00000000E+00  0.00000000E+00  0.00000000E+00  0.00000000E+00  0.00000000E+00
  0.00000000E+00  0.00000000E+00  0.00000000E+00  0.00000000E+00  4.78421052E-17
 -2.65523950E-15 -3.59220128E-16  3.77217922E-15 -1.84880991E-15  0.00000000E+00
  0.00000000E+00  0.00000000E+00  0.00000000E+00  0.00000000E+00  0.00000000E+00
  0.00000000E+00  0.00000000E+00  0.00000000E+00  0.00000000E+00  0.00000000E+00
  0.00000000E+00  7.85067327E-17  0.00000000E+00  0.00000000E+00  5.22072296E-03
  0.00000000E+00 -4.83004715E-14  0.00000000E+00  0.00000000E+00  1.26381201E+00
  0.00000000E+00  2.54208627E-14  0.00000000E+00  0.00000000E+00 -7.04753551E-01
  0.00000000E+00  0.00000000E+00  0.00000000E+00  0.00000000E+00  0.00000000E+00
  0.00000000E+00  0.00000000E+00  0.00000000E+00  0.00000000E+00  0.00000000E+00
  0.00000000E+00  0.00000000E+00  0.00000000E+00  0.00000000E+00  0.00000000E+00
  0.00000000E+00  0.00000000E+00  0.00000000E+00  0.00000000E+00  0.00000000E+00
  0.00000000E+00  0.00000000E+00  0.00000000E+00  0.00000000E+00  0.00000000E+00
  0.00000000E+00  0.00000000E+00  0.00000000E+00  0.00000000E+00  0.00000000E+00
  0.00000000E+00  0.00000000E+00  0.00000000E+00  0.00000000E+00 -6.41230531E-04
  0.00000000E+00  0.00000000E+00  0.00000000E+00  0.00000000E+00  1.26682014E+00
  0.00000000E+00  0.00000000E+00  0.00000000E+00  0.00000000E+00 -6.95986998E-01
  0.00000000E+00  0.00000000E+00  0.00000000E+00  0.00000000E+00  0.00000000E+00
  0.00000000E+00  0.00000000E+00  0.00000000E+00  0.00000000E+00  0.00000000E+00
  0.00000000E+00  0.00000000E+00  0.00000000E+00  0.00000000E+00  0.00000000E+00
  0.00000000E+00  0.00000000E+00  0.00000000E+00  0.00000000E+00  0.00000000E+00
  0.00000000E+00  0.00000000E+00  0.00000000E+00  0.00000000E+00  0.00000000E+00
  0.00000000E+00  0.00000000E+00  0.00000000E+00  0.00000000E+00  0.00000000E+00
  0.00000000E+00  0.00000000E+00  0.00000000E+00  0.00000000E+00 -6.41230531E-04
  0.00000000E+00  0.00000000E+00  0.00000000E+00  0.00000000E+00  1.26682014E+00
  0.00000000E+00  0.00000000E+00  0.00000000E+00  0.00000000E+00 -6.95986998E-01
  0.00000000E+00  0.00000000E+00  0.00000000E+00  0.00000000E+00  0.00000000E+00
  0.00000000E+00  0.00000000E+00  0.00000000E+00  0.00000000E+00  0.00000000E+00
  0.00000000E+00  0.00000000E+00  0.00000000E+00  0.00000000E+00  0.00000000E+00
  0.00000000E+00  0.00000000E+00 -2.22194545E-03  3.19659902E-02  3.32631012E-03
 -2.31117768E-02  1.14362591E-02  0.00000000E+00  0.00000000E+00  0.00000000E+00
  0.00000000E+00  0.00000000E+00  0.00000000E+00  0.00000000E+00  0.00000000E+00
  0.00000000E+00  0.00000000E+00  0.00000000E+00  0.00000000E+00 -2.81512488E-03
  0.00000000E+00  0.00000000E+00  1.13670272E-15  0.00000000E+00  1.26760345E+00
  0.00000000E+00  0.00000000E+00  4.78832667E-14  0.00000000E+00 -6.92722598E-01
  0.00000000E+00  0.00000000E+00 -2.71540575E-14  0.00000000E+00  0.00000000E+00
  0.00000000E+00  0.00000000E+00  0.00000000E+00  0.00000000E+00  0.00000000E+00
  0.00000000E+00  0.00000000E+00  0.00000000E+00  0.00000000E+00  0.00000000E+00
  0.00000000E+00  0.00000000E+00  0.00000000E+00  0.00000000E+00  0.00000000E+00
  0.00000000E+00  0.00000000E+00  0.00000000E+00  0.00000000E+00  0.00000000E+00
  3.80682096E-04  0.00000000E+00  0.00000000E+00  7.70536983E-03  0.00000000E+00
  0.00000000E+00 -9.58402819E-03  0.00000000E+00  0.00000000E+00  3.41220181E-03
  0.00000000E+00  0.00000000E+00  0.00000000E+00  0.00000000E+00  0.00000000E+00
  0.00000000E+00  0.00000000E+00  0.00000000E+00  0.00000000E+00  0.00000000E+00
  0.00000000E+00  0.00000000E+00  0.00000000E+00  0.00000000E+00  0.00000000E+00
 -1.58079827E-01  0.00000000E+00  0.00000000E+00 -2.12873632E-15  0.00000000E+00
  0.00000000E+00  0.00000000E+00  1.08652074E+00  0.00000000E+00  0.00000000E+00
  1.75093919E-14  0.00000000E+00  0.00000000E+00  0.00000000E+00  0.00000000E+00
  0.00000000E+00  0.00000000E+00  0.00000000E+00  0.00000000E+00  0.00000000E+00
  3.66036053E-04  0.00000000E+00  0.00000000E+00  5.66828169E-03  0.00000000E+00
  0.00000000E+00 -7.43450535E-03  0.00000000E+00  0.00000000E+00  2.65993002E-03
  0.00000000E+00  0.00000000E+00  0.00000000E+00  0.00000000E+00  0.00000000E+00
  0.00000000E+00  0.00000000E+00  0.00000000E+00  0.00000000E+00  0.00000000E+00
  0.00000000E+00  0.00000000E+00  0.00000000E+00  0.00000000E+00  0.00000000E+00
  0.00000000E+00  0.00000000E+00  0.00000000E+00 -1.57926413E-01  0.00000000E+00
  0.00000000E+00  0.00000000E+00  4.99218637E-15  0.00000000E+00  0.00000000E+00
  1.08645322E+00  0.00000000E+00  0.00000000E+00  0.00000000E+00 -2.89447437E-14
  0.00000000E+00  0.00000000E+00  0.00000000E+00  0.00000000E+00  0.00000000E+00
  3.66036053E-04  0.00000000E+00  0.00000000E+00  5.66828169E-03  0.00000000E+00
  0.00000000E+00 -7.43450535E-03  0.00000000E+00  0.00000000E+00  2.65993002E-03
  0.00000000E+00  0.00000000E+00  0.00000000E+00  0.00000000E+00  0.00000000E+00
  0.00000000E+00  0.00000000E+00  0.00000000E+00  0.00000000E+00  0.00000000E+00
  0.00000000E+00  0.00000000E+00  0.00000000E+00  0.00000000E+00  0.00000000E+00
  0.00000000E+00  0.00000000E+00  0.00000000E+00 -1.57926413E-01  0.00000000E+00
  0.00000000E+00  0.00000000E+00 -1.59078766E-14  0.00000000E+00  0.00000000E+00
  1.08645322E+00  0.00000000E+00  0.00000000E+00  0.00000000E+00  1.02239703E-13
  0.00000000E+00  0.00000000E+00  0.00000000E+00  0.00000000E+00  0.00000000E+00
  0.00000000E+00  0.00000000E+00  0.00000000E+00  0.00000000E+00  0.00000000E+00
  0.00000000E+00  0.00000000E+00  0.00000000E+00  0.00000000E+00  0.00000000E+00
  0.00000000E+00  0.00000000E+00  0.00000000E+00  0.00000000E+00  0.00000000E+00
  0.00000000E+00  0.00000000E+00  0.00000000E+00  0.00000000E+00  0.00000000E+00
  0.00000000E+00  0.00000000E+00  0.00000000E+00  0.00000000E+00  0.00000000E+00
  0.00000000E+00  0.00000000E+00  0.00000000E+00  0.00000000E+00  0.00000000E+00
  0.00000000E+00  0.00000000E+00 -1.57451785E-01  0.00000000E+00  0.00000000E+00
  0.00000000E+00  0.00000000E+00  0.00000000E+00  0.00000000E+00  1.08622964E+00
  0.00000000E+00  0.00000000E+00  0.00000000E+00  0.00000000E+00  0.00000000E+00
  0.00000000E+00  0.00000000E+00  0.00000000E+00  0.00000000E+00  3.17606631E-16
  0.00000000E+00  0.00000000E+00  1.78793619E-15  0.00000000E+00  0.00000000E+00
 -9.92969651E-16  0.00000000E+00  0.00000000E+00 -1.16618272E-15  0.00000000E+00
  0.00000000E+00  0.00000000E+00  0.00000000E+00  0.00000000E+00  0.00000000E+00
  0.00000000E+00  0.00000000E+00  0.00000000E+00  0.00000000E+00  0.00000000E+00
  0.00000000E+00  0.00000000E+00  0.00000000E+00  0.00000000E+00  2.06572607E-15
  0.00000000E+00  0.00000000E+00 -1.57451785E-01  0.00000000E+00  0.00000000E+00
  0.00000000E+00 -1.74506475E-14  0.00000000E+00  0.00000000E+00  1.08622964E+00
  0.00000000E+00  0.00000000E+00  0.00000000E+00  0.00000000E+00  0.00000000E+00
  0.00000000E+00  0.00000000E+00  0.00000000E+00 -1.85587442E-16  0.00000000E+00
  0.00000000E+00 -2.38588448E-15  0.00000000E+00  0.00000000E+00  5.71345956E-15
  0.00000000E+00  0.00000000E+00 -2.71393346E-15  0.00000000E+00  0.00000000E+00
  0.00000000E+00  0.00000000E+00  0.00000000E+00  0.00000000E+00  0.00000000E+00
  0.00000000E+00  0.00000000E+00  0.00000000E+00  0.00000000E+00  0.00000000E+00
  0.00000000E+00  0.00000000E+00  0.00000000E+00  0.00000000E+00  0.00000000E+00
  0.00000000E+00  1.38015244E-14  0.00000000E+00  0.00000000E+00  0.00000000E+00
 -1.56623933E-01  0.00000000E+00  0.00000000E+00 -1.01079901E-13  0.00000000E+00
  0.00000000E+00  0.00000000E+00  1.08581838E+00  0.00000000E+00  0.00000000E+00
  0.00000000E+00  0.00000000E+00  0.00000000E+00  0.00000000E+00  0.00000000E+00
  1.20331031E-15  0.00000000E+00  0.00000000E+00  1.57430418E-15  0.00000000E+00
  0.00000000E+00 -5.29555740E-15  0.00000000E+00  0.00000000E+00  2.82603840E-15
  0.00000000E+00  0.00000000E+00  0.00000000E+00  0.00000000E+00  0.00000000E+00
  0.00000000E+00  0.00000000E+00  0.00000000E+00  0.00000000E+00  0.00000000E+00
  0.00000000E+00  0.00000000E+00  0.00000000E+00  0.00000000E+00  0.00000000E+00
  0.00000000E+00  0.00000000E+00  0.00000000E+00 -3.15676275E-15  0.00000000E+00
  0.00000000E+00  0.00000000E+00 -1.56623933E-01  0.00000000E+00  0.00000000E+00
  2.78515080E-14  0.00000000E+00  0.00000000E+00  0.00000000E+00  1.08581838E+00
  0.00000000E+00  0.00000000E+00  0.00000000E+00  0.00000000E+00  0.00000000E+00
  0.00000000E+00 -1.22634979E+00  0.00000000E+00  0.00000000E+00  1.51280890E+00
  0.00000000E+00  0.00000000E+00 -7.93668289E-01  0.00000000E+00  0.00000000E+00
  2.44710936E-01  0.00000000E+00  0.00000000E+00  0.00000000E+00  0.00000000E+00
  0.00000000E+00  0.00000000E+00  0.00000000E+00  0.00000000E+00  0.00000000E+00
  0.00000000E+00  0.00000000E+00  0.00000000E+00  0.00000000E+00  0.00000000E+00
  0.00000000E+00  0.00000000E+00  0.00000000E+00  0.00000000E+00  2.86356078E-03
  0.00000000E+00  0.00000000E+00  0.00000000E+00  6.98682361E-15  0.00000000E+00
  0.00000000E+00 -2.47152112E-03  0.00000000E+00  0.00000000E+00  0.00000000E+00
 -2.29157919E-15  0.00000000E+00  0.00000000E+00  0.00000000E+00  0.00000000E+00
  0.00000000E+00 -1.22634979E+00  0.00000000E+00  0.00000000E+00  1.51280890E+00
  0.00000000E+00  0.00000000E+00 -7.93668289E-01  0.00000000E+00  0.00000000E+00
  2.44710936E-01  0.00000000E+00  0.00000000E+00  0.00000000E+00  0.00000000E+00
  0.00000000E+00  0.00000000E+00  0.00000000E+00  0.00000000E+00  0.00000000E+00
  0.00000000E+00  0.00000000E+00  0.00000000E+00  0.00000000E+00  0.00000000E+00
  0.00000000E+00  0.00000000E+00  0.00000000E+00  0.00000000E+00  2.86356078E-03
  0.00000000E+00  0.00000000E+00  0.00000000E+00 -7.01643951E-15  0.00000000E+00
  0.00000000E+00 -2.47152112E-03  0.00000000E+00  0.00000000E+00  0.00000000E+00
  3.19632527E-15  0.00000000E+00  0.00000000E+00  0.00000000E+00  0.00000000E+00
  0.00000000E+00  0.00000000E+00  0.00000000E+00  0.00000000E+00 -1.23938633E+00
  0.00000000E+00  0.00000000E+00  1.48800521E+00  0.00000000E+00  0.00000000E+00
 -7.76007543E-01  0.00000000E+00  0.00000000E+00  2.39483797E-01  0.00000000E+00
  0.00000000E+00  0.00000000E+00  0.00000000E+00  0.00000000E+00  0.00000000E+00
  0.00000000E+00  0.00000000E+00  0.00000000E+00  0.00000000E+00  0.00000000E+00
  0.00000000E+00  0.00000000E+00  0.00000000E+00  0.00000000E+00  3.58702859E-03
  0.00000000E+00  0.00000000E+00  1.13386364E-15  0.00000000E+00  0.00000000E+00
  0.00000000E+00 -3.16320443E-03  0.00000000E+00  0.00000000E+00 -1.13591361E-15
  0.00000000E+00  0.00000000E+00  0.00000000E+00  0.00000000E+00  0.00000000E+00
  0.00000000E+00  0.00000000E+00  0.00000000E+00  0.00000000E+00  0.00000000E+00
  3.40919004E-03  0.00000000E+00  0.00000000E+00 -4.40662650E-03  0.00000000E+00
  0.00000000E+00  3.68997352E-03  0.00000000E+00  0.00000000E+00 -1.08870387E-03
  0.00000000E+00  0.00000000E+00  0.00000000E+00  0.00000000E+00  0.00000000E+00
  0.00000000E+00  0.00000000E+00  0.00000000E+00  0.00000000E+00  0.00000000E+00
  0.00000000E+00  0.00000000E+00  0.00000000E+00  0.00000000E+00  0.00000000E+00
  1.23806884E+00  0.00000000E+00  0.00000000E+00  2.34745045E-13  0.00000000E+00
  0.00000000E+00  0.00000000E+00 -6.14191869E-01  0.00000000E+00  0.00000000E+00
 -1.15688871E-13  0.00000000E+00  0.00000000E+00  0.00000000E+00  0.00000000E+00
  0.00000000E+00  0.00000000E+00  0.00000000E+00  0.00000000E+00  0.00000000E+00
  2.73318921E-03  0.00000000E+00  0.00000000E+00 -3.53637294E-03  0.00000000E+00
  0.00000000E+00  2.99621908E-03  0.00000000E+00  0.00000000E+00 -8.83296422E-04
  0.00000000E+00  0.00000000E+00  0.00000000E+00  0.00000000E+00  0.00000000E+00
  0.00000000E+00  0.00000000E+00  0.00000000E+00  0.00000000E+00  0.00000000E+00
  0.00000000E+00  0.00000000E+00  0.00000000E+00  0.00000000E+00  0.00000000E+00
  0.00000000E+00  0.00000000E+00  0.00000000E+00  1.23809098E+00  0.00000000E+00
  0.00000000E+00  0.00000000E+00  4.60746298E-14  0.00000000E+00  0.00000000E+00
 -6.14331989E-01  0.00000000E+00  0.00000000E+00  0.00000000E+00 -2.25855386E-14
  0.00000000E+00  0.00000000E+00  0.00000000E+00  0.00000000E+00  0.00000000E+00
  2.73318921E-03  0.00000000E+00  0.00000000E+00 -3.53637294E-03  0.00000000E+00
  0.00000000E+00  2.99621908E-03  0.00000000E+00  0.00000000E+00 -8.83296422E-04
  0.00000000E+00  0.00000000E+00  0.00000000E+00  0.00000000E+00  0.00000000E+00
  0.00000000E+00  0.00000000E+00  0.00000000E+00  0.00000000E+00  0.00000000E+00
  0.00000000E+00  0.00000000E+00  0.00000000E+00  0.00000000E+00  0.00000000E+00
  0.00000000E+00  0.00000000E+00  0.00000000E+00  1.23809098E+00  0.00000000E+00
  0.00000000E+00  0.00000000E+00 -1.86527457E-13  0.00000000E+00  0.00000000E+00
 -6.14331989E-01  0.00000000E+00  0.00000000E+00  0.00000000E+00  9.36139871E-14
  0.00000000E+00  0.00000000E+00  0.00000000E+00  0.00000000E+00  0.00000000E+00
  0.00000000E+00  0.00000000E+00  0.00000000E+00  0.00000000E+00  0.00000000E+00
  0.00000000E+00  0.00000000E+00  0.00000000E+00  0.00000000E+00  0.00000000E+00
  0.00000000E+00  0.00000000E+00  0.00000000E+00  0.00000000E+00  0.00000000E+00
  0.00000000E+00  0.00000000E+00  0.00000000E+00  0.00000000E+00  0.00000000E+00
  0.00000000E+00  0.00000000E+00  0.00000000E+00  0.00000000E+00  0.00000000E+00
  0.00000000E+00  0.00000000E+00  0.00000000E+00  0.00000000E+00  0.00000000E+00
  0.00000000E+00  0.00000000E+00  1.23815594E+00  0.00000000E+00  0.00000000E+00
  0.00000000E+00  0.00000000E+00  0.00000000E+00  0.00000000E+00 -6.14757155E-01
  0.00000000E+00  0.00000000E+00  0.00000000E+00  0.00000000E+00  0.00000000E+00
  0.00000000E+00  0.00000000E+00  0.00000000E+00  0.00000000E+00  1.40689708E-15
  0.00000000E+00  0.00000000E+00 -1.00150387E-16  0.00000000E+00  0.00000000E+00
 -4.28129331E-16  0.00000000E+00  0.00000000E+00 -9.21396735E-16  0.00000000E+00
  0.00000000E+00  0.00000000E+00  0.00000000E+00  0.00000000E+00  0.00000000E+00
  0.00000000E+00  0.00000000E+00  0.00000000E+00  0.00000000E+00  0.00000000E+00
  0.00000000E+00  0.00000000E+00  0.00000000E+00  0.00000000E+00 -2.35034395E-13
  0.00000000E+00  0.00000000E+00  1.23815594E+00  0.00000000E+00  0.00000000E+00
  0.00000000E+00  1.15524283E-13  0.00000000E+00  0.00000000E+00 -6.14757155E-01
  0.00000000E+00  0.00000000E+00  0.00000000E+00  0.00000000E+00  0.00000000E+00
  0.00000000E+00  0.00000000E+00  0.00000000E+00 -9.43192401E-15  0.00000000E+00
  0.00000000E+00  1.38590204E-14  0.00000000E+00  0.00000000E+00 -9.53053804E-15
  0.00000000E+00  0.00000000E+00  3.51558429E-15  0.00000000E+00  0.00000000E+00
  0.00000000E+00  0.00000000E+00  0.00000000E+00  0.00000000E+00  0.00000000E+00
  0.00000000E+00  0.00000000E+00  0.00000000E+00  0.00000000E+00  0.00000000E+00
  0.00000000E+00  0.00000000E+00  0.00000000E+00  0.00000000E+00  0.00000000E+00
  0.00000000E+00  1.86550312E-13  0.00000000E+00  0.00000000E+00  0.00000000E+00
  1.23826094E+00  0.00000000E+00  0.00000000E+00 -9.15055240E-14  0.00000000E+00
  0.00000000E+00  0.00000000E+00 -6.15483258E-01  0.00000000E+00  0.00000000E+00
  0.00000000E+00  0.00000000E+00  0.00000000E+00  0.00000000E+00  0.00000000E+00
  1.00332926E-14  0.00000000E+00  0.00000000E+00 -1.47124474E-14  0.00000000E+00
  0.00000000E+00  1.05891829E-14  0.00000000E+00  0.00000000E+00 -3.97104689E-15
  0.00000000E+00  0.00000000E+00  0.00000000E+00  0.00000000E+00  0.00000000E+00
  0.00000000E+00  0.00000000E+00  0.00000000E+00  0.00000000E+00  0.00000000E+00
  0.00000000E+00  0.00000000E+00  0.00000000E+00  0.00000000E+00  0.00000000E+00
  0.00000000E+00  0.00000000E+00  0.00000000E+00 -4.58126272E-14  0.00000000E+00
  0.00000000E+00  0.00000000E+00  1.23826094E+00  0.00000000E+00  0.00000000E+00
  2.24222426E-14  0.00000000E+00  0.00000000E+00  0.00000000E+00 -6.15483258E-01
  1.04584156E-14  2.72983613E-14 -2.07694881E-14 -1.33463533E-14  3.45641291E-15
  0.00000000E+00  0.00000000E+00  0.00000000E+00  0.00000000E+00  0.00000000E+00
  0.00000000E+00  0.00000000E+00  0.00000000E+00  0.00000000E+00  0.00000000E+00
  0.00000000E+00  0.00000000E+00  4.18110557E-13  0.00000000E+00  0.00000000E+00
  1.20101705E+00  0.00000000E+00 -2.86674293E-13  0.00000000E+00  0.00000000E+00
 -8.24539450E-01  0.00000000E+00  1.11558532E-13  0.00000000E+00  0.00000000E+00
  3.15785071E-01  0.00000000E+00  0.00000000E+00  0.00000000E+00  0.00000000E+00
  0.00000000E+00  0.00000000E+00  0.00000000E+00  0.00000000E+00  0.00000000E+00
  0.00000000E+00  0.00000000E+00  0.00000000E+00  0.00000000E+00  0.00000000E+00
  0.00000000E+00  0.00000000E+00  0.00000000E+00  0.00000000E+00  0.00000000E+00
  0.00000000E+00  0.00000000E+00  0.00000000E+00  0.00000000E+00  0.00000000E+00
  0.00000000E+00  0.00000000E+00  0.00000000E+00  0.00000000E+00  0.00000000E+00
  0.00000000E+00  0.00000000E+00  0.00000000E+00  0.00000000E+00  0.00000000E+00
  0.00000000E+00  0.00000000E+00  1.20101705E+00  0.00000000E+00  0.00000000E+00
  0.00000000E+00  0.00000000E+00 -8.24539450E-01  0.00000000E+00  0.00000000E+00
  0.00000000E+00  0.00000000E+00  3.15785071E-01  0.00000000E+00  0.00000000E+00
  0.00000000E+00  0.00000000E+00  0.00000000E+00  0.00000000E+00  0.00000000E+00
  0.00000000E+00  0.00000000E+00  0.00000000E+00  0.00000000E+00  0.00000000E+00
  0.00000000E+00  0.00000000E+00  0.00000000E+00  0.00000000E+00  0.00000000E+00
  0.00000000E+00  0.00000000E+00  0.00000000E+00  0.00000000E+00  0.00000000E+00
  0.00000000E+00  0.00000000E+00  0.00000000E+00  0.00000000E+00  0.00000000E+00
  0.00000000E+00  0.00000000E+00  0.00000000E+00  0.00000000E+00  0.00000000E+00
  0.00000000E+00  1.20108979E+00  0.00000000E+00  0.00000000E+00  0.00000000E+00
  0.00000000E+00 -8.18141910E-01  0.00000000E+00  0.00000000E+00  0.00000000E+00
  0.00000000E+00  3.13733956E-01  0.00000000E+00  0.00000000E+00  0.00000000E+00
  0.00000000E+00  0.00000000E+00  0.00000000E+00  0.00000000E+00  0.00000000E+00
  0.00000000E+00  0.00000000E+00  0.00000000E+00  0.00000000E+00  0.00000000E+00
  0.00000000E+00  0.00000000E+00  0.00000000E+00  0.00000000E+00  0.00000000E+00
  0.00000000E+00  0.00000000E+00  0.00000000E+00  0.00000000E+00  0.00000000E+00
  0.00000000E+00  0.00000000E+00  0.00000000E+00  0.00000000E+00  0.00000000E+00
  0.00000000E+00  0.00000000E+00  0.00000000E+00  0.00000000E+00  0.00000000E+00
  0.00000000E+00  1.20108979E+00  0.00000000E+00  0.00000000E+00  0.00000000E+00
  0.00000000E+00 -8.18141910E-01  0.00000000E+00  0.00000000E+00  0.00000000E+00
  0.00000000E+00  3.13733956E-01  0.00000000E+00  0.00000000E+00  0.00000000E+00
  0.00000000E+00  0.00000000E+00  0.00000000E+00  0.00000000E+00  0.00000000E+00
  0.00000000E+00  0.00000000E+00  0.00000000E+00  0.00000000E+00  0.00000000E+00
  0.00000000E+00  0.00000000E+00  0.00000000E+00  0.00000000E+00  7.22327692E-03
  2.54709483E-02 -1.41873380E-02 -1.20928738E-02  3.42173939E-03  0.00000000E+00
  0.00000000E+00  0.00000000E+00  0.00000000E+00  0.00000000E+00  0.00000000E+00
  0.00000000E+00  0.00000000E+00  0.00000000E+00  0.00000000E+00  0.00000000E+00
  0.00000000E+00  1.20105733E+00  0.00000000E+00  0.00000000E+00 -4.19060539E-13
  0.00000000E+00 -8.15924869E-01  0.00000000E+00  0.00000000E+00  2.87842181E-13
  0.00000000E+00  3.13040712E-01  0.00000000E+00  0.00000000E+00 -1.10758684E-13
  0.00000000E+00  0.00000000E+00  0.00000000E+00  0.00000000E+00  0.00000000E+00
  0.00000000E+00  0.00000000E+00  0.00000000E+00  0.00000000E+00  0.00000000E+00
  0.00000000E+00  0.00000000E+00  0.00000000E+00  0.00000000E+00  0.00000000E+00
  1.26907253E+00  3.21234189E+00 -2.48561602E+00 -2.00695873E+00  6.01287665E-01
  0.00000000E+00  0.00000000E+00  0.00000000E+00  0.00000000E+00  0.00000000E+00
  0.00000000E+00  0.00000000E+00  0.00000000E+00  0.00000000E+00  0.00000000E+00
  0.00000000E+00  0.00000000E+00 -7.55362363E-03  0.00000000E+00  0.00000000E+00
 -8.44308034E-15  0.00000000E+00  3.24805571E-03  0.00000000E+00  0.00000000E+00
  5.76666715E-15  0.00000000E+00 -3.58268772E-04  0.00000000E+00  0.00000000E+00
 -2.20964103E-15  0.00000000E+00  0.00000000E+00  0.00000000E+00  0.00000000E+00
  0.00000000E+00  0.00000000E+00  0.00000000E+00  0.00000000E+00  0.00000000E+00
  0.00000000E+00  0.00000000E+00  0.00000000E+00  0.00000000E+00  0.00000000E+00
  0.00000000E+00
Orthonormal basis                          R   N=        2116
  1.24655190E-01  3.09229904E-01  2.73123181E-01  3.16069646E-01  2.41083639E-01
  0.00000000E+00  0.00000000E+00  0.00000000E+00  0.00000000E+00  0.00000000E+00
  0.00000000E+00  0.00000000E+00  0.00000000E+00  0.00000000E+00  0.00000000E+00
  0.00000000E+00  0.00000000E+00 -1.59151111E-17  0.00000000E+00  0.00000000E+00
 -4.49701583E-17  0.00000000E+00  1.72808248E-17  0.00000000E+00  0.00000000E+00
 -1.36956122E-17  0.00000000E+00  6.64619362E-17  0.00000000E+00  0.00000000E+00
 -5.54822709E-18  0.00000000E+00  0.00000000E+00  0.00000000E+00  0.00000000E+00
  0.00000000E+00  0.00000000E+00  0.00000000E+00  0.00000000E+00  0.00000000E+00
  0.00000000E+00  0.00000000E+00  0.00000000E+00  0.00000000E+00  0.00000000E+00
  0.00000000E+00 -7.63867178E-17 -1.76654220E-17 -5.11632895E-17 -5.35796433E-17
  6.79688982E-17  0.00000000E+00  0.00000000E+00  0.00000000E+00  0.00000000E+00
  0.00000000E+00  0.00000000E+00  0.00000000E+00  0.00000000E+00  0.00000000E+00
  0.00000000E+00  0.00000000E+00  0.00000000E+00  3.51703266E-01  0.00000000E+00
  0.00000000E+00  8.34525806E-03  0.00000000E+00  4.96066879E-01  0.00000000E+00
  0.00000000E+00  1.17707355E-02  0.00000000E+00  4.07488666E-01  0.00000000E+00
  0.00000000E+00  9.66894085E-03  0.00000000E+00  0.00000000E+00  0.00000000E+00
  0.00000000E+00  0.00000000E+00  0.00000000E+00  0.00000000E+00  0.00000000E+00
  0.00000000E+00  0.00000000E+00  0.00000000E+00  0.00000000E+00  0.00000000E+00
  0.00000000E+00  0.00000000E+00  7.72395920E-24  3.40724545E-17 -2.07880756E-17
  3.45238200E-17  4.07065807E-17  0.00000000E+00  0.00000000E+00  0.00000000E+00
  0.00000000E+00  0.00000000E+00  0.00000000E+00  0.00000000E+00  0.00000000E+00
  0.00000000E+00  0.00000000E+00  0.00000000E+00  0.00000000E+00 -8.34525806E-03
  0.00000000E+00  0.00000000E+00  3.51703266E-01  0.00000000E+00 -1.17707355E-02
  0.00000000E+00  0.00000000E+00  4.96066879E-01  0.00000000E+00 -9.66894085E-03
  0.00000000E+00  0.00000000E+00  4.07488666E-01  0.00000000E+00  0.00000000E+00
  0.00000000E+00  0.00000000E+00  0.00000000E+00  0.00000000E+00  0.00000000E+00
  0.00000000E+00  0.00000000E+00  0.00000000E+00  0.00000000E+00  0.00000000E+00
  0.00000000E+00  0.00000000E+00  0.00000000E+00  6.71288778E-01 -6.79943250E-02
  3.96505215E-01 -2.44125309E-01 -3.89026472E-01  0.00000000E+00  0.00000000E+00
  0.00000000E+00  0.00000000E+00  0.00000000E+00  0.00000000E+00  0.00000000E+00
  0.00000000E+00  0.00000000E+00  0.00000000E+00  0.00000000E+00  0.00000000E+00
  1.24117063E-16  0.00000000E+00  0.00000000E+00 -1.26250747E-16  0.00000000E+00
  1.27920574E-16  0.00000000E+00  0.00000000E+00  6.13414513E-17  0.00000000E+00
 -5.71144873E-17  0.00000000E+00  0.00000000E+00  1.24631672E-16  0.00000000E+00
  0.00000000E+00  0.00000000E+00  0.00000000E+00  0.00000000E+00  0.00000000E+00
  0.00000000E+00  0.00000000E+00  0.00000000E+00  0.00000000E+00  0.00000000E+00
  0.00000000E+00  0.00000000E+00  0.00000000E+00  0.00000000E+00  3.93968704E-16
 -2.78199143E-17 -8.94774800E-17 -3.11212780E-17  6.87371336E-17  0.00000000E+00
  0.00000000E+00  0.00000000E+00  0.00000000E+00  0.00000000E+00  0.00000000E+00
  0.00000000E+00  0.00000000E+00  0.00000000E+00  0.00000000E+00  0.00000000E+00
  0.00000000E+00 -1.40709553E-01  0.00000000E+00  0.00000000E+00  8.20539232E-01
  0.00000000E+00  6.24219071E-03  0.00000000E+00  0.00000000E+00 -3.64009568E-02
  0.00000000E+00  1.13847253E-01  0.00000000E+00  0.00000000E+00 -6.63893357E-01
  0.00000000E+00  0.00000000E+00  0.00000000E+00  0.00000000E+00  0.00000000E+00
  0.00000000E+00  0.00000000E+00  0.00000000E+00  0.00000000E+00  0.00000000E+00
  0.00000000E+00  0.00000000E+00  0.00000000E+00  0.00000000E+00  0.00000000E+00
 -5.36115093E-19  5.41035521E-18 -6.46241673E-17  1.94865377E-16  7.41458559E-17
  0.00000000E+00  0.00000000E+00  0.00000000E+00  0.00000000E+00  0.00000000E+00
  0.00000000E+00  0.00000000E+00  0.00000000E+00  0.00000000E+00  0.00000000E+00
  0.00000000E+00  0.00000000E+00  8.20539232E-01  0.00000000E+00  0.00000000E+00
  1.40709553E-01  0.00000000E+00 -3.64009568E-02  0.00000000E+00  0.00000000E+00
 -6.24219071E-03  0.00000000E+00 -6.63893357E-01  0.00000000E+00  0.00000000E+00
 -1.13847253E-01  0.00000000E+00  0.00000000E+00  0.00000000E+00  0.00000000E+00
  0.00000000E+00  0.00000000E+00  0.00000000E+00  0.00000000E+00  0.00000000E+00
  0.00000000E+00  0.00000000E+00  0.00000000E+00  0.00000000E+00  0.00000000E+00
  0.00000000E+00  6.45419265E-01 -5.96236655E-01 -4.02178570E-01  1.15093946E-01
  7.35785849E-01  0.00000000E+00  0.00000000E+00  0.00000000E+00  0.00000000E+00
  0.00000000E+00  0.00000000E+00  0.00000000E+00  0.00000000E+00  0.00000000E+00
  0.00000000E+00  0.00000000E+00  0.00000000E+00 -8.12758821E-18  0.00000000E+00
  0.00000000E+00 -2.49235829E-16  0.00000000E+00 -8.38179028E-17  0.00000000E+00
  0.00000000E+00 -6.43645428E-17  0.00000000E+00  5.12121003E-17  0.00000000E+00
  0.00000000E+00  2.38182891E-16  0.00000000E+00  0.00000000E+00  0.00000000E+00
  0.00000000E+00  0.00000000E+00  0.00000000E+00  0.00000000E+00  0.00000000E+00
  0.00000000E+00  0.00000000E+00  0.00000000E+00  0.00000000E+00  0.00000000E+00
  0.00000000E+00  0.00000000E+00 -6.36132437E-20 -3.11034315E-16 -1.29447148E-16
  8.37604386E-16 -3.88564602E-16  0.00000000E+00  0.00000000E+00  0.00000000E+00
  0.00000000E+00  0.00000000E+00  0.00000000E+00  0.00000000E+00  0.00000000E+00
  0.00000000E+00  0.00000000E+00  0.00000000E+00  0.00000000E+00 -6.37553798E-01
  0.00000000E+00  0.00000000E+00  4.69982004E-01  0.00000000E+00  1.15114308E+00
  0.00000000E+00  0.00000000E+00 -8.48581775E-01  0.00000000E+00 -8.51101472E-01
  0.00000000E+00  0.00000000E+00  6.27401760E-01  0.00000000E+00  0.00000000E+00
  0.00000000E+00  0.00000000E+00  0.00000000E+00  0.00000000E+00  0.00000000E+00
  0.00000000E+00  0.00000000E+00  0.00000000E+00  0.00000000E+00  0.00000000E+00
  0.00000000E+00  0.00000000E+00  0.00000000E+00 -3.58692964E-16 -8.36889490E-16
  5.28818954E-16  3.87048971E-16  1.60375823E-16  0.00000000E+00  0.00000000E+00
  0.00000000E+00  0.00000000E+00  0.00000000E+00  0.00000000E+00  0.00000000E+00
  0.00000000E+00  0.00000000E+00  0.00000000E+00  0.00000000E+00  0.00000000E+00
 -4.69982004E-01  0.00000000E+00  0.00000000E+00 -6.37553798E-01  0.00000000E+00
  8.48581775E-01  0.00000000E+00  0.00000000E+00  1.15114308E+00  0.00000000E+00
 -6.27401760E-01  0.00000000E+00  0.00000000E+00 -8.51101472E-01  0.00000000E+00
  0.00000000E+00  0.00000000E+00  0.00000000E+00  0.00000000E+00  0.00000000E+00
  0.00000000E+00  0.00000000E+00  0.00000000E+00  0.00000000E+00  0.00000000E+00
  0.00000000E+00  0.00000000E+00  0.00000000E+00  0.00000000E+00 -7.04271825E-01
 -5.51515331E-01  1.43124823E+00 -1.30179688E+00  1.15680840E+00  0.00000000E+00
  0.00000000E+00  0.00000000E+00  0.00000000E+00  0.00000000E+00  0.00000000E+00
  0.00000000E+00  0.00000000E+00  0.00000000E+00  0.00000000E+00  0.00000000E+00
  0.00000000E+00  1.90719775E-17  0.00000000E+00  0.00000000E+00  6.41438213E-16
  0.00000000E+00  1.82237427E-16  0.00000000E+00  0.00000000E+00 -6.65458991E-16
  0.00000000E+00 -3.03608826E-16  0.00000000E+00  0.00000000E+00  3.68801847E-16
  0.00000000E+00  0.00000000E+00  0.00000000E+00  0.00000000E+00  0.00000000E+00
  0.00000000E+00  0.00000000E+00  0.00000000E+00  0.00000000E+00  0.00000000E+00
  0.00000000E+00  0.00000000E+00  0.00000000E+00  0.00000000E+00  0.00000000E+00
  1.11540787E+00  3.49618188E+00 -1.96975170E+00 -3.12455883E+00  1.26677068E+00
  0.00000000E+00  0.00000000E+00  0.00000000E+00  0.00000000E+00  0.00000000E+00
  0.00000000E+00  0.00000000E+00  0.00000000E+00  0.00000000E+00  0.00000000E+00
  0.00000000E+00  0.00000000E+00 -1.58620922E-15  0.00000000E+00  0.00000000E+00
 -9.54507401E-16  0.00000000E+00  1.52846128E-15  0.00000000E+00  0.00000000E+00
  6.53390918E-16  0.00000000E+00 -2.76100991E-15  0.00000000E+00  0.00000000E+00
 -2.80080247E-16  0.00000000E+00  0.00000000E+00  0.00000000E+00  0.00000000E+00
  0.00000000E+00  0.00000000E+00  0.00000000E+00  0.00000000E+00  0.00000000E+00
  0.00000000E+00  0.00000000E+00  0.00000000E+00  0.00000000E+00  0.00000000E+00
  0.00000000E+00  0.00000000E+00  0.00000000E+00  0.00000000E+00  0.00000000E+00
  0.00000000E+00  0.00000000E+00  0.00000000E+00  0.00000000E+00  0.00000000E+00
  0.00000000E+00  0.00000000E+00  0.00000000E+00  0.00000000E+00  0.00000000E+00
  0.00000000E+00  0.00000000E+00  0.00000000E+00  0.00000000E+00  0.00000000E+00
  0.00000000E+00  0.00000000E+00  3.51802261E-01  0.00000000E+00  0.00000000E+00
  0.00000000E+00  0.00000000E+00  4.96206508E-01  0.00000000E+00  0.00000000E+00
  0.00000000E+00  0.00000000E+00  4.07603363E-01  0.00000000E+00  0.00000000E+00
  0.00000000E+00  0.00000000E+00  0.00000000E+00  0.00000000E+00  0.00000000E+00
  0.00000000E+00  0.00000000E+00  0.00000000E+00  0.00000000E+00  0.00000000E+00
  0.00000000E+00  0.00000000E+00  0.00000000E+00  0.00000000E+00  0.00000000E+00
  0.00000000E+00  0.00000000E+00  0.00000000E+00  0.00000000E+00  0.00000000E+00
  0.00000000E+00  0.00000000E+00  0.00000000E+00  0.00000000E+00  0.00000000E+00
  0.00000000E+00  0.00000000E+00  0.00000000E+00  0.00000000E+00  0.00000000E+00
  0.00000000E+00  0.00000000E+00  0.00000000E+00  8.32516552E-01  0.00000000E+00
  0.00000000E+00  0.00000000E+00  0.00000000E+00 -3.69322975E-02  0.00000000E+00
  0.00000000E+00  0.00000000E+00  0.00000000E+00 -6.73584135E-01  0.00000000E+00
  0.00000000E+00  0.00000000E+00  0.00000000E+00  0.00000000E+00  0.00000000E+00
  0.00000000E+00  0.00000000E+00  0.00000000E+00  0.00000000E+00  0.00000000E+00
  0.00000000E+00  0.00000000E+00  0.00000000E+00  0.00000000E+00  0.00000000E+00
  0.00000000E+00  0.00000000E+00  0.00000000E+00  0.00000000E+00  0.00000000E+00
  0.00000000E+00  0.00000000E+00  0.00000000E+00  0.00000000E+00  0.00000000E+00
  0.00000000E+00  0.00000000E+00  0.00000000E+00  0.00000000E+00  0.00000000E+00
  0.00000000E+00  0.00000000E+00  0.00000000E+00  0.00000000E+00 -7.92059297E-01
  0.00000000E+00  0.00000000E+00  0.00000000E+00  0.00000000E+00  1.43011238E+00
  0.00000000E+00  0.00000000E+00  0.00000000E+00  0.00000000E+00 -1.05735835E+00
  0.00000000E+00  0.00000000E+00  0.00000000E+00  0.00000000E+00  0.00000000E+00
  0.00000000E+00  0.00000000E+00  0.00000000E+00  0.00000000E+00  0.00000000E+00
  0.00000000E+00  0.00000000E+00  0.00000000E+00  0.00000000E+00  0.00000000E+00
  0.00000000E+00  0.00000000E+00  0.00000000E+00  0.00000000E+00  0.00000000E+00
  0.00000000E+00  0.00000000E+00  0.00000000E+00  0.00000000E+00  0.00000000E+00
  0.00000000E+00  0.00000000E+00  0.00000000E+00  0.00000000E+00  0.00000000E+00
  0.00000000E+00  0.00000000E+00  3.51802261E-01  0.00000000E+00  0.00000000E+00
  0.00000000E+00  0.00000000E+00  4.96206508E-01  0.00000000E+00  0.00000000E+00
  0.00000000E+00  0.00000000E+00  4.07603363E-01  0.00000000E+00  0.00000000E+00
  0.00000000E+00  0.00000000E+00  0.00000000E+00  0.00000000E+00  0.00000000E+00
  0.00000000E+00  0.00000000E+00  0.00000000E+00  0.00000000E+00  0.00000000E+00
  0.00000000E+00  0.00000000E+00  0.00000000E+00  0.00000000E+00  0.00000000E+00
  0.00000000E+00  0.00000000E+00  0.00000000E+00  0.00000000E+00  0.00000000E+00
  0.00000000E+00  0.00000000E+00  0.00000000E+00  0.00000000E+00  0.00000000E+00
  0.00000000E+00  0.00000000E+00  0.00000000E+00  0.00000000E+00  0.00000000E+00
  0.00000000E+00  0.00000000E+00  0.00000000E+00  8.32516552E-01  0.00000000E+00
  0.00000000E+00  0.00000000E+00  0.00000000E+00 -3.69322975E-02  0.00000000E+00
  0.00000000E+00  0.00000000E+00  0.00000000E+00 -6.73584135E-01  0.00000000E+00
  0.00000000E+00  0.00000000E+00  0.00000000E+00  0.00000000E+00  0.00000000E+00
  0.00000000E+00  0.00000000E+00  0.00000000E+00  0.00000000E+00  0.00000000E+00
  0.00000000E+00  0.00000000E+00  0.00000000E+00  0.00000000E+00  0.00000000E+00
  0.00000000E+00  0.00000000E+00  0.00000000E+00  0.00000000E+00  0.00000000E+00
  0.00000000E+00  0.00000000E+00  0.00000000E+00  0.00000000E+00  0.00000000E+00
  0.00000000E+00  0.00000000E+00  0.00000000E+00  0.00000000E+00  0.00000000E+00
  0.00000000E+00  0.00000000E+00  0.00000000E+00  0.00000000E+00 -7.92059297E-01
  0.00000000E+00  0.00000000E+00  0.00000000E+00  0.00000000E+00  1.43011238E+00
  0.00000000E+00  0.00000000E+00  0.00000000E+00  0.00000000E+00 -1.05735835E+00
  0.00000000E+00  0.00000000E+00  0.00000000E+00  0.00000000E+00  0.00000000E+00
  0.00000000E+00  0.00000000E+00  0.00000000E+00  0.00000000E+00  0.00000000E+00
  0.00000000E+00  0.00000000E+00  0.00000000E+00  0.00000000E+00  0.00000000E+00
  0.00000000E+00  0.00000000E+00  0.00000000E+00  0.00000000E+00  0.00000000E+00
  0.00000000E+00  0.00000000E+00  0.00000000E+00  0.00000000E+00  0.00000000E+00
  0.00000000E+00  0.00000000E+00  0.00000000E+00  0.00000000E+00  0.00000000E+00
  0.00000000E+00  0.00000000E+00  0.00000000E+00  0.00000000E+00  0.00000000E+00
  0.00000000E+00  3.51802261E-01  0.00000000E+00  0.00000000E+00  0.00000000E+00
  0.00000000E+00  4.96206508E-01  0.00000000E+00  0.00000000E+00  0.00000000E+00
  0.00000000E+00  4.07603363E-01  0.00000000E+00  0.00000000E+00  0.00000000E+00
  0.00000000E+00  0.00000000E+00  0.00000000E+00  0.00000000E+00  0.00000000E+00
  0.00000000E+00  0.00000000E+00  0.00000000E+00  0.00000000E+00  0.00000000E+00
  0.00000000E+00  0.00000000E+00  0.00000000E+00  0.00000000E+00  0.00000000E+00
  0.00000000E+00  0.00000000E+00  0.00000000E+00  0.00000000E+00  0.00000000E+00
  0.00000000E+00  0.00000000E+00  0.00000000E+00  0.00000000E+00  0.00000000E+00
  0.00000000E+00  0.00000000E+00  0.00000000E+00  0.00000000E+00  0.00000000E+00
  0.00000000E+00  0.00000000E+00  8.32516552E-01  0.00000000E+00  0.00000000E+00
  0.00000000E+00  0.00000000E+00 -3.69322975E-02  0.00000000E+00  0.00000000E+00
  0.00000000E+00  0.00000000E+00 -6.73584135E-01  0.00000000E+00  0.00000000E+00
  0.00000000E+00  0.00000000E+00  0.00000000E+00  0.00000000E+00  0.00000000E+00
  0.00000000E+00  0.00000000E+00  0.00000000E+00  0.00000000E+00  0.00000000E+00
  0.00000000E+00  0.00000000E+00  0.00000000E+00  0.00000000E+00  0.00000000E+00
  0.00000000E+00  0.00000000E+00  0.00000000E+00  0.00000000E+00  0.00000000E+00
  0.00000000E+00  0.00000000E+00  0.00000000E+00  0.00000000E+00  0.00000000E+00
  0.00000000E+00  0.00000000E+00  0.00000000E+00  0.00000000E+00  0.00000000E+00
  0.00000000E+00  0.00000000E+00  0.00000000E+00 -7.92059297E-01  0.00000000E+00
  0.00000000E+00  0.00000000E+00  0.00000000E+00  1.43011238E+00  0.00000000E+00
  0.00000000E+00  0.00000000E+00  0.00000000E+00 -1.05735835E+00  0.00000000E+00
  0.00000000E+00  0.00000000E+00  0.00000000E+00  0.00000000E+00  0.00000000E+00
  0.00000000E+00  0.00000000E+00  0.00000000E+00  0.00000000E+00  0.00000000E+00
  0.00000000E+00  0.00000000E+00  0.00000000E+00  0.00000000E+00  0.00000000E+00
  0.00000000E+00  0.00000000E+00  0.00000000E+00  0.00000000E+00  0.00000000E+00
  0.00000000E+00  0.00000000E+00  0.00000000E+00  0.00000000E+00  0.00000000E+00
  0.00000000E+00  0.00000000E+00  0.00000000E+00  0.00000000E+00  0.00000000E+00
  0.00000000E+00  0.00000000E+00  0.00000000E+00  0.00000000E+00  0.00000000E+00
  0.00000000E+00  0.00000000E+00  0.00000000E+00  0.00000000E+00  0.00000000E+00
  0.00000000E+00  0.00000000E+00  0.00000000E+00  0.00000000E+00  0.00000000E+00
  0.00000000E+00  0.00000000E+00  0.00000000E+00  0.00000000E+00  0.00000000E+00
  0.00000000E+00  5.59297407E-01  0.00000000E+00  0.00000000E+00  0.00000000E+00
  0.00000000E+00  0.00000000E+00  0.00000000E+00  5.59297407E-01  0.00000000E+00
  0.00000000E+00  0.00000000E+00  0.00000000E+00  0.00000000E+00  0.00000000E+00
  0.00000000E+00  0.00000000E+00  0.00000000E+00  0.00000000E+00  0.00000000E+00
  0.00000000E+00  0.00000000E+00  0.00000000E+00  0.00000000E+00  0.00000000E+00
  0.00000000E+00  0.00000000E+00  0.00000000E+00  0.00000000E+00  0.00000000E+00
  0.00000000E+00  0.00000000E+00  0.00000000E+00  0.00000000E+00  0.00000000E+00
  0.00000000E+00  0.00000000E+00  0.00000000E+00  0.00000000E+00  0.00000000E+00
  0.00000000E+00  0.00000000E+00  0.00000000E+00  0.00000000E+00  0.00000000E+00
  0.00000000E+00  0.00000000E+00  1.11579909E+00  0.00000000E+00  0.00000000E+00
  0.00000000E+00  0.00000000E+00  0.00000000E+00  0.00000000E+00 -1.11579909E+00
  0.00000000E+00  0.00000000E+00  0.00000000E+00  0.00000000E+00  0.00000000E+00
  0.00000000E+00  0.00000000E+00  0.00000000E+00  0.00000000E+00  2.68225137E-01
  0.00000000E+00  0.00000000E+00  3.89114338E-01  0.00000000E+00  0.00000000E+00
  3.93310522E-01  0.00000000E+00  0.00000000E+00  2.76408594E-01  0.00000000E+00
  0.00000000E+00  0.00000000E+00  0.00000000E+00  0.00000000E+00  0.00000000E+00
  0.00000000E+00  0.00000000E+00  0.00000000E+00  0.00000000E+00  0.00000000E+00
  0.00000000E+00  0.00000000E+00  0.00000000E+00  0.00000000E+00  7.96259318E-17
  0.00000000E+00  0.00000000E+00 -2.40944943E-17  0.00000000E+00  0.00000000E+00
  0.00000000E+00  3.90307173E-16  0.00000000E+00  0.00000000E+00 -1.19572978E-17
  0.00000000E+00  0.00000000E+00  0.00000000E+00  0.00000000E+00  0.00000000E+00
  0.00000000E+00  0.00000000E+00  0.00000000E+00  0.00000000E+00  0.00000000E+00
 -3.09939849E-15  0.00000000E+00  0.00000000E+00 -1.43684835E-15  0.00000000E+00
  0.00000000E+00  1.59099047E-15  0.00000000E+00  0.00000000E+00  3.04818728E-15
  0.00000000E+00  0.00000000E+00  0.00000000E+00  0.00000000E+00  0.00000000E+00
  0.00000000E+00  0.00000000E+00  0.00000000E+00  0.00000000E+00  0.00000000E+00
  0.00000000E+00  0.00000000E+00  0.00000000E+00  0.00000000E+00  0.00000000E+00
 -8.42252349E-02  0.00000000E+00  0.00000000E+00  5.52919252E-01  0.00000000E+00
  0.00000000E+00  0.00000000E+00 -8.42252349E-02  0.00000000E+00  0.00000000E+00
  5.52919252E-01  0.00000000E+00  0.00000000E+00  0.00000000E+00  0.00000000E+00
  0.00000000E+00  0.00000000E+00  0.00000000E+00  0.00000000E+00  0.00000000E+00
  0.00000000E+00 -1.42760063E-29  0.00000000E+00  0.00000000E+00 -5.57308641E-16
  0.00000000E+00  0.00000000E+00  6.63894243E-18  0.00000000E+00  0.00000000E+00
 -1.53949530E-16  0.00000000E+00  0.00000000E+00  0.00000000E+00  0.00000000E+00
  0.00000000E+00  0.00000000E+00  0.00000000E+00  0.00000000E+00  0.00000000E+00
  0.00000000E+00  0.00000000E+00  0.00000000E+00  0.00000000E+00  0.00000000E+00
  0.00000000E+00  5.52919252E-01  0.00000000E+00  0.00000000E+00  8.42252349E-02
  0.00000000E+00  0.00000000E+00  0.00000000E+00  5.52919252E-01  0.00000000E+00
  0.00000000E+00  8.42252349E-02  0.00000000E+00  0.00000000E+00  0.00000000E+00
  0.00000000E+00  0.00000000E+00  0.00000000E+00  0.00000000E+00  0.00000000E+00
  0.00000000E+00  0.00000000E+00  5.91116932E-01  0.00000000E+00  0.00000000E+00
  3.00640667E-01  0.00000000E+00  0.00000000E+00 -2.93062792E-01  0.00000000E+00
  0.00000000E+00 -5.79834847E-01  0.00000000E+00  0.00000000E+00  0.00000000E+00
  0.00000000E+00  0.00000000E+00  0.00000000E+00  0.00000000E+00  0.00000000E+00
  0.00000000E+00  0.00000000E+00  0.00000000E+00  0.00000000E+00  0.00000000E+00
  0.00000000E+00  0.00000000E+00 -6.22129894E-16  0.00000000E+00  0.00000000E+00
  3.96985966E-15  0.00000000E+00  0.00000000E+00  0.00000000E+00 -4.38944753E-16
  0.00000000E+00  0.00000000E+00  3.94841528E-15  0.00000000E+00  0.00000000E+00
  0.00000000E+00  0.00000000E+00  0.00000000E+00  0.00000000E+00  0.00000000E+00
  0.00000000E+00  0.00000000E+00  0.00000000E+00  8.40443228E-01  0.00000000E+00
  0.00000000E+00 -6.04458946E-01  0.00000000E+00  0.00000000E+00 -5.53697498E-01
  0.00000000E+00  0.00000000E+00  8.23240305E-01  0.00000000E+00  0.00000000E+00
  0.00000000E+00  0.00000000E+00  0.00000000E+00  0.00000000E+00  0.00000000E+00
  0.00000000E+00  0.00000000E+00  0.00000000E+00  0.00000000E+00  0.00000000E+00
  0.00000000E+00  0.00000000E+00  0.00000000E+00  7.92618649E-15  0.00000000E+00
  0.00000000E+00  2.09881385E-16  0.00000000E+00  0.00000000E+00  0.00000000E+00
 -8.30824376E-15  0.00000000E+00  0.00000000E+00 -1.53009498E-16  0.00000000E+00
  0.00000000E+00  0.00000000E+00  0.00000000E+00  0.00000000E+00  0.00000000E+00
  0.00000000E+00  0.00000000E+00  0.00000000E+00  0.00000000E+00 -5.92672927E-15
  0.00000000E+00  0.00000000E+00  3.40087337E-15  0.00000000E+00  0.00000000E+00
  7.46005708E-15  0.00000000E+00  0.00000000E+00 -8.39736712E-15  0.00000000E+00
  0.00000000E+00  0.00000000E+00  0.00000000E+00  0.00000000E+00  0.00000000E+00
  0.00000000E+00  0.00000000E+00  0.00000000E+00  0.00000000E+00  0.00000000E+00
  0.00000000E+00  0.00000000E+00  0.00000000E+00  0.00000000E+00  1.11231846E+00
  0.00000000E+00  0.00000000E+00  8.80638624E-02  0.00000000E+00  0.00000000E+00
  0.00000000E+00 -1.11231846E+00  0.00000000E+00  0.00000000E+00 -8.80638624E-02
  0.00000000E+00  0.00000000E+00  0.00000000E+00  0.00000000E+00  0.00000000E+00
  0.00000000E+00  0.00000000E+00  0.00000000E+00  0.00000000E+00  0.00000000E+00
  2.46124385E-16  0.00000000E+00  0.00000000E+00 -4.74067884E-17  0.00000000E+00
  0.00000000E+00 -5.64065331E-16  0.00000000E+00  0.00000000E+00  5.80384928E-16
  0.00000000E+00  0.00000000E+00  0.00000000E+00  0.00000000E+00  0.00000000E+00
  0.00000000E+00  0.00000000E+00  0.00000000E+00  0.00000000E+00  0.00000000E+00
  0.00000000E+00  0.00000000E+00  0.00000000E+00  0.00000000E+00  0.00000000E+00
 -8.80638624E-02  0.00000000E+00  0.00000000E+00  1.11231846E+00  0.00000000E+00
  0.00000000E+00  0.00000000E+00  8.80638624E-02  0.00000000E+00  0.00000000E+00
 -1.11231846E+00  0.00000000E+00  0.00000000E+00  0.00000000E+00  0.00000000E+00
  0.00000000E+00  0.00000000E+00  0.00000000E+00  0.00000000E+00  0.00000000E+00
  0.00000000E+00  7.78698508E-01  0.00000000E+00  0.00000000E+00 -1.58512188E+00
  0.00000000E+00  0.00000000E+00  1.63904763E+00  0.00000000E+00  0.00000000E+00
 -8.56440597E-01  0.00000000E+00  0.00000000E+00  0.00000000E+00  0.00000000E+00
  0.00000000E+00  0.00000000E+00  0.00000000E+00  0.00000000E+00  0.00000000E+00
  0.00000000E+00  0.00000000E+00  0.00000000E+00  0.00000000E+00  0.00000000E+00
  0.00000000E+00 -5.17297465E-15  0.00000000E+00  0.00000000E+00  1.79342023E-16
  0.00000000E+00  0.00000000E+00  0.00000000E+00  3.31822942E-15  0.00000000E+00
  0.00000000E+00 -1.86560166E-16  0.00000000E+00  0.00000000E+00  0.00000000E+00
  0.00000000E+00  0.00000000E+00  0.00000000E+00  0.00000000E+00  0.00000000E+00
  0.00000000E+00  2.68225137E-01  0.00000000E+00  0.00000000E+00  3.89114338E-01
  0.00000000E+00  0.00000000E+00  3.93310522E-01  0.00000000E+00  0.00000000E+00
  2.76408594E-01  0.00000000E+00  0.00000000E+00  0.00000000E+00  0.00000000E+00
  0.00000000E+00  0.00000000E+00  0.00000000E+00  0.00000000E+00  0.00000000E+00
  0.00000000E+00  0.00000000E+00  0.00000000E+00  0.00000000E+00  0.00000000E+00
  0.00000000E+00  0.00000000E+00  0.00000000E+00  0.00000000E+00 -2.70208210E-16
  0.00000000E+00  0.00000000E+00  0.00000000E+00  7.67234773E-17  0.00000000E+00
  0.00000000E+00 -4.19457419E-16  0.00000000E+00  0.00000000E+00  0.00000000E+00
 -1.88916232E-16  0.00000000E+00  0.00000000E+00  0.00000000E+00  0.00000000E+00
  0.00000000E+00  0.00000000E+00  1.05024816E-16  0.00000000E+00  0.00000000E+00
  3.18925447E-16  0.00000000E+00  0.00000000E+00  3.14451920E-16  0.00000000E+00
  0.00000000E+00  2.28048115E-16  0.00000000E+00  0.00000000E+00  0.00000000E+00
  0.00000000E+00  0.00000000E+00  0.00000000E+00  0.00000000E+00  0.00000000E+00
  0.00000000E+00  0.00000000E+00  0.00000000E+00  0.00000000E+00  0.00000000E+00
  0.00000000E+00  0.00000000E+00  0.00000000E+00  0.00000000E+00  0.00000000E+00
  5.13318674E-01  0.00000000E+00  0.00000000E+00  0.00000000E+00 -2.22075503E-01
  0.00000000E+00  0.00000000E+00  5.13318674E-01  0.00000000E+00  0.00000000E+00
  0.00000000E+00 -2.22075503E-01  0.00000000E+00  0.00000000E+00  0.00000000E+00
  0.00000000E+00  0.00000000E+00  0.00000000E+00  1.49847366E-28  0.00000000E+00
  0.00000000E+00  4.70142799E-16  0.00000000E+00  0.00000000E+00 -6.67203558E-17
  0.00000000E+00  0.00000000E+00  1.95547435E-16  0.00000000E+00  0.00000000E+00
  0.00000000E+00  0.00000000E+00  0.00000000E+00  0.00000000E+00  0.00000000E+00
  0.00000000E+00  0.00000000E+00  0.00000000E+00  0.00000000E+00  0.00000000E+00
  0.00000000E+00  0.00000000E+00  0.00000000E+00  0.00000000E+00  0.00000000E+00
  0.00000000E+00  2.22075503E-01  0.00000000E+00  0.00000000E+00  0.00000000E+00
  5.13318674E-01  0.00000000E+00  0.00000000E+00  2.22075503E-01  0.00000000E+00
  0.00000000E+00  0.00000000E+00  5.13318674E-01  0.00000000E+00  0.00000000E+00
  0.00000000E+00  0.00000000E+00  0.00000000E+00  0.00000000E+00  5.91116932E-01
  0.00000000E+00  0.00000000E+00  3.00640667E-01  0.00000000E+00  0.00000000E+00
 -2.93062792E-01  0.00000000E+00  0.00000000E+00 -5.79834847E-01  0.00000000E+00
  0.00000000E+00  0.00000000E+00  0.00000000E+00  0.00000000E+00  0.00000000E+00
  0.00000000E+00  0.00000000E+00  0.00000000E+00  0.00000000E+00  0.00000000E+00
  0.00000000E+00  0.00000000E+00  0.00000000E+00  0.00000000E+00  0.00000000E+00
  0.00000000E+00  0.00000000E+00 -3.91607269E-18  0.00000000E+00  0.00000000E+00
  0.00000000E+00  1.92606933E-16  0.00000000E+00  0.00000000E+00  6.63789612E-17
  0.00000000E+00  0.00000000E+00  0.00000000E+00 -3.12188709E-16  0.00000000E+00
  0.00000000E+00  0.00000000E+00  0.00000000E+00  0.00000000E+00  0.00000000E+00
  8.40443228E-01  0.00000000E+00  0.00000000E+00 -6.04458946E-01  0.00000000E+00
  0.00000000E+00 -5.53697498E-01  0.00000000E+00  0.00000000E+00  8.23240305E-01
  0.00000000E+00  0.00000000E+00  0.00000000E+00  0.00000000E+00  0.00000000E+00
  0.00000000E+00  0.00000000E+00  0.00000000E+00  0.00000000E+00  0.00000000E+00
  0.00000000E+00  0.00000000E+00  0.00000000E+00  0.00000000E+00  0.00000000E+00
  0.00000000E+00  0.00000000E+00  0.00000000E+00 -4.40800339E-15  0.00000000E+00
  0.00000000E+00  0.00000000E+00 -7.21265107E-15  0.00000000E+00  0.00000000E+00
  4.68502475E-15  0.00000000E+00  0.00000000E+00  0.00000000E+00  7.26084129E-15
  0.00000000E+00  0.00000000E+00  0.00000000E+00  0.00000000E+00  0.00000000E+00
  0.00000000E+00  5.89478195E-15  0.00000000E+00  0.00000000E+00 -3.38387983E-15
  0.00000000E+00  0.00000000E+00 -7.52228076E-15  0.00000000E+00  0.00000000E+00
  8.58996300E-15  0.00000000E+00  0.00000000E+00  0.00000000E+00  0.00000000E+00
  0.00000000E+00  0.00000000E+00  0.00000000E+00  0.00000000E+00  0.00000000E+00
  0.00000000E+00  0.00000000E+00  0.00000000E+00  0.00000000E+00  0.00000000E+00
  0.00000000E+00  0.00000000E+00  0.00000000E+00  0.00000000E+00  8.44010838E-01
  0.00000000E+00  0.00000000E+00  0.00000000E+00  7.29831018E-01  0.00000000E+00
  0.00000000E+00 -8.44010838E-01  0.00000000E+00  0.00000000E+00  0.00000000E+00
 -7.29831018E-01  0.00000000E+00  0.00000000E+00  0.00000000E+00  0.00000000E+00
  0.00000000E+00  0.00000000E+00  1.31408423E-15  0.00000000E+00  0.00000000E+00
 -7.42976770E-16  0.00000000E+00  0.00000000E+00 -2.64193041E-15  0.00000000E+00
  0.00000000E+00  3.11298365E-15  0.00000000E+00  0.00000000E+00  0.00000000E+00
  0.00000000E+00  0.00000000E+00  0.00000000E+00  0.00000000E+00  0.00000000E+00
  0.00000000E+00  0.00000000E+00  0.00000000E+00  0.00000000E+00  0.00000000E+00
  0.00000000E+00  0.00000000E+00  0.00000000E+00  0.00000000E+00  0.00000000E+00
 -7.29831018E-01  0.00000000E+00  0.00000000E+00  0.00000000E+00  8.44010838E-01
  0.00000000E+00  0.00000000E+00  7.29831018E-01  0.00000000E+00  0.00000000E+00
  0.00000000E+00 -8.44010838E-01  0.00000000E+00  0.00000000E+00  0.00000000E+00
  0.00000000E+00  0.00000000E+00  0.00000000E+00  7.78698508E-01  0.00000000E+00
  0.00000000E+00 -1.58512188E+00  0.00000000E+00  0.00000000E+00  1.63904763E+00
  0.00000000E+00  0.00000000E+00 -8.56440597E-01  0.00000000E+00  0.00000000E+00
  0.00000000E+00  0.00000000E+00  0.00000000E+00  0.00000000E+00  0.00000000E+00
  0.00000000E+00  0.00000000E+00  0.00000000E+00  0.00000000E+00  0.00000000E+00
  0.00000000E+00  0.00000000E+00  0.00000000E+00  0.00000000E+00  0.00000000E+00
  0.00000000E+00  2.36775145E-15  0.00000000E+00  0.00000000E+00  0.00000000E+00
  5.26811676E-15  0.00000000E+00  0.00000000E+00 -1.41863778E-15  0.00000000E+00
  0.00000000E+00  0.00000000E+00 -3.68763394E-15  0.00000000E+00  0.00000000E+00
  0.00000000E+00  0.00000000E+00  0.00000000E+00  2.68225137E-01  0.00000000E+00
  0.00000000E+00  3.89114338E-01  0.00000000E+00  0.00000000E+00  3.93310522E-01
  0.00000000E+00  0.00000000E+00  2.76408594E-01  0.00000000E+00  0.00000000E+00
  0.00000000E+00  0.00000000E+00  0.00000000E+00  0.00000000E+00  0.00000000E+00
  0.00000000E+00  0.00000000E+00  0.00000000E+00  0.00000000E+00  0.00000000E+00
  0.00000000E+00  0.00000000E+00  0.00000000E+00  0.00000000E+00  0.00000000E+00
  0.00000000E+00 -2.70208210E-16  0.00000000E+00  0.00000000E+00  0.00000000E+00
 -1.24735027E-16  0.00000000E+00  0.00000000E+00 -4.19457419E-16  0.00000000E+00
  0.00000000E+00  0.00000000E+00  1.29026467E-16  0.00000000E+00  0.00000000E+00
  0.00000000E+00  0.00000000E+00  0.00000000E+00  0.00000000E+00  1.58220944E-16
  0.00000000E+00  0.00000000E+00  1.61940957E-16  0.00000000E+00  0.00000000E+00
  3.28675626E-16  0.00000000E+00  0.00000000E+00  2.29357559E-16  0.00000000E+00
  0.00000000E+00  0.00000000E+00  0.00000000E+00  0.00000000E+00  0.00000000E+00
  0.00000000E+00  0.00000000E+00  0.00000000E+00  0.00000000E+00  0.00000000E+00
  0.00000000E+00  0.00000000E+00  0.00000000E+00  0.00000000E+00  0.00000000E+00
  0.00000000E+00  0.00000000E+00  4.34458012E-01  0.00000000E+00  0.00000000E+00
  0.00000000E+00  3.52221274E-01  0.00000000E+00  0.00000000E+00  4.34458012E-01
  0.00000000E+00  0.00000000E+00  0.00000000E+00  3.52221274E-01  0.00000000E+00
  0.00000000E+00  0.00000000E+00  0.00000000E+00  0.00000000E+00  0.00000000E+00
 -1.41259945E-29  0.00000000E+00  0.00000000E+00 -5.17130272E-16  0.00000000E+00
  0.00000000E+00  3.22975461E-17  0.00000000E+00  0.00000000E+00 -2.03537516E-16
  0.00000000E+00  0.00000000E+00  0.00000000E+00  0.00000000E+00  0.00000000E+00
  0.00000000E+00  0.00000000E+00  0.00000000E+00  0.00000000E+00  0.00000000E+00
  0.00000000E+00  0.00000000E+00  0.00000000E+00  0.00000000E+00  0.00000000E+00
  0.00000000E+00  0.00000000E+00  0.00000000E+00 -3.52221274E-01  0.00000000E+00
  0.00000000E+00  0.00000000E+00  4.34458012E-01  0.00000000E+00  0.00000000E+00
 -3.52221274E-01  0.00000000E+00  0.00000000E+00  0.00000000E+00  4.34458012E-01
  0.00000000E+00  0.00000000E+00  0.00000000E+00  0.00000000E+00  0.00000000E+00
  0.00000000E+00  5.91116932E-01  0.00000000E+00  0.00000000E+00  3.00640667E-01
  0.00000000E+00  0.00000000E+00 -2.93062792E-01  0.00000000E+00  0.00000000E+00
 -5.79834847E-01  0.00000000E+00  0.00000000E+00  0.00000000E+00  0.00000000E+00
  0.00000000E+00  0.00000000E+00  0.00000000E+00  0.00000000E+00  0.00000000E+00
  0.00000000E+00  0.00000000E+00  0.00000000E+00  0.00000000E+00  0.00000000E+00
  0.00000000E+00  0.00000000E+00  0.00000000E+00  0.00000000E+00 -3.91700734E-18
  0.00000000E+00  0.00000000E+00  0.00000000E+00 -1.40362363E-16  0.00000000E+00
  0.00000000E+00  6.63780260E-17  0.00000000E+00  0.00000000E+00  0.00000000E+00
  2.98991165E-16  0.00000000E+00  0.00000000E+00  0.00000000E+00  0.00000000E+00
  0.00000000E+00  0.00000000E+00  8.40443228E-01  0.00000000E+00  0.00000000E+00
 -6.04458946E-01  0.00000000E+00  0.00000000E+00 -5.53697498E-01  0.00000000E+00
  0.00000000E+00  8.23240305E-01  0.00000000E+00  0.00000000E+00  0.00000000E+00
  0.00000000E+00  0.00000000E+00  0.00000000E+00  0.00000000E+00  0.00000000E+00
  0.00000000E+00  0.00000000E+00  0.00000000E+00  0.00000000E+00  0.00000000E+00
  0.00000000E+00  0.00000000E+00  0.00000000E+00  0.00000000E+00  0.00000000E+00
 -4.43851541E-15  0.00000000E+00  0.00000000E+00  0.00000000E+00  6.96077519E-15
  0.00000000E+00  0.00000000E+00  4.65203154E-15  0.00000000E+00  0.00000000E+00
  0.00000000E+00 -7.08031663E-15  0.00000000E+00  0.00000000E+00  0.00000000E+00
  0.00000000E+00  0.00000000E+00  0.00000000E+00 -6.03466199E-15  0.00000000E+00
  0.00000000E+00  3.54703613E-15  0.00000000E+00  0.00000000E+00  7.53530984E-15
  0.00000000E+00  0.00000000E+00 -8.68634713E-15  0.00000000E+00  0.00000000E+00
  0.00000000E+00  0.00000000E+00  0.00000000E+00  0.00000000E+00  0.00000000E+00
  0.00000000E+00  0.00000000E+00  0.00000000E+00  0.00000000E+00  0.00000000E+00
  0.00000000E+00  0.00000000E+00  0.00000000E+00  0.00000000E+00  0.00000000E+00
  0.00000000E+00 -7.11726150E-01  0.00000000E+00  0.00000000E+00  0.00000000E+00
  8.59333170E-01  0.00000000E+00  0.00000000E+00  7.11726150E-01  0.00000000E+00
  0.00000000E+00  0.00000000E+00 -8.59333170E-01  0.00000000E+00  0.00000000E+00
  0.00000000E+00  0.00000000E+00  0.00000000E+00  0.00000000E+00 -3.24468237E-16
  0.00000000E+00  0.00000000E+00  2.45230393E-16  0.00000000E+00  0.00000000E+00
  1.09660998E-15  0.00000000E+00  0.00000000E+00 -1.40135467E-15  0.00000000E+00
  0.00000000E+00  0.00000000E+00  0.00000000E+00  0.00000000E+00  0.00000000E+00
  0.00000000E+00  0.00000000E+00  0.00000000E+00  0.00000000E+00  0.00000000E+00
  0.00000000E+00  0.00000000E+00  0.00000000E+00  0.00000000E+00  0.00000000E+00
  0.00000000E+00  0.00000000E+00  8.59333170E-01  0.00000000E+00  0.00000000E+00
  0.00000000E+00  7.11726150E-01  0.00000000E+00  0.00000000E+00 -8.59333170E-01
  0.00000000E+00  0.00000000E+00  0.00000000E+00 -7.11726150E-01  0.00000000E+00
  0.00000000E+00  0.00000000E+00  0.00000000E+00  0.00000000E+00  0.00000000E+00
  7.78698508E-01  0.00000000E+00  0.00000000E+00 -1.58512188E+00  0.00000000E+00
  0.00000000E+00  1.63904763E+00  0.00000000E+00  0.00000000E+00 -8.56440597E-01
  0.00000000E+00  0.00000000E+00  0.00000000E+00  0.00000000E+00  0.00000000E+00
  0.00000000E+00  0.00000000E+00  0.00000000E+00  0.00000000E+00  0.00000000E+00
  0.00000000E+00  0.00000000E+00  0.00000000E+00  0.00000000E+00  0.00000000E+00
  0.00000000E+00  0.00000000E+00  0.00000000E+00  2.36675502E-15  0.00000000E+00
  0.00000000E+00  0.00000000E+00 -4.76214575E-15  0.00000000E+00  0.00000000E+00
 -1.41969283E-15  0.00000000E+00  0.00000000E+00  0.00000000E+00  3.12011349E-15
  0.00000000E+00
Total SCF Density                          R   N=        1081
  2.01090119E+00 -2.72303358E-01  6.41375453E-01  6.98690812E-03  1.93676807E-01
  6.26902313E-02 -1.57554992E-01  4.10031559E-01  1.24554433E-01  2.63138469E-01
 -4.49698818E-03  7.37249972E-03  2.15296797E-03  4.88134716E-03  1.23402947E-04
  0.00000000E+00  0.00000000E+00  0.00000000E+00  0.00000000E+00  0.00000000E+00
  3.11249463E-01  0.00000000E+00  0.00000000E+00  0.00000000E+00  0.00000000E+00
  0.00000000E+00  2.58074613E-32  3.11249463E-01  0.00000000E+00  0.00000000E+00
  0.00000000E+00  0.00000000E+00  0.00000000E+00 -2.21636863E-18  2.21636863E-18
  1.66465276E-01  0.00000000E+00  0.00000000E+00  0.00000000E+00  0.00000000E+00
  0.00000000E+00  3.83301179E-01  2.69630192E-32 -2.69318419E-18  4.72032281E-01
  0.00000000E+00  0.00000000E+00  0.00000000E+00  0.00000000E+00  0.00000000E+00
  2.69630192E-32  3.83301179E-01  2.69318419E-18  2.77333912E-32  4.72032281E-01
  0.00000000E+00  0.00000000E+00  0.00000000E+00  0.00000000E+00  0.00000000E+00
 -2.69318419E-18  2.69318419E-18  2.07369036E-01 -3.27146994E-18  3.27146994E-18
  2.58323647E-01  0.00000000E+00  0.00000000E+00  0.00000000E+00  0.00000000E+00
  0.00000000E+00  2.59664522E-01  3.85185989E-32 -2.14504884E-18  3.19775111E-01
  4.31408308E-32 -2.61558043E-18  2.16976107E-01  0.00000000E+00  0.00000000E+00
  0.00000000E+00  0.00000000E+00  0.00000000E+00  3.85185989E-32  2.59664522E-01
  2.14504884E-18  4.31408308E-32  3.19775111E-01  2.61558043E-18  4.73778766E-32
  2.16976107E-01  0.00000000E+00  0.00000000E+00  0.00000000E+00  0.00000000E+00
  0.00000000E+00 -2.14504884E-18  2.14504884E-18  1.19539298E-01 -2.61558043E-18
  2.61558043E-18  1.48912431E-01 -2.00741836E-18  2.00741836E-18  8.58415884E-02
  0.00000000E+00  0.00000000E+00  0.00000000E+00  0.00000000E+00  0.00000000E+00
  1.83177360E-02 -2.23407874E-32 -2.37157206E-19  2.25582690E-02 -2.80222807E-32
 -2.91443725E-19  1.54012434E-02 -1.71167024E-32 -2.04703947E-19  1.11911233E-03
  0.00000000E+00  0.00000000E+00  0.00000000E+00  0.00000000E+00  0.00000000E+00
 -2.23407874E-32  1.83177360E-02  2.37157206E-19 -2.80222807E-32  2.25582690E-02
  2.91443725E-19 -1.71167024E-32  1.54012434E-02  2.04703947E-19 -2.44352362E-33
  1.11911233E-03  0.00000000E+00  0.00000000E+00  0.00000000E+00  0.00000000E+00
  0.00000000E+00 -2.37157206E-19  2.37157206E-19  2.82545163E-03 -2.91443725E-19
  2.91443725E-19  3.51972011E-03 -2.04703947E-19  2.04703947E-19  2.02896671E-03
 -1.63973366E-20  1.63973366E-20  4.79570099E-05 -8.64419934E-05 -4.41679979E-04
 -1.28321154E-04 -6.06437821E-04 -7.23598763E-05  0.00000000E+00  0.00000000E+00
  0.00000000E+00  0.00000000E+00  0.00000000E+00  0.00000000E+00  0.00000000E+00
  0.00000000E+00  0.00000000E+00  0.00000000E+00  0.00000000E+00  0.00000000E+00
  1.22145069E-04 -2.29195594E-21 -1.17108712E-20 -3.40235596E-21 -1.60793234E-20
 -1.91857733E-21  0.00000000E+00  0.00000000E+00  0.00000000E+00  0.00000000E+00
  0.00000000E+00  0.00000000E+00  0.00000000E+00  0.00000000E+00  0.00000000E+00
  0.00000000E+00  0.00000000E+00  0.00000000E+00  3.23860089E-21  6.86955983E-37
  2.29195594E-21  1.17108712E-20  3.40235596E-21  1.60793234E-20  1.91857733E-21
  0.00000000E+00  0.00000000E+00  0.00000000E+00  0.00000000E+00  0.00000000E+00
  0.00000000E+00  0.00000000E+00  0.00000000E+00  0.00000000E+00  0.00000000E+00
  0.00000000E+00  0.00000000E+00 -3.23860089E-21  0.00000000E+00  6.86955983E-37
 -5.33644309E-16 -1.17961196E-16 -6.32631968E-17 -7.40510084E-17  3.81164826E-19
  0.00000000E+00  0.00000000E+00  0.00000000E+00  0.00000000E+00  0.00000000E+00
  0.00000000E+00  0.00000000E+00  0.00000000E+00  0.00000000E+00  0.00000000E+00
  0.00000000E+00  0.00000000E+00 -2.11758237E-18 -5.61416102E-35  5.60945904E-35
 -4.89034700E-22 -1.63367747E-32 -3.61379256E-33 -1.93372650E-33 -2.26904475E-33
  1.15645705E-35  0.00000000E+00  0.00000000E+00  0.00000000E+00  0.00000000E+00
  0.00000000E+00  0.00000000E+00  0.00000000E+00  0.00000000E+00  0.00000000E+00
  0.00000000E+00  0.00000000E+00  0.00000000E+00 -6.46819642E-35  0.00000000E+00
  0.00000000E+00  3.13465160E-38  7.67768210E-54 -3.77675986E-05 -6.73757944E-04
 -1.86508444E-04 -1.09151675E-03 -1.45141240E-04  0.00000000E+00  0.00000000E+00
  0.00000000E+00  0.00000000E+00  0.00000000E+00  0.00000000E+00  0.00000000E+00
  0.00000000E+00  0.00000000E+00  0.00000000E+00  0.00000000E+00  0.00000000E+00
  2.46758349E-04  6.54264486E-21 -6.54264486E-21 -4.59769484E-18 -1.40548443E-34
  5.03673439E-04 -1.00138450E-21 -1.78642748E-20 -4.94515593E-21 -2.89408911E-20
 -3.84833014E-21  0.00000000E+00  0.00000000E+00  0.00000000E+00  0.00000000E+00
  0.00000000E+00  0.00000000E+00  0.00000000E+00  0.00000000E+00  0.00000000E+00
  0.00000000E+00  0.00000000E+00  0.00000000E+00  6.54264486E-21  1.38779343E-36
  0.00000000E+00 -1.21499096E-34  0.00000000E+00  1.33545894E-20  2.83270938E-36
  1.00138450E-21  1.78642748E-20  4.94515593E-21  2.89408911E-20  3.84833014E-21
  0.00000000E+00  0.00000000E+00  0.00000000E+00  0.00000000E+00  0.00000000E+00
  0.00000000E+00  0.00000000E+00  0.00000000E+00  0.00000000E+00  0.00000000E+00
  0.00000000E+00  0.00000000E+00 -6.54264486E-21  0.00000000E+00  1.38779343E-36
  1.21969294E-34  0.00000000E+00 -1.33545894E-20  0.00000000E+00  2.83270938E-36
  9.08344580E-16  1.95156391E-17  5.04154010E-17  2.38524478E-18 -4.22838847E-18
  0.00000000E+00  0.00000000E+00  0.00000000E+00  0.00000000E+00  0.00000000E+00
  0.00000000E+00  0.00000000E+00  0.00000000E+00  0.00000000E+00  0.00000000E+00
  0.00000000E+00  0.00000000E+00  6.70850094E-18  1.77922825E-34 -1.78016864E-34
  1.95613880E-21  0.00000000E+00  1.37287100E-17  3.64121130E-34 -3.64497288E-34
  3.91227760E-21  2.78053539E-32  6.11564895E-34  1.54281144E-33  7.64456118E-35
 -1.29707789E-34  0.00000000E+00  0.00000000E+00  0.00000000E+00  0.00000000E+00
  0.00000000E+00  0.00000000E+00  0.00000000E+00  0.00000000E+00  0.00000000E+00
  0.00000000E+00  0.00000000E+00  0.00000000E+00  2.05483778E-34  0.00000000E+00
  0.00000000E+00  0.00000000E+00  0.00000000E+00  4.20088907E-34  0.00000000E+00
  0.00000000E+00  1.25386064E-37  3.07107284E-53  1.57328528E-03 -3.76991547E-03
 -1.13011142E-03 -2.60242429E-03 -8.35088829E-05  0.00000000E+00  0.00000000E+00
  0.00000000E+00  0.00000000E+00  0.00000000E+00  0.00000000E+00  0.00000000E+00
  0.00000000E+00  0.00000000E+00  0.00000000E+00  0.00000000E+00  0.00000000E+00
  7.46022182E-05  1.97803163E-21 -1.97803163E-21 -7.03107932E-19 -2.14505590E-35
  1.50809830E-04  3.99862928E-21 -3.99862928E-21  3.92543302E-18  1.20179234E-34
  6.50449018E-05  4.17146852E-20 -9.99569749E-20 -2.99642046E-20 -6.90016690E-20
 -2.21418633E-21  0.00000000E+00  0.00000000E+00  0.00000000E+00  0.00000000E+00
  0.00000000E+00  0.00000000E+00  0.00000000E+00  0.00000000E+00  0.00000000E+00
  0.00000000E+00  0.00000000E+00  0.00000000E+00  1.97803163E-21  4.19570274E-37
  0.00000000E+00 -1.85610558E-35  0.00000000E+00  3.99862928E-21  8.48169440E-37
  0.00000000E+00  1.04219329E-34  0.00000000E+00  1.72462531E-21  3.65818979E-37
 -4.17146852E-20  9.99569749E-20  2.99642046E-20  6.90016690E-20  2.21418633E-21
  0.00000000E+00  0.00000000E+00  0.00000000E+00  0.00000000E+00  0.00000000E+00
  0.00000000E+00  0.00000000E+00  0.00000000E+00  0.00000000E+00  0.00000000E+00
  0.00000000E+00  0.00000000E+00 -1.97803163E-21  0.00000000E+00  4.19570274E-37
  1.85610558E-35  0.00000000E+00 -3.99862928E-21  0.00000000E+00  8.48169440E-37
 -1.03866681E-34  0.00000000E+00 -1.72462531E-21  0.00000000E+00  3.65818979E-37
 -6.48136059E-16  7.42949539E-17 -6.95244643E-18  4.88568604E-17  2.69271774E-18
  0.00000000E+00  0.00000000E+00  0.00000000E+00  0.00000000E+00  0.00000000E+00
  0.00000000E+00  0.00000000E+00  0.00000000E+00  0.00000000E+00  0.00000000E+00
  0.00000000E+00  0.00000000E+00 -2.47884192E-18 -6.57218892E-35  6.58159287E-35
  1.22258675E-22  3.13465160E-38 -5.03391681E-18 -1.33395099E-34  1.33559668E-34
  1.46710410E-21  6.26930320E-38 -1.91540619E-18 -5.07358055E-35  5.07387443E-35
  9.47504731E-22 -1.98432828E-32  2.27512565E-33 -2.09791082E-34  1.49677033E-33
  8.25197260E-35  0.00000000E+00  0.00000000E+00  0.00000000E+00  0.00000000E+00
  0.00000000E+00  0.00000000E+00  0.00000000E+00  0.00000000E+00  0.00000000E+00
  0.00000000E+00  0.00000000E+00  0.00000000E+00 -7.60157862E-35  0.00000000E+00
  0.00000000E+00  3.13465160E-38  7.67768210E-54 -1.54203323E-34  0.00000000E+00
  0.00000000E+00  6.26930320E-38  1.53553642E-53 -5.85685435E-35  0.00000000E+00
  0.00000000E+00 -3.08567267E-38 -7.55771832E-54  0.00000000E+00  0.00000000E+00
  0.00000000E+00  0.00000000E+00  0.00000000E+00 -2.68218262E-20  2.68218262E-20
  2.54821586E-03 -3.24729406E-20  3.24729406E-20  3.17436212E-03 -2.41420870E-20
  2.41420870E-20  1.82988273E-03 -2.26077985E-21  2.26077985E-21  4.32514264E-05
  0.00000000E+00  0.00000000E+00  0.00000000E+00  0.00000000E+00  0.00000000E+00
  0.00000000E+00  0.00000000E+00  0.00000000E+00  0.00000000E+00  0.00000000E+00
  0.00000000E+00  0.00000000E+00  0.00000000E+00  0.00000000E+00  0.00000000E+00
  3.90075589E-05  0.00000000E+00  0.00000000E+00  0.00000000E+00  0.00000000E+00
  0.00000000E+00  1.75561075E-03 -3.06794033E-33  6.86754044E-20  2.16194234E-03
 -3.67636858E-33  8.59338504E-20  1.39088704E-03 -2.41663647E-33  4.73232907E-20
  7.79496115E-05 -3.68022692E-34  4.28539337E-22  0.00000000E+00  0.00000000E+00
  0.00000000E+00  0.00000000E+00  0.00000000E+00  0.00000000E+00  0.00000000E+00
  0.00000000E+00  0.00000000E+00  0.00000000E+00  0.00000000E+00  0.00000000E+00
  0.00000000E+00  0.00000000E+00  0.00000000E+00  5.03642028E-22  2.55760293E-05
  0.00000000E+00  0.00000000E+00  0.00000000E+00  0.00000000E+00  0.00000000E+00
 -3.06508400E-33  1.75561075E-03 -6.86754044E-20 -3.67547790E-33  2.16194234E-03
 -8.59338504E-20 -2.41436369E-33  1.39088704E-03 -4.73232907E-20 -3.67972783E-34
  7.79496115E-05 -4.28539337E-22  0.00000000E+00  0.00000000E+00  0.00000000E+00
  0.00000000E+00  0.00000000E+00  0.00000000E+00  0.00000000E+00  0.00000000E+00
  0.00000000E+00  0.00000000E+00  0.00000000E+00  0.00000000E+00  0.00000000E+00
  0.00000000E+00  0.00000000E+00 -5.03642028E-22 -7.71362577E-35  2.55760293E-05
  0.00000000E+00  0.00000000E+00  0.00000000E+00  0.00000000E+00  0.00000000E+00
  4.24931670E-20  4.24931670E-20 -3.03576608E-17  5.23281012E-20  5.23281012E-20
 -3.75133952E-17  3.36653186E-20  3.36653186E-20 -2.14672030E-17  1.88670858E-21
  1.88670858E-21 -5.14996032E-19  0.00000000E+00  0.00000000E+00  0.00000000E+00
  0.00000000E+00  0.00000000E+00  0.00000000E+00  0.00000000E+00  0.00000000E+00
  0.00000000E+00  0.00000000E+00  0.00000000E+00  0.00000000E+00  0.00000000E+00
  0.00000000E+00  0.00000000E+00 -4.59091857E-19  6.19047523E-22  6.19047523E-22
 -9.78069400E-22  0.00000000E+00  0.00000000E+00  0.00000000E+00  0.00000000E+00
  0.00000000E+00 -4.24931670E-20  4.24931670E-20 -9.19955001E-34 -5.23281012E-20
  5.23281012E-20 -1.14372784E-33 -3.36653186E-20  3.36653186E-20 -6.58886690E-34
 -1.88670858E-21  1.88670858E-21 -1.56369040E-35  0.00000000E+00  0.00000000E+00
  0.00000000E+00  0.00000000E+00  0.00000000E+00  0.00000000E+00  0.00000000E+00
  0.00000000E+00  0.00000000E+00  0.00000000E+00  0.00000000E+00  0.00000000E+00
  0.00000000E+00  0.00000000E+00  0.00000000E+00 -1.41023507E-35 -6.19047523E-22
  6.19047523E-22  0.00000000E+00  2.39736876E-37  0.00000000E+00  0.00000000E+00
  0.00000000E+00  0.00000000E+00  0.00000000E+00  6.73799431E-16  4.31287809E-32
 -1.08712922E-32  8.29710100E-16  5.31181038E-32 -1.33932599E-32  5.61803197E-16
  3.60123786E-32 -8.99813663E-33  3.95699098E-17  2.54808592E-33 -6.15268048E-34
  0.00000000E+00  0.00000000E+00  0.00000000E+00  0.00000000E+00  0.00000000E+00
  0.00000000E+00  0.00000000E+00  0.00000000E+00  0.00000000E+00  0.00000000E+00
  0.00000000E+00  0.00000000E+00  0.00000000E+00  0.00000000E+00  0.00000000E+00
 -1.52929380E-34  3.85100204E-18  2.37269778E-34  9.31985272E-35 -9.31992619E-35
  3.57611068E-22  0.00000000E+00  0.00000000E+00  0.00000000E+00  0.00000000E+00
  0.00000000E+00  4.18725324E-32 -7.14707735E-16 -1.03708138E-32  5.15706616E-32
 -8.80308460E-16 -1.27675207E-32  3.49315838E-32 -5.97107530E-16 -8.73200471E-33
  2.46452237E-33 -4.23020145E-17 -6.37866926E-34  0.00000000E+00  0.00000000E+00
  0.00000000E+00  0.00000000E+00  0.00000000E+00  0.00000000E+00  0.00000000E+00
  0.00000000E+00  0.00000000E+00  0.00000000E+00  0.00000000E+00  0.00000000E+00
  0.00000000E+00  0.00000000E+00  0.00000000E+00 -1.36984167E-34  2.36172813E-34
 -3.88611421E-18 -9.40852908E-35 -9.40856581E-35  2.57139389E-39  1.84054411E-22
  0.00000000E+00  0.00000000E+00  0.00000000E+00  0.00000000E+00  0.00000000E+00
 -2.95986940E-20  2.95986940E-20  2.32657069E-03 -3.59408602E-20  3.59408602E-20
  2.89825441E-03 -2.60227992E-20  2.60227992E-20  1.67071856E-03 -2.26773196E-21
  2.26773196E-21  3.94893943E-05  0.00000000E+00  0.00000000E+00  0.00000000E+00
  0.00000000E+00  0.00000000E+00  0.00000000E+00  0.00000000E+00  0.00000000E+00
  0.00000000E+00  0.00000000E+00  0.00000000E+00  0.00000000E+00  0.00000000E+00
  0.00000000E+00  0.00000000E+00  3.56146606E-05  3.71011212E-22 -3.71011212E-22
 -4.23285688E-19 -1.29174425E-35 -1.50884101E-34 -1.36232875E-34  3.25168784E-05
  0.00000000E+00  0.00000000E+00  0.00000000E+00  0.00000000E+00  0.00000000E+00
  1.73918022E-03  4.83493145E-33  6.06158958E-20  2.14170710E-03  6.05946624E-33
  7.58904031E-20  1.37606488E-03  4.08850885E-33  4.15820108E-20  7.65991728E-05
  6.64383839E-35  3.08147057E-22  0.00000000E+00  0.00000000E+00  0.00000000E+00
  0.00000000E+00  0.00000000E+00  0.00000000E+00  0.00000000E+00  0.00000000E+00
  0.00000000E+00  0.00000000E+00  0.00000000E+00  0.00000000E+00  0.00000000E+00
  0.00000000E+00  0.00000000E+00  3.71011212E-22  2.57202360E-05 -1.35802462E-35
  6.22537931E-22 -6.22537931E-22  3.81609421E-18  2.33937869E-34  2.49279596E-22
  2.58688902E-05  0.00000000E+00  0.00000000E+00  0.00000000E+00  0.00000000E+00
  0.00000000E+00  4.83695852E-33  1.73918022E-03 -6.06158958E-20  6.06312111E-33
  2.14170710E-03 -7.58904031E-20  4.08992165E-33  1.37606488E-03 -4.15820108E-20
  6.64767754E-35  7.65991728E-05 -3.08147057E-22  0.00000000E+00  0.00000000E+00
  0.00000000E+00  0.00000000E+00  0.00000000E+00  0.00000000E+00  0.00000000E+00
  0.00000000E+00  0.00000000E+00  0.00000000E+00  0.00000000E+00  0.00000000E+00
  0.00000000E+00  0.00000000E+00  0.00000000E+00 -3.71011212E-22 -1.35817891E-35
  2.57202360E-05  6.22537931E-22  6.22537931E-22  2.34894973E-34 -3.84850041E-18
 -2.49279596E-22  4.96675726E-35  2.58688902E-05  0.00000000E+00  0.00000000E+00
  0.00000000E+00  0.00000000E+00  0.00000000E+00  4.20954791E-20  4.20954791E-20
  9.63855731E-17  5.18383232E-20  5.18383232E-20  1.19912760E-16  3.33065600E-20
  3.33065600E-20  6.88468380E-17  1.85402228E-21  1.85402228E-21  1.63307952E-18
  0.00000000E+00  0.00000000E+00  0.00000000E+00  0.00000000E+00  0.00000000E+00
  0.00000000E+00  0.00000000E+00  0.00000000E+00  0.00000000E+00  0.00000000E+00
  0.00000000E+00  0.00000000E+00  0.00000000E+00  0.00000000E+00  0.00000000E+00
  1.47214326E-18  6.22537931E-22  6.22537931E-22  4.10037832E-39  0.00000000E+00
  9.23348085E-35 -9.31036961E-35  1.34170019E-18  6.26135988E-22  6.26135988E-22
 -1.95613880E-21  0.00000000E+00  0.00000000E+00  0.00000000E+00  0.00000000E+00
  0.00000000E+00 -4.20954791E-20  4.20954791E-20  2.94634237E-33 -5.18383232E-20
  5.18383232E-20  3.67360409E-33 -3.33065600E-20  3.33065600E-20  2.11030218E-33
 -1.85402228E-21  1.85402228E-21  4.99215446E-35  0.00000000E+00  0.00000000E+00
  0.00000000E+00  0.00000000E+00  0.00000000E+00  0.00000000E+00  0.00000000E+00
  0.00000000E+00  0.00000000E+00  0.00000000E+00  0.00000000E+00  0.00000000E+00
  0.00000000E+00  0.00000000E+00  0.00000000E+00  4.50070890E-35 -6.22537931E-22
  6.22537931E-22  0.00000000E+00  2.41088597E-37 -9.23416735E-35 -9.30936225E-35
  4.10638698E-35 -6.26135988E-22  6.26135988E-22 -5.01544256E-38  2.42482007E-37
  0.00000000E+00  0.00000000E+00  0.00000000E+00  0.00000000E+00  0.00000000E+00
 -1.32068433E-15 -8.11119507E-32  2.20273351E-32 -1.62636573E-15 -9.98827613E-32
  2.71528782E-32 -1.10269018E-15 -6.76931324E-32  1.81774790E-32 -7.80684849E-17
 -4.78290519E-33  1.22579265E-33  0.00000000E+00  0.00000000E+00  0.00000000E+00
  0.00000000E+00  0.00000000E+00  0.00000000E+00  0.00000000E+00  0.00000000E+00
  0.00000000E+00  0.00000000E+00  0.00000000E+00  0.00000000E+00  0.00000000E+00
  0.00000000E+00  0.00000000E+00  2.98950101E-34 -7.23380927E-18 -4.51761126E-34
 -1.75131046E-34  1.75107536E-34 -1.25339075E-22 -1.83670992E-39  2.93846674E-34
 -7.16377927E-18 -4.47326892E-34 -1.73404023E-34  1.73357370E-34  6.71610876E-23
  0.00000000E+00  0.00000000E+00  0.00000000E+00  0.00000000E+00  0.00000000E+00
 -8.09565998E-32  1.32584785E-15  1.84968083E-32 -9.96932713E-32  1.63250503E-15
  2.27463730E-32 -6.75846484E-32  1.10626805E-15  1.56466867E-32 -4.78152237E-33
  7.81087190E-17  1.16533183E-33  0.00000000E+00  0.00000000E+00  0.00000000E+00
  0.00000000E+00  0.00000000E+00  0.00000000E+00  0.00000000E+00  0.00000000E+00
  0.00000000E+00  0.00000000E+00  0.00000000E+00  0.00000000E+00  0.00000000E+00
  0.00000000E+00  0.00000000E+00  2.50823525E-34 -4.46042309E-34  7.42118884E-18
  1.79648985E-34  1.79648985E-34  2.64486229E-39 -1.35397623E-22  2.50537054E-34
 -4.41633266E-34  7.35086767E-18  1.77930778E-34  1.77883758E-34 -1.21590197E-38
  4.67313618E-22
Spin SCF Density                           R   N=        1081
 -6.70939819E-04 -8.31845661E-03  2.61497068E-02 -4.43964751E-04  9.15493741E-03
  3.39614276E-03  4.68154271E-03 -6.73802323E-03 -1.20243123E-03 -1.93369044E-02
  1.76767577E-03 -4.61102002E-03 -1.38997352E-03 -3.22678034E-03 -1.10679017E-04
  0.00000000E+00  0.00000000E+00  0.00000000E+00  0.00000000E+00  0.00000000E+00
  6.96675912E-03  0.00000000E+00  0.00000000E+00  0.00000000E+00  0.00000000E+00
  0.00000000E+00  8.85927774E-33  6.96675912E-03  0.00000000E+00  0.00000000E+00
  0.00000000E+00  0.00000000E+00  0.00000000E+00  2.44161686E-18 -2.44161686E-18
  1.66465276E-01  0.00000000E+00  0.00000000E+00  0.00000000E+00  0.00000000E+00
  0.00000000E+00  8.56851796E-03  2.92741352E-32  3.04325523E-18  1.05385270E-02
  0.00000000E+00  0.00000000E+00  0.00000000E+00  0.00000000E+00  0.00000000E+00
  2.92741352E-32  8.56851796E-03 -3.04325523E-18  6.00890143E-32  1.05385270E-02
  0.00000000E+00  0.00000000E+00  0.00000000E+00  0.00000000E+00  0.00000000E+00
  3.04325523E-18 -3.04325523E-18  2.07369036E-01  3.79311567E-18 -3.79311567E-18
  2.58323647E-01  0.00000000E+00  0.00000000E+00  0.00000000E+00  0.00000000E+00
  0.00000000E+00 -4.57916064E-03  7.70371978E-34  1.90001591E-18 -5.64837513E-03
  1.69481835E-32  2.36602996E-18 -1.24970863E-02  0.00000000E+00  0.00000000E+00
  0.00000000E+00  0.00000000E+00  0.00000000E+00  7.70371978E-34 -4.57916064E-03
 -1.90001591E-18  1.69481835E-32 -5.64837513E-03 -2.36602996E-18 -5.77778983E-33
 -1.24970863E-02  0.00000000E+00  0.00000000E+00  0.00000000E+00  0.00000000E+00
  0.00000000E+00  1.90001591E-18 -1.90001591E-18  1.19539298E-01  2.36602996E-18
 -2.36602996E-18  1.48912431E-01  1.50537679E-18 -1.50537679E-18  8.58415884E-02
  0.00000000E+00  0.00000000E+00  0.00000000E+00  0.00000000E+00  0.00000000E+00
 -3.16451871E-03 -1.23259516E-32  9.16949750E-20 -3.89772858E-03 -1.40111403E-32
  1.13546935E-19 -3.25427018E-03 -1.00870581E-32  8.08762393E-20 -3.97527506E-04
  0.00000000E+00  0.00000000E+00  0.00000000E+00  0.00000000E+00  0.00000000E+00
 -1.23259516E-32 -3.16451871E-03 -9.16949750E-20 -1.40111403E-32 -3.89772858E-03
 -1.13546935E-19 -1.00870581E-32 -3.25427018E-03 -8.08762393E-20 -9.38890848E-34
 -3.97527506E-04  0.00000000E+00  0.00000000E+00  0.00000000E+00  0.00000000E+00
  0.00000000E+00  9.16949750E-20 -9.16949750E-20  2.82545163E-03  1.13546935E-19
 -1.13546935E-19  3.51972011E-03  8.08762393E-20 -8.08762393E-20  2.02896671E-03
  6.81951483E-21 -6.81951483E-21  4.79570099E-05 -1.99392558E-03  8.75559439E-03
  2.72319881E-03  5.64185290E-03  1.05581037E-04  0.00000000E+00  0.00000000E+00
  0.00000000E+00  0.00000000E+00  0.00000000E+00  0.00000000E+00  0.00000000E+00
  0.00000000E+00  0.00000000E+00  0.00000000E+00  0.00000000E+00  0.00000000E+00
 -1.75389430E-05 -5.28677025E-20  2.32149165E-19  7.22039307E-20  1.49590237E-19
  2.79941585E-21  0.00000000E+00  0.00000000E+00  0.00000000E+00  0.00000000E+00
  0.00000000E+00  0.00000000E+00  0.00000000E+00  0.00000000E+00  0.00000000E+00
  0.00000000E+00  0.00000000E+00  0.00000000E+00 -4.65034216E-22 -9.86407549E-38
  5.28677025E-20 -2.32149165E-19 -7.22039307E-20 -1.49590237E-19 -2.79941585E-21
  0.00000000E+00  0.00000000E+00  0.00000000E+00  0.00000000E+00  0.00000000E+00
  0.00000000E+00  0.00000000E+00  0.00000000E+00  0.00000000E+00  0.00000000E+00
  0.00000000E+00  0.00000000E+00  4.65034216E-22  0.00000000E+00 -9.86407549E-38
  1.74014449E-16 -1.78242837E-16 -5.02527707E-17 -1.09179159E-16 -1.20448085E-18
  0.00000000E+00  0.00000000E+00  0.00000000E+00  0.00000000E+00  0.00000000E+00
  0.00000000E+00  0.00000000E+00  0.00000000E+00  0.00000000E+00  0.00000000E+00
  0.00000000E+00  0.00000000E+00 -1.94139952E-18 -5.14396328E-35  5.13926130E-35
  5.37938170E-21  5.32860662E-33 -5.46238644E-33 -1.53759924E-33 -3.34623292E-33
 -3.68654619E-35  0.00000000E+00  0.00000000E+00  0.00000000E+00  0.00000000E+00
  0.00000000E+00  0.00000000E+00  0.00000000E+00  0.00000000E+00  0.00000000E+00
  0.00000000E+00  0.00000000E+00  0.00000000E+00 -5.94335675E-35  0.00000000E+00
  0.00000000E+00 -3.13465160E-38 -7.67768210E-54 -7.20056524E-03  1.79152712E-02
  5.42592932E-03  1.15082758E-02  2.16459359E-04  0.00000000E+00  0.00000000E+00
  0.00000000E+00  0.00000000E+00  0.00000000E+00  0.00000000E+00  0.00000000E+00
  0.00000000E+00  0.00000000E+00  0.00000000E+00  0.00000000E+00  0.00000000E+00
 -3.20108149E-05 -8.48746943E-22  8.48746943E-22 -3.04593048E-18 -9.36386353E-35
 -5.83421883E-05 -1.90918530E-19  4.75012326E-19  1.43865157E-19  3.05134809E-19
  5.73928591E-21  0.00000000E+00  0.00000000E+00  0.00000000E+00  0.00000000E+00
  0.00000000E+00  0.00000000E+00  0.00000000E+00  0.00000000E+00  0.00000000E+00
  0.00000000E+00  0.00000000E+00  0.00000000E+00 -8.48746943E-22 -1.80031998E-37
  0.00000000E+00 -8.12501695E-35  0.00000000E+00 -1.54690701E-21 -3.28122254E-37
  1.90918530E-19 -4.75012326E-19 -1.43865157E-19 -3.05134809E-19 -5.73928591E-21
  0.00000000E+00  0.00000000E+00  0.00000000E+00  0.00000000E+00  0.00000000E+00
  0.00000000E+00  0.00000000E+00  0.00000000E+00  0.00000000E+00  0.00000000E+00
  0.00000000E+00  0.00000000E+00  8.48746943E-22  0.00000000E+00 -1.80031998E-37
  8.09680509E-35  0.00000000E+00  1.54690701E-21  0.00000000E+00 -3.28122254E-37
 -1.28586378E-16  4.96564595E-16  1.55149331E-16  3.18972279E-16  5.54298361E-18
  0.00000000E+00  0.00000000E+00  0.00000000E+00  0.00000000E+00  0.00000000E+00
  0.00000000E+00  0.00000000E+00  0.00000000E+00  0.00000000E+00  0.00000000E+00
  0.00000000E+00  0.00000000E+00  4.87890978E-19  1.27893785E-35 -1.28834181E-35
 -1.95613880E-21  0.00000000E+00 -3.65918233E-19 -9.78011300E-36  1.01562712E-35
 -3.91227760E-21 -3.92652461E-33  1.52335256E-32  4.76047674E-33  9.76418951E-33
  1.69993758E-34  0.00000000E+00  0.00000000E+00  0.00000000E+00  0.00000000E+00
  0.00000000E+00  0.00000000E+00  0.00000000E+00  0.00000000E+00  0.00000000E+00
  0.00000000E+00  0.00000000E+00  0.00000000E+00  1.48040981E-35  0.00000000E+00
  0.00000000E+00  0.00000000E+00  0.00000000E+00 -1.09311434E-35  0.00000000E+00
  0.00000000E+00 -1.25386064E-37 -3.07107284E-53 -1.93132165E-03  5.08453588E-03
  1.53900997E-03  3.39838265E-03  8.87860151E-05  0.00000000E+00  0.00000000E+00
  0.00000000E+00  0.00000000E+00  0.00000000E+00  0.00000000E+00  0.00000000E+00
  0.00000000E+00  0.00000000E+00  0.00000000E+00  0.00000000E+00  0.00000000E+00
 -5.80833356E-05 -1.54004369E-21  1.54004369E-21  6.93861156E-20  2.04054042E-36
 -1.16853474E-04 -3.09829754E-21  3.09829754E-21 -2.80339671E-18 -8.57750893E-35
 -6.24358790E-05 -5.12077980E-20  1.34813321E-19  4.08058967E-20  9.01060122E-20
  2.35410623E-21  0.00000000E+00  0.00000000E+00  0.00000000E+00  0.00000000E+00
  0.00000000E+00  0.00000000E+00  0.00000000E+00  0.00000000E+00  0.00000000E+00
  0.00000000E+00  0.00000000E+00  0.00000000E+00 -1.54004369E-21 -3.26666440E-37
  0.00000000E+00  1.75148658E-36  0.00000000E+00 -3.09829754E-21 -6.57195530E-37
  0.00000000E+00 -7.44558122E-35  0.00000000E+00 -1.65544868E-21 -3.51145576E-37
  5.12077980E-20 -1.34813321E-19 -4.08058967E-20 -9.01060122E-20 -2.35410623E-21
  0.00000000E+00  0.00000000E+00  0.00000000E+00  0.00000000E+00  0.00000000E+00
  0.00000000E+00  0.00000000E+00  0.00000000E+00  0.00000000E+00  0.00000000E+00
  0.00000000E+00  0.00000000E+00  1.54004369E-21  0.00000000E+00 -3.26666440E-37
 -1.75148658E-36  0.00000000E+00  3.09829754E-21  0.00000000E+00 -6.57195530E-37
  7.40561441E-35  0.00000000E+00  1.65544868E-21  0.00000000E+00 -3.51145576E-37
  2.03830008E-17 -1.78107312E-16 -5.71510070E-17 -1.17459753E-16 -2.56566280E-18
  0.00000000E+00  0.00000000E+00  0.00000000E+00  0.00000000E+00  0.00000000E+00
  0.00000000E+00  0.00000000E+00  0.00000000E+00  0.00000000E+00  0.00000000E+00
  0.00000000E+00  0.00000000E+00  6.85673171E-19  1.81613877E-35 -1.82554273E-35
  1.22258675E-22 -3.13465160E-38  2.35221049E-18  6.22071610E-35 -6.24187500E-35
 -2.44517350E-21 -6.26930320E-38  1.64213219E-18  4.34918216E-35 -4.34888829E-35
 -1.00863407E-21  6.23292346E-34 -5.45283074E-33 -1.75260252E-33 -3.59728726E-33
 -7.86241489E-35  0.00000000E+00  0.00000000E+00  0.00000000E+00  0.00000000E+00
  0.00000000E+00  0.00000000E+00  0.00000000E+00  0.00000000E+00  0.00000000E+00
  0.00000000E+00  0.00000000E+00  0.00000000E+00  2.10976496E-35  0.00000000E+00
  0.00000000E+00 -3.13465160E-38 -7.67768210E-54  7.20206705E-35  0.00000000E+00
  0.00000000E+00 -6.26930320E-38 -1.53553642E-53  5.01999525E-35  0.00000000E+00
  0.00000000E+00  3.18363053E-38  7.79764588E-54  0.00000000E+00  0.00000000E+00
  0.00000000E+00  0.00000000E+00  0.00000000E+00 -4.52640576E-20  4.52640576E-20
  2.54821586E-03 -5.51850644E-20  5.51850644E-20  3.17436212E-03 -4.01575984E-20
  4.01575984E-20  1.82988273E-03 -3.56279507E-21  3.56279507E-21  4.32514264E-05
  0.00000000E+00  0.00000000E+00  0.00000000E+00  0.00000000E+00  0.00000000E+00
  0.00000000E+00  0.00000000E+00  0.00000000E+00  0.00000000E+00  0.00000000E+00
  0.00000000E+00  0.00000000E+00  0.00000000E+00  0.00000000E+00  0.00000000E+00
  3.90075589E-05  0.00000000E+00  0.00000000E+00  0.00000000E+00  0.00000000E+00
  0.00000000E+00  2.24744297E-03 -2.86289909E-33  6.11463950E-20  2.76764748E-03
 -3.46088485E-33  7.66616647E-20  1.81800155E-03 -2.20164415E-33  4.07849855E-20
  1.12672798E-04 -3.71704436E-34 -1.03006151E-22  0.00000000E+00  0.00000000E+00
  0.00000000E+00  0.00000000E+00  0.00000000E+00  0.00000000E+00  0.00000000E+00
  0.00000000E+00  0.00000000E+00  0.00000000E+00  0.00000000E+00  0.00000000E+00
  0.00000000E+00  0.00000000E+00  0.00000000E+00  5.33451424E-22  2.47810484E-05
  0.00000000E+00  0.00000000E+00  0.00000000E+00  0.00000000E+00  0.00000000E+00
 -2.85936707E-33  2.24744297E-03 -6.11463950E-20 -3.45931848E-33  2.76764748E-03
 -7.66616647E-20 -2.19900282E-33  1.81800155E-03 -4.07849855E-20 -3.71600779E-34
  1.12672798E-04  1.03006151E-22  0.00000000E+00  0.00000000E+00  0.00000000E+00
  0.00000000E+00  0.00000000E+00  0.00000000E+00  0.00000000E+00  0.00000000E+00
  0.00000000E+00  0.00000000E+00  0.00000000E+00  0.00000000E+00  0.00000000E+00
  0.00000000E+00  0.00000000E+00 -5.33451424E-22 -7.77584762E-35  2.47810484E-05
  0.00000000E+00  0.00000000E+00  0.00000000E+00  0.00000000E+00  0.00000000E+00
  5.43975761E-20  5.43975761E-20 -3.03576608E-17  6.69887140E-20  6.69887140E-20
 -3.75133952E-17  4.40032868E-20  4.40032868E-20 -2.14672030E-17  2.72715579E-21
  2.72715579E-21 -5.14996032E-19  0.00000000E+00  0.00000000E+00  0.00000000E+00
  0.00000000E+00  0.00000000E+00  0.00000000E+00  0.00000000E+00  0.00000000E+00
  0.00000000E+00  0.00000000E+00  0.00000000E+00  0.00000000E+00  0.00000000E+00
  0.00000000E+00  0.00000000E+00 -4.59091857E-19  5.99805641E-22  5.99805641E-22
 -9.78069400E-22  0.00000000E+00  0.00000000E+00  0.00000000E+00  0.00000000E+00
  0.00000000E+00 -5.43975761E-20  5.43975761E-20 -9.19955001E-34 -6.69887140E-20
  6.69887140E-20 -1.14372784E-33 -4.40032868E-20  4.40032868E-20 -6.58886690E-34
 -2.72715579E-21  2.72715579E-21 -1.56369040E-35  0.00000000E+00  0.00000000E+00
  0.00000000E+00  0.00000000E+00  0.00000000E+00  0.00000000E+00  0.00000000E+00
  0.00000000E+00  0.00000000E+00  0.00000000E+00  0.00000000E+00  0.00000000E+00
  0.00000000E+00  0.00000000E+00  0.00000000E+00 -1.41023507E-35 -5.99805641E-22
  5.99805641E-22  0.00000000E+00  2.32285124E-37  0.00000000E+00  0.00000000E+00
  0.00000000E+00  0.00000000E+00  0.00000000E+00  2.22317804E-17  1.18237955E-34
 -8.96811865E-34  2.72687922E-17  1.49403291E-34 -1.10925028E-33 -4.06788955E-18
 -1.33939575E-33 -3.35944349E-34 -6.43201999E-18 -4.88437839E-34  8.89324114E-35
  0.00000000E+00  0.00000000E+00  0.00000000E+00  0.00000000E+00  0.00000000E+00
  0.00000000E+00  0.00000000E+00  0.00000000E+00  0.00000000E+00  0.00000000E+00
  0.00000000E+00  0.00000000E+00  0.00000000E+00  0.00000000E+00  0.00000000E+00
 -1.92423395E-34  4.90425645E-18  3.06791288E-34  1.18692496E-34 -1.18691762E-34
  3.55566159E-22  0.00000000E+00  0.00000000E+00  0.00000000E+00  0.00000000E+00
  0.00000000E+00  9.34841134E-34  4.58189461E-18  6.39982430E-34  1.15442591E-33
  5.54865232E-18  7.92793616E-34 -6.20213980E-34  2.75544191E-17  8.30334126E-34
 -4.25690836E-34  8.47972214E-18  1.39484546E-34  0.00000000E+00  0.00000000E+00
  0.00000000E+00  0.00000000E+00  0.00000000E+00  0.00000000E+00  0.00000000E+00
  0.00000000E+00  0.00000000E+00  0.00000000E+00  0.00000000E+00  0.00000000E+00
  0.00000000E+00  0.00000000E+00  0.00000000E+00 -1.80579922E-34  3.02344923E-34
 -5.04871527E-18 -1.22225592E-34 -1.22225224E-34  2.13058351E-39  1.78752686E-22
  0.00000000E+00  0.00000000E+00  0.00000000E+00  0.00000000E+00  0.00000000E+00
 -4.98946253E-20  4.98946253E-20  2.32657069E-03 -6.09358673E-20  6.09358673E-20
  2.89825441E-03 -4.36480916E-20  4.36480916E-20  1.67071856E-03 -3.70061777E-21
  3.70061777E-21  3.94893943E-05  0.00000000E+00  0.00000000E+00  0.00000000E+00
  0.00000000E+00  0.00000000E+00  0.00000000E+00  0.00000000E+00  0.00000000E+00
  0.00000000E+00  0.00000000E+00  0.00000000E+00  0.00000000E+00  0.00000000E+00
  0.00000000E+00  0.00000000E+00  3.56146606E-05  4.03816866E-22 -4.03816866E-22
 -4.23285688E-19 -1.29174425E-35 -1.94344079E-34 -1.84210164E-34  3.25168784E-05
  0.00000000E+00  0.00000000E+00  0.00000000E+00  0.00000000E+00  0.00000000E+00
  2.28044840E-03 -1.90421764E-36  5.23301165E-20  2.80829400E-03  5.95835843E-35
  6.56862341E-20  1.84611032E-03 -7.02410605E-35  3.43865153E-20  1.14812521E-04
 -2.95067354E-34 -2.76826123E-22  0.00000000E+00  0.00000000E+00  0.00000000E+00
  0.00000000E+00  0.00000000E+00  0.00000000E+00  0.00000000E+00  0.00000000E+00
  0.00000000E+00  0.00000000E+00  0.00000000E+00  0.00000000E+00  0.00000000E+00
  0.00000000E+00  0.00000000E+00  4.03816866E-22  2.48453485E-05 -6.08122901E-36
  6.01361973E-22 -6.01361973E-22  4.97515297E-18  3.06757864E-34  2.85382673E-22
  2.49060644E-05  0.00000000E+00  0.00000000E+00  0.00000000E+00  0.00000000E+00
  0.00000000E+00  4.91411005E-37  2.28044840E-03 -5.23301165E-20  6.37912910E-35
  2.80829400E-03 -6.56862341E-20 -6.82139901E-35  1.84611032E-03 -3.43865153E-20
 -2.94982893E-34  1.14812521E-04  2.76826123E-22  0.00000000E+00  0.00000000E+00
  0.00000000E+00  0.00000000E+00  0.00000000E+00  0.00000000E+00  0.00000000E+00
  0.00000000E+00  0.00000000E+00  0.00000000E+00  0.00000000E+00  0.00000000E+00
  0.00000000E+00  0.00000000E+00  0.00000000E+00 -4.03816866E-22 -6.08282082E-36
  2.48453485E-05  6.01361973E-22  6.01361973E-22  3.11404794E-34 -5.12800354E-18
 -2.85382673E-22  6.69267341E-35  2.49060644E-05  0.00000000E+00  0.00000000E+00
  0.00000000E+00  0.00000000E+00  0.00000000E+00  5.51964464E-20  5.51964464E-20
  9.63855731E-17  6.79725309E-20  6.79725309E-20  1.19912760E-16  4.46836373E-20
  4.46836373E-20  6.88468380E-17  2.77894609E-21  2.77894609E-21  1.63307952E-18
  0.00000000E+00  0.00000000E+00  0.00000000E+00  0.00000000E+00  0.00000000E+00
  0.00000000E+00  0.00000000E+00  0.00000000E+00  0.00000000E+00  0.00000000E+00
  0.00000000E+00  0.00000000E+00  0.00000000E+00  0.00000000E+00  0.00000000E+00
  1.47214326E-18  6.01361973E-22  6.01361973E-22 -4.10037832E-39  0.00000000E+00
  1.20388366E-34 -1.24071567E-34  1.34170019E-18  6.02831552E-22  6.02831552E-22
 -1.95613880E-21  0.00000000E+00  0.00000000E+00  0.00000000E+00  0.00000000E+00
  0.00000000E+00 -5.51964464E-20  5.51964464E-20  2.94634237E-33 -6.79725309E-20
  6.79725309E-20  3.67360409E-33 -4.46836373E-20  4.46836373E-20  2.11030218E-33
 -2.77894609E-21  2.77894609E-21  4.99215446E-35  0.00000000E+00  0.00000000E+00
  0.00000000E+00  0.00000000E+00  0.00000000E+00  0.00000000E+00  0.00000000E+00
  0.00000000E+00  0.00000000E+00  0.00000000E+00  0.00000000E+00  0.00000000E+00
  0.00000000E+00  0.00000000E+00  0.00000000E+00  4.50070890E-35 -6.01361973E-22
  6.01361973E-22  0.00000000E+00  2.32887840E-37 -1.20395399E-34 -1.24063309E-34
  4.10638698E-35 -6.02831552E-22  6.02831552E-22 -5.01544256E-38  2.33456961E-37
  0.00000000E+00  0.00000000E+00  0.00000000E+00  0.00000000E+00  0.00000000E+00
  5.32177351E-19 -9.95149628E-34  1.80218908E-33  7.37248592E-19 -1.21663763E-33
  2.24505549E-33  4.46381838E-17  1.88145848E-33  6.13773976E-34  1.52070006E-17
  8.73201868E-34 -2.02091788E-34  0.00000000E+00  0.00000000E+00  0.00000000E+00
  0.00000000E+00  0.00000000E+00  0.00000000E+00  0.00000000E+00  0.00000000E+00
  0.00000000E+00  0.00000000E+00  0.00000000E+00  0.00000000E+00  0.00000000E+00
  0.00000000E+00  0.00000000E+00  3.79027924E-34 -9.36941730E-18 -5.81259132E-34
 -2.26821387E-34  2.26797878E-34 -1.36295043E-22 -2.86526748E-39  3.81971290E-34
 -9.51399892E-18 -5.89840545E-34 -2.30288451E-34  2.30241063E-34  9.18381821E-23
  0.00000000E+00  0.00000000E+00  0.00000000E+00  0.00000000E+00  0.00000000E+00
 -3.18790462E-34  2.16262045E-17 -1.46822428E-33 -3.85998152E-34  2.63000431E-17
 -1.84058672E-33  2.44100711E-33 -2.63151671E-17 -1.69132343E-33  9.11311008E-34
 -1.39665208E-17 -2.44167873E-34  0.00000000E+00  0.00000000E+00  0.00000000E+00
  0.00000000E+00  0.00000000E+00  0.00000000E+00  0.00000000E+00  0.00000000E+00
  0.00000000E+00  0.00000000E+00  0.00000000E+00  0.00000000E+00  0.00000000E+00
  0.00000000E+00  0.00000000E+00  3.29870587E-34 -5.76381761E-34  9.52932123E-18
  2.30672968E-34  2.30672968E-34  2.05711511E-39 -1.13903186E-22  3.37530257E-34
 -5.85071528E-34  9.67080590E-18  2.34084195E-34  2.34037175E-34 -1.13508673E-38
  4.72346947E-22
Mulliken Charges                           R   N=           1
 -5.32907052E-15
ONIOM Charges                              I   N=          16
           0           0           0           0           0           0
           0           0           0           0           0           0
           0           0           0           0
ONIOM Multiplicities                       I   N=          16
           2           0           0           0           0           0
           0           0           0           0           0           0
           0           0           0           0
Atom Layers                                I   N=           1
           1
Atom Modifiers                             I   N=           1
           0
Int Atom Modified Types                    I   N=           1
           0
Force Field                                I                0
Atom Modified Types                        C   N=           1
            
Link Atoms                                 I   N=           1
           0
Atom Modified MM Charges                   R   N=           1
  0.00000000E+00
Link Distances                             R   N=           4
  0.00000000E+00  0.00000000E+00  0.00000000E+00  0.00000000E+00
Cartesian Gradient                         R   N=           3
  0.00000000E+00  0.00000000E+00  0.00000000E+00
Nonadiabatic coupling                      R   N=           3
  0.00000000E+00  0.00000000E+00  0.00000000E+00
ClPar MaxAn                                I              200
ClPar NIntPar                              I                4
ClPar NRealPar                             I               16
ClPar NBits                                I               30
ClPar LenBitVec                            I                1
ClPar Read BitMap                          I   N=         200
           0           0           0           0           0           0
           0           0           0           0           0           0
           0           0           0           0           0           0
           0           0           0           0           0           0
           0           0           0           0           0           0
           0           0           0           0           0           0
           0           0           0           0           0           0
           0           0           0           0           0           0
           0           0           0           0           0           0
           0           0           0           0           0           0
           0           0           0           0           0           0
           0           0           0           0           0           0
           0           0           0           0           0           0
           0           0           0           0           0           0
           0           0           0           0           0           0
           0           0           0           0           0           0
           0           0           0           0           0           0
           0           0           0           0           0           0
           0           0           0           0           0           0
           0           0           0           0           0           0
           0           0           0           0           0           0
           0           0           0           0           0           0
           0           0           0           0           0           0
           0           0           0           0           0           0
           0           0           0           0           0           0
           0           0           0           0           0           0
           0           0           0           0           0           0
           0           0           0           0           0           0
           0           0           0           0           0           0
           0           0           0           0           0           0
           0           0           0           0           0           0
           0           0           0           0           0           0
           0           0           0           0           0           0
           0           0
ClPar Default BitMap                       I   N=         200
        2016        2016        2016        2016        2016        2016
        2016        2016        2016        2016        2016        2016
        2016        2016        2016        2016        2016        2016
        2016        2016        2016        2016        2016        2016
        2016        2016        2016        2016        2016        2016
        2016        2016        2016        2016        2016        2016
        2016        2016        2016        2016        2016        2016
        2016        2016        2016        2016        2016        2016
        2016        2016        2016        2016        2016        2016
        2016        2016        2016        2016        2016        2016
        2016        2016        2016        2016        2016        2016
        2016        2016        2016        2016        2016        2016
        2016        2016        2016        2016        2016        2016
        2016        2016        2016        2016        2016        2016
        2016        2016         480         480         480         480
         480         480         480         480         480         480
         480         480         480         480         480         480
         480         480         480         480         480         480
         480         480         480         480         480         480
         480         480         480         480         480         480
         480         480         480         480         480         480
         480         480         480         480         480         480
         480         480         480         480         480         480
         480         480         480         480         480         480
         480         480         480         480         480         480
         480         480         480         480         480         480
         480         480         480         480         480         480
         480         480         480         480         480         480
         480         480         480         480         480         480
         480         480         480         480         480         480
         480         480         480         480         480         480
         480         480         480         480         480         480
         480         480         480         480         480         480
         480         480
ClPar Int Params                           I   N=         800
           0           0           0           0           0           0
           0           0           0           0           0           0
           0           0           0           0           0           0
           0           0           0           0           0           0
           0           0           0           0           0           0
           0           0           0           0           0           0
           0           0           0           0           0           0
           0           0           0           0           0           0
           0           0           0           0           0           0
           0           0           0           0           0           0
           0           0           0           0           0           0
           0           0           0           0           0           0
           0           0           0           0           0           0
           0           0           0           0           0           0
           0           0           0           0           0           0
           0           0           0           0           0           0
           0           0           0           0           0           0
           0           0           0           0           0           0
           0           0           0           0           0           0
           0           0           0           0           0           0
           0           0           0           0           0           0
           0           0           0           0           0           0
           0           0           0           0           0           0
           0           0           0           0           0           0
           0           0           0           0           0           0
           0           0           0           0           0           0
           0           0           0           0           0           0
           0           0           0           0           0           0
           0           0           0           0           0           0
           0           0           0           0           0           0
           0           0           0           0           0           0
           0           0           0           0           0           0
           0           0           0           0           0           0
           0           0           0           0           0           0
           0           0           0           0           0           0
           0           0           0           0           0           0
           0           0           0           0           0           0
           0           0           0           0           0           0
           0           0           0           0           0           0
           0           0           0           0           0           0
           0           0           0           0           0           0
           0           0           0           0           0           0
           0           0           0           0           0           0
           0           0           0           0           0           0
           0           0           0           0           0           0
           0           0           0           0           0           0
           0           0           0           0           0           0
           0           0           0           0           0           0
           0           0           0           0           0           0
           0           0           0           0           0           0
           0           0           0           0           0           0
           0           0           0           0           0           0
           0           0           0           0           0           0
           0           0           0           0           0           0
           0           0           0           0           0           0
           0           0           0           0           0           0
           0           0           0           0           0           0
           0           0           0           0           0           0
           0           0           0           0           0           0
           0           0           0           0           0           0
           0           0           0           0           0           0
           0           0           0           0           0           0
           0           0           0           0           0           0
           0           0           0           0           0           0
           0           0           0           0           0           0
           0           0           0           0           0           0
           0           0           0           0           0           0
           0           0           0           0           0           0
           0           0           0           0           0           0
           0           0           0           0           0           0
           0           0           0           0           0           0
           0           0           0           0           0           0
           0           0           0           0           0           0
           0           0           0           0           0           0
           0           0           0           0           0           0
           0           0           0           0           0           0
           0           0           0           0           0           0
           0           0           0           0           0           0
           0           0           0           0           0           0
           0           0           0           0           0           0
           0           0           0           0           0           0
           0           0           0           0           0           0
           0           0           0           0           0           0
           0           0           0           0           0           0
           0           0           0           0           0           0
           0           0           0           0           0           0
           0           0           0           0           0           0
           0           0           0           0           0           0
           0           0           0           0           0           0
           0           0           0           0           0           0
           0           0           0           0           0           0
           0           0           0           0           0           0
           0           0           0           0           0           0
           0           0           0           0           0           0
           0           0           0           0           0           0
           0           0           0           0           0           0
           0           0           0           0           0           0
           0           0           0           0           0           0
           0           0           0           0           0           0
           0           0           0           0           0           0
           0           0           0           0           0           0
           0           0           0           0           0           0
           0           0           0           0           0           0
           0           0           0           0           0           0
           0           0           0           0           0           0
           0           0           0           0           0           0
           0           0           0           0           0           0
           0           0           0           0           0           0
           0           0           0           0           0           0
           0           0           0           0           0           0
           0           0           0           0           0           0
           0           0           0           0           0           0
           0           0           0           0           0           0
           0           0           0           0           0           0
           0           0           0           0           0           0
           0           0           0           0           0           0
           0           0           0           0           0           0
           0           0           0           0           0           0
           0           0           0           0           0           0
           0           0           0           0           0           0
           0           0           0           0           0           0
           0           0           0           0           0           0
           0           0           0           0           0           0
           0           0           0           0           0           0
           0           0           0           0           0           0
           0           0           0           0           0           0
           0           0           0           0           0           0
           0           0           0           0           0           0
           0           0           0           0           0           0
           0           0           0           0           0           0
           0           0           0           0           0           0
           0           0           0           0           0           0
           0           0           0           0           0           0
           0           0
ClPar Real Params                          R   N=        3200
  0.00000000E+00  0.00000000E+00  0.00000000E+00  0.00000000E+00  0.00000000E+00
  0.00000000E+00  0.00000000E+00  0.00000000E+00  0.00000000E+00  0.00000000E+00
  0.00000000E+00  0.00000000E+00  0.00000000E+00  0.00000000E+00  0.00000000E+00
  0.00000000E+00  0.00000000E+00  0.00000000E+00  0.00000000E+00  0.00000000E+00
  0.00000000E+00  0.00000000E+00  0.00000000E+00  0.00000000E+00  0.00000000E+00
  0.00000000E+00  0.00000000E+00  0.00000000E+00  0.00000000E+00  0.00000000E+00
  0.00000000E+00  0.00000000E+00  0.00000000E+00  0.00000000E+00  0.00000000E+00
  0.00000000E+00  0.00000000E+00  0.00000000E+00  0.00000000E+00  0.00000000E+00
  0.00000000E+00  0.00000000E+00  0.00000000E+00  0.00000000E+00  0.00000000E+00
  0.00000000E+00  0.00000000E+00  0.00000000E+00  0.00000000E+00  0.00000000E+00
  0.00000000E+00  0.00000000E+00  0.00000000E+00  0.00000000E+00  0.00000000E+00
  0.00000000E+00  0.00000000E+00  0.00000000E+00  0.00000000E+00  0.00000000E+00
  0.00000000E+00  0.00000000E+00  0.00000000E+00  0.00000000E+00  0.00000000E+00
  0.00000000E+00  0.00000000E+00  0.00000000E+00  0.00000000E+00  0.00000000E+00
  0.00000000E+00  0.00000000E+00  0.00000000E+00  0.00000000E+00  0.00000000E+00
  0.00000000E+00  0.00000000E+00  0.00000000E+00  0.00000000E+00  0.00000000E+00
  0.00000000E+00  0.00000000E+00  0.00000000E+00  0.00000000E+00  0.00000000E+00
  0.00000000E+00  0.00000000E+00  0.00000000E+00  0.00000000E+00  0.00000000E+00
  0.00000000E+00  0.00000000E+00  0.00000000E+00  0.00000000E+00  0.00000000E+00
  0.00000000E+00  0.00000000E+00  0.00000000E+00  0.00000000E+00  0.00000000E+00
  0.00000000E+00  0.00000000E+00  0.00000000E+00  0.00000000E+00  0.00000000E+00
  0.00000000E+00  0.00000000E+00  0.00000000E+00  0.00000000E+00  0.00000000E+00
  0.00000000E+00  0.00000000E+00  0.00000000E+00  0.00000000E+00  0.00000000E+00
  0.00000000E+00  0.00000000E+00  0.00000000E+00  0.00000000E+00  0.00000000E+00
  0.00000000E+00  0.00000000E+00  0.00000000E+00  0.00000000E+00  0.00000000E+00
  0.00000000E+00  0.00000000E+00  0.00000000E+00  0.00000000E+00  0.00000000E+00
  0.00000000E+00  0.00000000E+00  0.00000000E+00  0.00000000E+00  0.00000000E+00
  0.00000000E+00  0.00000000E+00  0.00000000E+00  0.00000000E+00  0.00000000E+00
  0.00000000E+00  0.00000000E+00  0.00000000E+00  0.00000000E+00  0.00000000E+00
  0.00000000E+00  0.00000000E+00  0.00000000E+00  0.00000000E+00  0.00000000E+00
  0.00000000E+00  0.00000000E+00  0.00000000E+00  0.00000000E+00  0.00000000E+00
  0.00000000E+00  0.00000000E+00  0.00000000E+00  0.00000000E+00  0.00000000E+00
  0.00000000E+00  0.00000000E+00  0.00000000E+00  0.00000000E+00  0.00000000E+00
  0.00000000E+00  0.00000000E+00  0.00000000E+00  0.00000000E+00  0.00000000E+00
  0.00000000E+00  0.00000000E+00  0.00000000E+00  0.00000000E+00  0.00000000E+00
  0.00000000E+00  0.00000000E+00  0.00000000E+00  0.00000000E+00  0.00000000E+00
  0.00000000E+00  0.00000000E+00  0.00000000E+00  0.00000000E+00  0.00000000E+00
  0.00000000E+00  0.00000000E+00  0.00000000E+00  0.00000000E+00  0.00000000E+00
  0.00000000E+00  0.00000000E+00  0.00000000E+00  0.00000000E+00  0.00000000E+00
  0.00000000E+00  0.00000000E+00  0.00000000E+00  0.00000000E+00  0.00000000E+00
  2.26000000E-01  4.43000000E-01  1.01000000E-01  1.47000000E-01  1.92000000E-01
  2.40000000E-01  2.75000000E-01  3.03000000E-01  3.25000000E-01  4.13000000E-01
  9.60000000E-02  1.35000000E-01  1.73000000E-01  2.11000000E-01  2.48000000E-01
  2.86000000E-01  3.23000000E-01  3.60000000E-01  8.20000000E-02  1.04000000E-01
  1.17000000E-01  1.23000000E-01  1.29000000E-01  1.34000000E-01  1.40000000E-01
  1.44000000E-01  1.48000000E-01  1.52000000E-01  1.55000000E-01  1.76000000E-01
  1.98000000E-01  2.19000000E-01  2.39000000E-01  2.60000000E-01  2.80000000E-01
  3.00000000E-01  7.90000000E-02  9.90000000E-02  1.19000000E-01  1.26000000E-01
  1.33000000E-01  1.40000000E-01  1.47000000E-01  1.53000000E-01  1.58000000E-01
  1.63000000E-01  1.57000000E-01  1.70000000E-01  1.87000000E-01  2.03000000E-01
  2.19000000E-01  2.34000000E-01  2.50000000E-01  2.65000000E-01  7.40000000E-02
  9.20000000E-02  1.05000000E-01  1.06000000E-01  1.07000000E-01  1.08000000E-01
  1.09000000E-01  1.10000000E-01  1.11000000E-01  1.12000000E-01  1.13000000E-01
  1.14000000E-01  1.15000000E-01  1.16000000E-01  1.17000000E-01  1.17000000E-01
  1.26000000E-01  1.36000000E-01  1.46000000E-01  1.55000000E-01  1.65000000E-01
  1.73000000E-01  1.82000000E-01  1.90000000E-01  1.62000000E-01  1.78000000E-01
  1.10000000E-01  1.35000000E-01  1.59000000E-01  1.83000000E-01  2.07000000E-01
  2.31000000E-01  6.90000000E-02  9.40000000E-02  1.02000000E-01  1.03000000E-01
  1.05000000E-01  1.07000000E-01  1.09000000E-01  1.11000000E-01  1.13000000E-01
  1.15000000E-01  1.17000000E-01  1.19000000E-01  1.20000000E-01  1.22000000E-01
  1.24000000E-01  1.26000000E-01  1.28000000E-01  1.28000000E-01  1.28000000E-01
  1.28000000E-01  1.28000000E-01  1.28000000E-01  1.28000000E-01  1.28000000E-01
  1.28000000E-01  1.28000000E-01  1.28000000E-01  1.28000000E-01  1.28000000E-01
  1.28000000E-01  1.28000000E-01  1.28000000E-01  1.28000000E-01  1.28000000E-01
  1.28000000E-01  1.28000000E-01  1.28000000E-01  1.28000000E-01  1.28000000E-01
  1.28000000E-01  1.28000000E-01  1.28000000E-01  1.28000000E-01  1.28000000E-01
  1.28000000E-01  1.28000000E-01  1.28000000E-01  1.28000000E-01  1.28000000E-01
  1.28000000E-01  1.28000000E-01  1.28000000E-01  1.28000000E-01  1.28000000E-01
  1.28000000E-01  1.28000000E-01  1.28000000E-01  1.28000000E-01  1.28000000E-01
  1.28000000E-01  1.28000000E-01  1.28000000E-01  1.28000000E-01  1.28000000E-01
  1.28000000E-01  1.28000000E-01  1.28000000E-01  1.28000000E-01  1.28000000E-01
  1.28000000E-01  1.28000000E-01  1.28000000E-01  1.28000000E-01  1.28000000E-01
  1.28000000E-01  1.28000000E-01  1.28000000E-01  1.28000000E-01  1.28000000E-01
  1.28000000E-01  1.28000000E-01  1.28000000E-01  1.28000000E-01  1.28000000E-01
  1.28000000E-01  1.28000000E-01  1.28000000E-01  1.28000000E-01  1.28000000E-01
  1.28000000E-01  1.28000000E-01  1.28000000E-01  1.28000000E-01  1.28000000E-01
  1.28000000E-01  1.28000000E-01  1.28000000E-01  1.28000000E-01  1.28000000E-01
  1.28000000E-01  1.28000000E-01  1.28000000E-01  1.28000000E-01  1.28000000E-01
  1.28000000E-01  1.28000000E-01  1.28000000E-01  1.28000000E-01  1.28000000E-01
  1.28000000E-01  1.28000000E-01  1.28000000E-01  1.28000000E-01  1.28000000E-01
  5.47000000E-01  5.92000000E-01  5.99000000E-01  6.68000000E-01  6.98000000E-01
  7.18000000E-01  7.26000000E-01  7.36000000E-01  7.43000000E-01  7.45000000E-01
  6.07000000E-01  6.66000000E-01  6.93000000E-01  7.09000000E-01  7.20000000E-01
  7.29000000E-01  7.35000000E-01  7.40000000E-01  6.08000000E-01  7.34000000E-01
  7.46000000E-01  7.55000000E-01  7.61000000E-01  7.65000000E-01  7.67000000E-01
  7.60000000E-01  7.49000000E-01  7.33000000E-01  7.08000000E-01  6.48000000E-01
  6.88000000E-01  7.09000000E-01  7.22000000E-01  7.31000000E-01  7.38000000E-01
  7.44000000E-01  6.09000000E-01  7.30000000E-01  7.41000000E-01  7.52000000E-01
  7.58000000E-01  7.63000000E-01  7.66000000E-01  7.58000000E-01  7.48000000E-01
  7.33000000E-01  7.01000000E-01  6.45000000E-01  6.86000000E-01  7.08000000E-01
  7.22000000E-01  7.31000000E-01  7.38000000E-01  7.44000000E-01  6.08000000E-01
  7.28000000E-01  7.32000000E-01  7.32000000E-01  7.32000000E-01  7.32000000E-01
  7.32000000E-01  7.32000000E-01  7.32000000E-01  7.32000000E-01  7.32000000E-01
  7.31000000E-01  7.31000000E-01  7.31000000E-01  7.31000000E-01  7.46000000E-01
  7.37000000E-01  7.46000000E-01  7.51000000E-01  7.55000000E-01  7.58000000E-01
  7.47000000E-01  7.32000000E-01  7.11000000E-01  7.41000000E-01  7.07000000E-01
  7.47000000E-01  7.43000000E-01  7.42000000E-01  7.42000000E-01  7.43000000E-01
  7.44000000E-01  6.05000000E-01  7.24000000E-01  7.26000000E-01  7.26000000E-01
  7.27000000E-01  7.27000000E-01  7.27000000E-01  7.28000000E-01  7.28000000E-01
  7.28000000E-01  7.28000000E-01  7.28000000E-01  7.29000000E-01  7.29000000E-01
  7.29000000E-01  7.29000000E-01  7.29000000E-01  7.29000000E-01  7.29000000E-01
  7.29000000E-01  7.29000000E-01  7.29000000E-01  7.29000000E-01  7.29000000E-01
  7.29000000E-01  7.29000000E-01  7.29000000E-01  7.29000000E-01  7.29000000E-01
  7.29000000E-01  7.29000000E-01  7.29000000E-01  7.29000000E-01  7.29000000E-01
  7.29000000E-01  7.29000000E-01  7.29000000E-01  7.29000000E-01  7.29000000E-01
  7.29000000E-01  7.29000000E-01  7.29000000E-01  7.29000000E-01  7.29000000E-01
  7.29000000E-01  7.29000000E-01  7.29000000E-01  7.29000000E-01  7.29000000E-01
  7.29000000E-01  7.29000000E-01  7.29000000E-01  7.29000000E-01  7.29000000E-01
  7.29000000E-01  7.29000000E-01  7.29000000E-01  7.29000000E-01  7.29000000E-01
  7.29000000E-01  7.29000000E-01  7.29000000E-01  7.29000000E-01  7.29000000E-01
  7.29000000E-01  7.29000000E-01  7.29000000E-01  7.29000000E-01  7.29000000E-01
  7.29000000E-01  7.29000000E-01  7.29000000E-01  7.29000000E-01  7.29000000E-01
  7.29000000E-01  7.29000000E-01  7.29000000E-01  7.29000000E-01  7.29000000E-01
  7.29000000E-01  7.29000000E-01  7.29000000E-01  7.29000000E-01  7.29000000E-01
  7.29000000E-01  7.29000000E-01  7.29000000E-01  7.29000000E-01  7.29000000E-01
  7.29000000E-01  7.29000000E-01  7.29000000E-01  7.29000000E-01  7.29000000E-01
  7.29000000E-01  7.29000000E-01  7.29000000E-01  7.29000000E-01  7.29000000E-01
  7.29000000E-01  7.29000000E-01  7.29000000E-01  7.29000000E-01  7.29000000E-01
  7.29000000E-01  7.29000000E-01  7.29000000E-01  7.29000000E-01  7.29000000E-01
  7.29000000E-01  7.29000000E-01  7.29000000E-01  7.29000000E-01  7.29000000E-01
  1.00000000E+00  1.70400000E+00  3.23000000E-01  3.89000000E-01  4.67000000E-01
  5.67000000E-01  6.36000000E-01  6.64000000E-01  6.96000000E-01  8.79000000E-01
  3.07000000E-01  3.48000000E-01  4.00000000E-01  4.54000000E-01  5.09000000E-01
  5.65000000E-01  6.21000000E-01  6.77000000E-01  2.56000000E-01  3.50000000E-01
  3.64000000E-01  3.62000000E-01  3.62000000E-01  3.62000000E-01  3.62000000E-01
  3.65000000E-01  3.69000000E-01  3.75000000E-01  3.86000000E-01  4.46000000E-01
  4.55000000E-01  4.74000000E-01  4.96000000E-01  5.20000000E-01  5.45000000E-01
  5.70000000E-01  2.45000000E-01  3.22000000E-01  3.55000000E-01  3.59000000E-01
  3.64000000E-01  3.70000000E-01  3.76000000E-01  3.85000000E-01  3.95000000E-01
  4.08000000E-01  3.76000000E-01  4.23000000E-01  4.22000000E-01  4.32000000E-01
  4.45000000E-01  4.59000000E-01  4.75000000E-01  4.91000000E-01  2.28000000E-01
  2.92000000E-01  2.89000000E-01  2.92000000E-01  2.95000000E-01  2.98000000E-01
  3.00000000E-01  3.03000000E-01  3.06000000E-01  3.09000000E-01  3.12000000E-01
  3.15000000E-01  3.18000000E-01  3.21000000E-01  3.24000000E-01  3.61000000E-01
  3.69000000E-01  3.70000000E-01  3.72000000E-01  3.75000000E-01  3.78000000E-01
  3.85000000E-01  3.94000000E-01  4.07000000E-01  5.26000000E-01  6.21000000E-01
  3.36000000E-01  3.54000000E-01  3.71000000E-01  3.86000000E-01  4.02000000E-01
  4.17000000E-01  2.09000000E-01  2.94000000E-01  2.65000000E-01  2.72000000E-01
  2.78000000E-01  2.84000000E-01  2.91000000E-01  2.97000000E-01  3.03000000E-01
  3.10000000E-01  3.16000000E-01  3.22000000E-01  3.29000000E-01  3.35000000E-01
  3.41000000E-01  3.48000000E-01  3.54000000E-01  3.54000000E-01  3.54000000E-01
  3.54000000E-01  3.54000000E-01  3.54000000E-01  3.54000000E-01  3.54000000E-01
  3.54000000E-01  3.54000000E-01  3.54000000E-01  3.54000000E-01  3.54000000E-01
  3.54000000E-01  3.54000000E-01  3.54000000E-01  3.54000000E-01  3.54000000E-01
  3.54000000E-01  3.54000000E-01  3.54000000E-01  3.54000000E-01  3.54000000E-01
  3.54000000E-01  3.54000000E-01  3.54000000E-01  3.54000000E-01  3.54000000E-01
  3.54000000E-01  3.54000000E-01  3.54000000E-01  3.54000000E-01  3.54000000E-01
  3.54000000E-01  3.54000000E-01  3.54000000E-01  3.54000000E-01  3.54000000E-01
  3.54000000E-01  3.54000000E-01  3.54000000E-01  3.54000000E-01  3.54000000E-01
  3.54000000E-01  3.54000000E-01  3.54000000E-01  3.54000000E-01  3.54000000E-01
  3.54000000E-01  3.54000000E-01  3.54000000E-01  3.54000000E-01  3.54000000E-01
  3.54000000E-01  3.54000000E-01  3.54000000E-01  3.54000000E-01  3.54000000E-01
  3.54000000E-01  3.54000000E-01  3.54000000E-01  3.54000000E-01  3.54000000E-01
  3.54000000E-01  3.54000000E-01  3.54000000E-01  3.54000000E-01  3.54000000E-01
  3.54000000E-01  3.54000000E-01  3.54000000E-01  3.54000000E-01  3.54000000E-01
  3.54000000E-01  3.54000000E-01  3.54000000E-01  3.54000000E-01  3.54000000E-01
  3.54000000E-01  3.54000000E-01  3.54000000E-01  3.54000000E-01  3.54000000E-01
  3.54000000E-01  3.54000000E-01  3.54000000E-01  3.54000000E-01  3.54000000E-01
  3.54000000E-01  3.54000000E-01  3.54000000E-01  3.54000000E-01  3.54000000E-01
  3.54000000E-01  3.54000000E-01  3.54000000E-01  3.54000000E-01  3.54000000E-01
  2.74000000E-01  2.96000000E-01  5.80000000E-02  4.40000000E-02  3.90000000E-02
  3.90000000E-02  3.60000000E-02  3.20000000E-02  2.90000000E-02  3.30000000E-02
  5.50000000E-02  3.90000000E-02  3.30000000E-02  3.00000000E-02  2.80000000E-02
  2.60000000E-02  2.50000000E-02  2.50000000E-02  4.50000000E-02  4.40000000E-02
  3.30000000E-02  2.50000000E-02  2.10000000E-02  1.80000000E-02  1.50000000E-02
  1.80000000E-02  2.10000000E-02  2.50000000E-02  3.30000000E-02  5.00000000E-02
  3.80000000E-02  3.10000000E-02  2.70000000E-02  2.40000000E-02  2.20000000E-02
  2.10000000E-02  4.30000000E-02  4.00000000E-02  3.20000000E-02  2.50000000E-02
  2.10000000E-02  1.80000000E-02  1.60000000E-02  1.90000000E-02  2.20000000E-02
  2.80000000E-02  3.10000000E-02  4.70000000E-02  3.40000000E-02  2.80000000E-02
  2.40000000E-02  2.10000000E-02  1.90000000E-02  1.80000000E-02  3.90000000E-02
  3.60000000E-02  2.50000000E-02  2.50000000E-02  2.50000000E-02  2.60000000E-02
  2.60000000E-02  2.60000000E-02  2.70000000E-02  2.70000000E-02  2.70000000E-02
  2.70000000E-02  2.80000000E-02  2.80000000E-02  2.80000000E-02  3.30000000E-02
  3.30000000E-02  2.60000000E-02  2.10000000E-02  1.80000000E-02  1.60000000E-02
  1.80000000E-02  2.20000000E-02  2.60000000E-02  4.90000000E-02  8.20000000E-02
  3.00000000E-02  2.40000000E-02  2.10000000E-02  1.80000000E-02  1.60000000E-02
  1.50000000E-02  3.50000000E-02  3.60000000E-02  2.20000000E-02  2.30000000E-02
  2.40000000E-02  2.40000000E-02  2.50000000E-02  2.50000000E-02  2.60000000E-02
  2.70000000E-02  2.70000000E-02  2.80000000E-02  2.80000000E-02  2.90000000E-02
  3.00000000E-02  3.00000000E-02  3.10000000E-02  3.10000000E-02  3.10000000E-02
  3.10000000E-02  3.10000000E-02  3.10000000E-02  3.10000000E-02  3.10000000E-02
  3.10000000E-02  3.10000000E-02  3.10000000E-02  3.10000000E-02  3.10000000E-02
  3.10000000E-02  3.10000000E-02  3.10000000E-02  3.10000000E-02  3.10000000E-02
  3.10000000E-02  3.10000000E-02  3.10000000E-02  3.10000000E-02  3.10000000E-02
  3.10000000E-02  3.10000000E-02  3.10000000E-02  3.10000000E-02  3.10000000E-02
  3.10000000E-02  3.10000000E-02  3.10000000E-02  3.10000000E-02  3.10000000E-02
  3.10000000E-02  3.10000000E-02  3.10000000E-02  3.10000000E-02  3.10000000E-02
  3.10000000E-02  3.10000000E-02  3.10000000E-02  3.10000000E-02  3.10000000E-02
  3.10000000E-02  3.10000000E-02  3.10000000E-02  3.10000000E-02  3.10000000E-02
  3.10000000E-02  3.10000000E-02  3.10000000E-02  3.10000000E-02  3.10000000E-02
  3.10000000E-02  3.10000000E-02  3.10000000E-02  3.10000000E-02  3.10000000E-02
  3.10000000E-02  3.10000000E-02  3.10000000E-02  3.10000000E-02  3.10000000E-02
  3.10000000E-02  3.10000000E-02  3.10000000E-02  3.10000000E-02  3.10000000E-02
  3.10000000E-02  3.10000000E-02  3.10000000E-02  3.10000000E-02  3.10000000E-02
  3.10000000E-02  3.10000000E-02  3.10000000E-02  3.10000000E-02  3.10000000E-02
  3.10000000E-02  3.10000000E-02  3.10000000E-02  3.10000000E-02  3.10000000E-02
  3.10000000E-02  3.10000000E-02  3.10000000E-02  3.10000000E-02  3.10000000E-02
  3.10000000E-02  3.10000000E-02  3.10000000E-02  3.10000000E-02  3.10000000E-02
  3.10000000E-02  3.10000000E-02  3.10000000E-02  3.10000000E-02  3.10000000E-02
 -5.92770000E-01 -9.17860000E-01 -2.48668000E+00 -8.36430000E-01 -3.18470000E-01
 -4.55790000E-01 -5.70730000E-01 -6.77940000E-01 -7.69860000E-01 -8.51140000E-01
 -1.51908000E+00 -3.18830000E-01 -2.17900000E-01 -3.01260000E-01 -3.72750000E-01
 -4.15890000E-01 -4.45930000E-01 -5.91320000E-01 -9.56370000E-01 -2.88450000E-01
 -4.87320000E-01 -6.34280000E-01 -7.17490000E-01 -7.91980000E-01 -8.68490000E-01
 -9.17520000E-01 -9.54890000E-01 -9.88460000E-01 -1.50055000E+00 -2.92560000E-01
 -2.14960000E-01 -2.91180000E-01 -3.42080000E-01 -3.84480000E-01 -4.34940000E-01
 -5.24310000E-01 -8.10070000E-01 -2.58460000E-01 -4.35550000E-01 -5.32740000E-01
 -6.08450000E-01 -6.10260000E-01 -7.58920000E-01 -8.90130000E-01 -8.45780000E-01
 -8.69340000E-01 -1.38234000E+00 -2.64850000E-01 -1.97280000E-01 -2.65040000E-01
 -2.94470000E-01 -3.16570000E-01 -3.63590000E-01 -4.57840000E-01 -8.61830000E-01
 -1.33004000E+00 -6.82880000E-01 -6.25540000E-01 -6.35430000E-01 -8.79690000E-01
 -9.02690000E-01 -9.59650000E-01 -1.01869000E+00 -6.81170000E-01 -7.96500000E-01
 -9.04950000E-01 -8.34790000E-01 -9.01560000E-01 -9.74130000E-01 -1.03326000E+00
 -7.15490000E-01 -7.83960000E-01 -8.28380000E-01 -5.61040000E-01 -1.03841000E+00
 -8.62500000E-01 -9.59300000E-01 -1.01755000E+00 -7.64900000E-01 -1.29467000E+00
 -1.92740000E-01 -2.56010000E-01 -3.19820000E-01 -1.94660000E-01 -2.60090000E-01
 -4.27990000E-01  0.00000000E+00  0.00000000E+00  0.00000000E+00  0.00000000E+00
  0.00000000E+00  0.00000000E+00  0.00000000E+00  0.00000000E+00  0.00000000E+00
  0.00000000E+00  0.00000000E+00  0.00000000E+00  0.00000000E+00  0.00000000E+00
  0.00000000E+00  0.00000000E+00  0.00000000E+00  0.00000000E+00  0.00000000E+00
  0.00000000E+00  0.00000000E+00  0.00000000E+00  0.00000000E+00  0.00000000E+00
  0.00000000E+00  0.00000000E+00  0.00000000E+00  0.00000000E+00  0.00000000E+00
  0.00000000E+00  0.00000000E+00  0.00000000E+00  0.00000000E+00  0.00000000E+00
  0.00000000E+00  0.00000000E+00  0.00000000E+00  0.00000000E+00  0.00000000E+00
  0.00000000E+00  0.00000000E+00  0.00000000E+00  0.00000000E+00  0.00000000E+00
  0.00000000E+00  0.00000000E+00  0.00000000E+00  0.00000000E+00  0.00000000E+00
  0.00000000E+00  0.00000000E+00  0.00000000E+00  0.00000000E+00  0.00000000E+00
  0.00000000E+00  0.00000000E+00  0.00000000E+00  0.00000000E+00  0.00000000E+00
  0.00000000E+00  0.00000000E+00  0.00000000E+00  0.00000000E+00  0.00000000E+00
  0.00000000E+00  0.00000000E+00  0.00000000E+00  0.00000000E+00  0.00000000E+00
  0.00000000E+00  0.00000000E+00  0.00000000E+00  0.00000000E+00  0.00000000E+00
  0.00000000E+00  0.00000000E+00  0.00000000E+00  0.00000000E+00  0.00000000E+00
  0.00000000E+00  0.00000000E+00  0.00000000E+00  0.00000000E+00  0.00000000E+00
  0.00000000E+00  0.00000000E+00  0.00000000E+00  0.00000000E+00  0.00000000E+00
  0.00000000E+00  0.00000000E+00  0.00000000E+00  0.00000000E+00  0.00000000E+00
  0.00000000E+00  0.00000000E+00  0.00000000E+00  0.00000000E+00  0.00000000E+00
  0.00000000E+00  0.00000000E+00  0.00000000E+00  0.00000000E+00  0.00000000E+00
  0.00000000E+00  0.00000000E+00  0.00000000E+00  0.00000000E+00  0.00000000E+00
  0.00000000E+00  0.00000000E+00  0.00000000E+00  0.00000000E+00  0.00000000E+00
  1.90440000E+00  1.36430000E+00  4.84000000E-01  7.31600000E+00  9.24030000E+00
  8.78200000E+00  5.61290000E+00  4.83340000E+00  3.24870000E+00  2.71090000E+00
  2.01130000E+00  1.50282000E+01  1.46788000E+01  2.13546000E+01  2.38290000E+01
  1.98022000E+01  1.50468000E+01  1.09745000E+01  1.27219000E+01  1.51949000E+01
  1.57342000E+01  2.79222000E+01  1.61366000E+01  2.21252000E+01  2.45676000E+01
  1.96016000E+01  1.79818000E+01  1.72396000E+01  5.01500000E+00  1.92898000E+01
  2.34477000E+01  2.23993000E+01  2.96586000E+01  2.60081000E+01  2.15580000E+01
  1.69594000E+01  1.56479000E+01  1.86897000E+01  1.93530000E+01  3.43444000E+01
  1.98480000E+01  2.72140000E+01  3.02182000E+01  2.41099000E+01  2.21176000E+01
  2.12047000E+01  7.56690000E+00  2.37264000E+01  2.93879000E+01  3.01278000E+01
  4.19382000E+01  3.85203000E+01  3.39511000E+01  2.75774000E+01  1.56460000E+01
  1.04460000E+01  2.01830000E+01  4.99540000E+01  4.76430000E+01  1.18690000E+01
  1.08670000E+01  9.96100000E+00  9.18700000E+00  3.67980000E+01  1.34070000E+01
  9.38200000E+00  9.81700000E+00  8.90800000E+00  8.40700000E+00  8.05800000E+00
  1.29600000E+01  2.67920000E+01  2.49300000E+01  3.45630000E+01  1.11860000E+01
  1.09440000E+01  1.01270000E+01  9.40400000E+00  1.36660000E+01  7.81000000E+00
  6.93600000E+01  5.86630000E+01  4.79690000E+01  4.52740000E+01  3.92290000E+01
  3.30660000E+01  0.00000000E+00  0.00000000E+00  0.00000000E+00  0.00000000E+00
  0.00000000E+00  0.00000000E+00  0.00000000E+00  0.00000000E+00  0.00000000E+00
  0.00000000E+00  0.00000000E+00  0.00000000E+00  0.00000000E+00  0.00000000E+00
  0.00000000E+00  0.00000000E+00  0.00000000E+00  0.00000000E+00  0.00000000E+00
  0.00000000E+00  0.00000000E+00  0.00000000E+00  0.00000000E+00  0.00000000E+00
  0.00000000E+00  0.00000000E+00  0.00000000E+00  0.00000000E+00  0.00000000E+00
  0.00000000E+00  0.00000000E+00  0.00000000E+00  0.00000000E+00  0.00000000E+00
  0.00000000E+00  0.00000000E+00  0.00000000E+00  0.00000000E+00  0.00000000E+00
  0.00000000E+00  0.00000000E+00  0.00000000E+00  0.00000000E+00  0.00000000E+00
  0.00000000E+00  0.00000000E+00  0.00000000E+00  0.00000000E+00  0.00000000E+00
  0.00000000E+00  0.00000000E+00  0.00000000E+00  0.00000000E+00  0.00000000E+00
  0.00000000E+00  0.00000000E+00  0.00000000E+00  0.00000000E+00  0.00000000E+00
  0.00000000E+00  0.00000000E+00  0.00000000E+00  0.00000000E+00  0.00000000E+00
  0.00000000E+00  0.00000000E+00  0.00000000E+00  0.00000000E+00  0.00000000E+00
  0.00000000E+00  0.00000000E+00  0.00000000E+00  0.00000000E+00  0.00000000E+00
  0.00000000E+00  0.00000000E+00  0.00000000E+00  0.00000000E+00  0.00000000E+00
  0.00000000E+00  0.00000000E+00  0.00000000E+00  0.00000000E+00  0.00000000E+00
  0.00000000E+00  0.00000000E+00  0.00000000E+00  0.00000000E+00  0.00000000E+00
  0.00000000E+00  0.00000000E+00  0.00000000E+00  0.00000000E+00  0.00000000E+00
  0.00000000E+00  0.00000000E+00  0.00000000E+00  0.00000000E+00  0.00000000E+00
  0.00000000E+00  0.00000000E+00  0.00000000E+00  0.00000000E+00  0.00000000E+00
  0.00000000E+00  0.00000000E+00  0.00000000E+00  0.00000000E+00  0.00000000E+00
  0.00000000E+00  0.00000000E+00  0.00000000E+00  0.00000000E+00  0.00000000E+00
  0.00000000E+00  0.00000000E+00  0.00000000E+00  0.00000000E+00  0.00000000E+00
  0.00000000E+00  0.00000000E+00  0.00000000E+00  0.00000000E+00  0.00000000E+00
  0.00000000E+00  0.00000000E+00  0.00000000E+00  0.00000000E+00  0.00000000E+00
  0.00000000E+00  0.00000000E+00  0.00000000E+00  0.00000000E+00  0.00000000E+00
  0.00000000E+00  0.00000000E+00  0.00000000E+00  0.00000000E+00  0.00000000E+00
  0.00000000E+00  0.00000000E+00  0.00000000E+00  0.00000000E+00  0.00000000E+00
  0.00000000E+00  0.00000000E+00  0.00000000E+00  0.00000000E+00  0.00000000E+00
  0.00000000E+00  0.00000000E+00  0.00000000E+00  0.00000000E+00  0.00000000E+00
  0.00000000E+00  0.00000000E+00  0.00000000E+00  0.00000000E+00  0.00000000E+00
  0.00000000E+00  0.00000000E+00  0.00000000E+00  0.00000000E+00  0.00000000E+00
  0.00000000E+00  0.00000000E+00  0.00000000E+00  0.00000000E+00  0.00000000E+00
  0.00000000E+00  0.00000000E+00  0.00000000E+00  0.00000000E+00  0.00000000E+00
  0.00000000E+00  0.00000000E+00  0.00000000E+00  0.00000000E+00  0.00000000E+00
  0.00000000E+00  0.00000000E+00  0.00000000E+00  0.00000000E+00  0.00000000E+00
  0.00000000E+00  0.00000000E+00  0.00000000E+00  0.00000000E+00  0.00000000E+00
  0.00000000E+00  0.00000000E+00  0.00000000E+00  0.00000000E+00  0.00000000E+00
  0.00000000E+00  0.00000000E+00  0.00000000E+00  0.00000000E+00  0.00000000E+00
  0.00000000E+00  0.00000000E+00  0.00000000E+00  0.00000000E+00  0.00000000E+00
  0.00000000E+00  0.00000000E+00  0.00000000E+00  0.00000000E+00  0.00000000E+00
  0.00000000E+00  0.00000000E+00  0.00000000E+00  0.00000000E+00  0.00000000E+00
  0.00000000E+00  0.00000000E+00  0.00000000E+00  0.00000000E+00  0.00000000E+00
  0.00000000E+00  0.00000000E+00  0.00000000E+00  0.00000000E+00  0.00000000E+00
  0.00000000E+00  0.00000000E+00  0.00000000E+00  0.00000000E+00  0.00000000E+00
  0.00000000E+00  0.00000000E+00  0.00000000E+00  0.00000000E+00  0.00000000E+00
  0.00000000E+00  0.00000000E+00  0.00000000E+00  0.00000000E+00  0.00000000E+00
  0.00000000E+00  0.00000000E+00  0.00000000E+00  0.00000000E+00  0.00000000E+00
  0.00000000E+00  0.00000000E+00  0.00000000E+00  0.00000000E+00  0.00000000E+00
  0.00000000E+00  0.00000000E+00  0.00000000E+00  0.00000000E+00  0.00000000E+00
  0.00000000E+00  0.00000000E+00  0.00000000E+00  0.00000000E+00  0.00000000E+00
  0.00000000E+00  0.00000000E+00  0.00000000E+00  0.00000000E+00  0.00000000E+00
  0.00000000E+00  0.00000000E+00  0.00000000E+00  0.00000000E+00  0.00000000E+00
  0.00000000E+00  0.00000000E+00  0.00000000E+00  0.00000000E+00  0.00000000E+00
  0.00000000E+00  0.00000000E+00  0.00000000E+00  0.00000000E+00  0.00000000E+00
  0.00000000E+00  0.00000000E+00  0.00000000E+00  0.00000000E+00  0.00000000E+00
  0.00000000E+00  0.00000000E+00  0.00000000E+00  0.00000000E+00  0.00000000E+00
  0.00000000E+00  0.00000000E+00  0.00000000E+00  0.00000000E+00  0.00000000E+00
  0.00000000E+00  0.00000000E+00  0.00000000E+00  0.00000000E+00  0.00000000E+00
  0.00000000E+00  0.00000000E+00  0.00000000E+00  0.00000000E+00  0.00000000E+00
  0.00000000E+00  0.00000000E+00  0.00000000E+00  0.00000000E+00  0.00000000E+00
  0.00000000E+00  0.00000000E+00  0.00000000E+00  0.00000000E+00  0.00000000E+00
  0.00000000E+00  0.00000000E+00  0.00000000E+00  0.00000000E+00  0.00000000E+00
  0.00000000E+00  0.00000000E+00  0.00000000E+00  0.00000000E+00  0.00000000E+00
  0.00000000E+00  0.00000000E+00  0.00000000E+00  0.00000000E+00  0.00000000E+00
  0.00000000E+00  0.00000000E+00  0.00000000E+00  0.00000000E+00  0.00000000E+00
  0.00000000E+00  0.00000000E+00  0.00000000E+00  0.00000000E+00  0.00000000E+00
  0.00000000E+00  0.00000000E+00  0.00000000E+00  0.00000000E+00  0.00000000E+00
  0.00000000E+00  0.00000000E+00  0.00000000E+00  0.00000000E+00  0.00000000E+00
  0.00000000E+00  0.00000000E+00  0.00000000E+00  0.00000000E+00  0.00000000E+00
  0.00000000E+00  0.00000000E+00  0.00000000E+00  0.00000000E+00  0.00000000E+00
  0.00000000E+00  0.00000000E+00  0.00000000E+00  0.00000000E+00  0.00000000E+00
  0.00000000E+00  0.00000000E+00  0.00000000E+00  0.00000000E+00  0.00000000E+00
  0.00000000E+00  0.00000000E+00  0.00000000E+00  0.00000000E+00  0.00000000E+00
  0.00000000E+00  0.00000000E+00  0.00000000E+00  0.00000000E+00  0.00000000E+00
  0.00000000E+00  0.00000000E+00  0.00000000E+00  0.00000000E+00  0.00000000E+00
  0.00000000E+00  0.00000000E+00  0.00000000E+00  0.00000000E+00  0.00000000E+00
  0.00000000E+00  0.00000000E+00  0.00000000E+00  0.00000000E+00  0.00000000E+00
  0.00000000E+00  0.00000000E+00  0.00000000E+00  0.00000000E+00  0.00000000E+00
  0.00000000E+00  0.00000000E+00  0.00000000E+00  0.00000000E+00  0.00000000E+00
  0.00000000E+00  0.00000000E+00  0.00000000E+00  0.00000000E+00  0.00000000E+00
  0.00000000E+00  0.00000000E+00  0.00000000E+00  0.00000000E+00  0.00000000E+00
  0.00000000E+00  0.00000000E+00  0.00000000E+00  0.00000000E+00  0.00000000E+00
  0.00000000E+00  0.00000000E+00  0.00000000E+00  0.00000000E+00  0.00000000E+00
  0.00000000E+00  0.00000000E+00  0.00000000E+00  0.00000000E+00  0.00000000E+00
  0.00000000E+00  0.00000000E+00  0.00000000E+00  0.00000000E+00  0.00000000E+00
  0.00000000E+00  0.00000000E+00  0.00000000E+00  0.00000000E+00  0.00000000E+00
  0.00000000E+00  0.00000000E+00  0.00000000E+00  0.00000000E+00  0.00000000E+00
  0.00000000E+00  0.00000000E+00  0.00000000E+00  0.00000000E+00  0.00000000E+00
  0.00000000E+00  0.00000000E+00  0.00000000E+00  0.00000000E+00  0.00000000E+00
  0.00000000E+00  0.00000000E+00  0.00000000E+00  0.00000000E+00  0.00000000E+00
  0.00000000E+00  0.00000000E+00  0.00000000E+00  0.00000000E+00  0.00000000E+00
  0.00000000E+00  0.00000000E+00  0.00000000E+00  0.00000000E+00  0.00000000E+00
  0.00000000E+00  0.00000000E+00  0.00000000E+00  0.00000000E+00  0.00000000E+00
  0.00000000E+00  0.00000000E+00  0.00000000E+00  0.00000000E+00  0.00000000E+00
  0.00000000E+00  0.00000000E+00  0.00000000E+00  0.00000000E+00  0.00000000E+00
  0.00000000E+00  0.00000000E+00  0.00000000E+00  0.00000000E+00  0.00000000E+00
  0.00000000E+00  0.00000000E+00  0.00000000E+00  0.00000000E+00  0.00000000E+00
  0.00000000E+00  0.00000000E+00  0.00000000E+00  0.00000000E+00  0.00000000E+00
  0.00000000E+00  0.00000000E+00  0.00000000E+00  0.00000000E+00  0.00000000E+00
  0.00000000E+00  0.00000000E+00  0.00000000E+00  0.00000000E+00  0.00000000E+00
  0.00000000E+00  0.00000000E+00  0.00000000E+00  0.00000000E+00  0.00000000E+00
  0.00000000E+00  0.00000000E+00  0.00000000E+00  0.00000000E+00  0.00000000E+00
  0.00000000E+00  0.00000000E+00  0.00000000E+00  0.00000000E+00  0.00000000E+00
  0.00000000E+00  0.00000000E+00  0.00000000E+00  0.00000000E+00  0.00000000E+00
  0.00000000E+00  0.00000000E+00  0.00000000E+00  0.00000000E+00  0.00000000E+00
  0.00000000E+00  0.00000000E+00  0.00000000E+00  0.00000000E+00  0.00000000E+00
  0.00000000E+00  0.00000000E+00  0.00000000E+00  0.00000000E+00  0.00000000E+00
  0.00000000E+00  0.00000000E+00  0.00000000E+00  0.00000000E+00  0.00000000E+00
  0.00000000E+00  0.00000000E+00  0.00000000E+00  0.00000000E+00  0.00000000E+00
  0.00000000E+00  0.00000000E+00  0.00000000E+00  0.00000000E+00  0.00000000E+00
  0.00000000E+00  0.00000000E+00  0.00000000E+00  0.00000000E+00  0.00000000E+00
  0.00000000E+00  0.00000000E+00  0.00000000E+00  0.00000000E+00  0.00000000E+00
  0.00000000E+00  0.00000000E+00  0.00000000E+00  0.00000000E+00  0.00000000E+00
  0.00000000E+00  0.00000000E+00  0.00000000E+00  0.00000000E+00  0.00000000E+00
  0.00000000E+00  0.00000000E+00  0.00000000E+00  0.00000000E+00  0.00000000E+00
  0.00000000E+00  0.00000000E+00  0.00000000E+00  0.00000000E+00  0.00000000E+00
  0.00000000E+00  0.00000000E+00  0.00000000E+00  0.00000000E+00  0.00000000E+00
  0.00000000E+00  0.00000000E+00  0.00000000E+00  0.00000000E+00  0.00000000E+00
  0.00000000E+00  0.00000000E+00  0.00000000E+00  0.00000000E+00  0.00000000E+00
  0.00000000E+00  0.00000000E+00  0.00000000E+00  0.00000000E+00  0.00000000E+00
  0.00000000E+00  0.00000000E+00  0.00000000E+00  0.00000000E+00  0.00000000E+00
  0.00000000E+00  0.00000000E+00  0.00000000E+00  0.00000000E+00  0.00000000E+00
  0.00000000E+00  0.00000000E+00  0.00000000E+00  0.00000000E+00  0.00000000E+00
  0.00000000E+00  0.00000000E+00  0.00000000E+00  0.00000000E+00  0.00000000E+00
  0.00000000E+00  0.00000000E+00  0.00000000E+00  0.00000000E+00  0.00000000E+00
  0.00000000E+00  0.00000000E+00  0.00000000E+00  0.00000000E+00  0.00000000E+00
  0.00000000E+00  0.00000000E+00  0.00000000E+00  0.00000000E+00  0.00000000E+00
  0.00000000E+00  0.00000000E+00  0.00000000E+00  0.00000000E+00  0.00000000E+00
  0.00000000E+00  0.00000000E+00  0.00000000E+00  0.00000000E+00  0.00000000E+00
  0.00000000E+00  0.00000000E+00  0.00000000E+00  0.00000000E+00  0.00000000E+00
  0.00000000E+00  0.00000000E+00  0.00000000E+00  0.00000000E+00  0.00000000E+00
  0.00000000E+00  0.00000000E+00  0.00000000E+00  0.00000000E+00  0.00000000E+00
  0.00000000E+00  0.00000000E+00  0.00000000E+00  0.00000000E+00  0.00000000E+00
  0.00000000E+00  0.00000000E+00  0.00000000E+00  0.00000000E+00  0.00000000E+00
  0.00000000E+00  0.00000000E+00  0.00000000E+00  0.00000000E+00  0.00000000E+00
  0.00000000E+00  0.00000000E+00  0.00000000E+00  0.00000000E+00  0.00000000E+00
  0.00000000E+00  0.00000000E+00  0.00000000E+00  0.00000000E+00  0.00000000E+00
  0.00000000E+00  0.00000000E+00  0.00000000E+00  0.00000000E+00  0.00000000E+00
  0.00000000E+00  0.00000000E+00  0.00000000E+00  0.00000000E+00  0.00000000E+00
  0.00000000E+00  0.00000000E+00  0.00000000E+00  0.00000000E+00  0.00000000E+00
  0.00000000E+00  0.00000000E+00  0.00000000E+00  0.00000000E+00  0.00000000E+00
  0.00000000E+00  0.00000000E+00  0.00000000E+00  0.00000000E+00  0.00000000E+00
  0.00000000E+00  0.00000000E+00  0.00000000E+00  0.00000000E+00  0.00000000E+00
  0.00000000E+00  0.00000000E+00  0.00000000E+00  0.00000000E+00  0.00000000E+00
  0.00000000E+00  0.00000000E+00  0.00000000E+00  0.00000000E+00  0.00000000E+00
  0.00000000E+00  0.00000000E+00  0.00000000E+00  0.00000000E+00  0.00000000E+00
  0.00000000E+00  0.00000000E+00  0.00000000E+00  0.00000000E+00  0.00000000E+00
  0.00000000E+00  0.00000000E+00  0.00000000E+00  0.00000000E+00  0.00000000E+00
  0.00000000E+00  0.00000000E+00  0.00000000E+00  0.00000000E+00  0.00000000E+00
  0.00000000E+00  0.00000000E+00  0.00000000E+00  0.00000000E+00  0.00000000E+00
  0.00000000E+00  0.00000000E+00  0.00000000E+00  0.00000000E+00  0.00000000E+00
  0.00000000E+00  0.00000000E+00  0.00000000E+00  0.00000000E+00  0.00000000E+00
  0.00000000E+00  0.00000000E+00  0.00000000E+00  0.00000000E+00  0.00000000E+00
  0.00000000E+00  0.00000000E+00  0.00000000E+00  0.00000000E+00  0.00000000E+00
  0.00000000E+00  0.00000000E+00  0.00000000E+00  0.00000000E+00  0.00000000E+00
  0.00000000E+00  0.00000000E+00  0.00000000E+00  0.00000000E+00  0.00000000E+00
  0.00000000E+00  0.00000000E+00  0.00000000E+00  0.00000000E+00  0.00000000E+00
  0.00000000E+00  0.00000000E+00  0.00000000E+00  0.00000000E+00  0.00000000E+00
  0.00000000E+00  0.00000000E+00  0.00000000E+00  0.00000000E+00  0.00000000E+00
  0.00000000E+00  0.00000000E+00  0.00000000E+00  0.00000000E+00  0.00000000E+00
  0.00000000E+00  0.00000000E+00  0.00000000E+00  0.00000000E+00  0.00000000E+00
  0.00000000E+00  0.00000000E+00  0.00000000E+00  0.00000000E+00  0.00000000E+00
  0.00000000E+00  0.00000000E+00  0.00000000E+00  0.00000000E+00  0.00000000E+00
  0.00000000E+00  0.00000000E+00  0.00000000E+00  0.00000000E+00  0.00000000E+00
  0.00000000E+00  0.00000000E+00  0.00000000E+00  0.00000000E+00  0.00000000E+00
  0.00000000E+00  0.00000000E+00  0.00000000E+00  0.00000000E+00  0.00000000E+00
  0.00000000E+00  0.00000000E+00  0.00000000E+00  0.00000000E+00  0.00000000E+00
  0.00000000E+00  0.00000000E+00  0.00000000E+00  0.00000000E+00  0.00000000E+00
  0.00000000E+00  0.00000000E+00  0.00000000E+00  0.00000000E+00  0.00000000E+00
  0.00000000E+00  0.00000000E+00  0.00000000E+00  0.00000000E+00  0.00000000E+00
  0.00000000E+00  0.00000000E+00  0.00000000E+00  0.00000000E+00  0.00000000E+00
  0.00000000E+00  0.00000000E+00  0.00000000E+00  0.00000000E+00  0.00000000E+00
  0.00000000E+00  0.00000000E+00  0.00000000E+00  0.00000000E+00  0.00000000E+00
  0.00000000E+00  0.00000000E+00  0.00000000E+00  0.00000000E+00  0.00000000E+00
  0.00000000E+00  0.00000000E+00  0.00000000E+00  0.00000000E+00  0.00000000E+00
  0.00000000E+00  0.00000000E+00  0.00000000E+00  0.00000000E+00  0.00000000E+00
  0.00000000E+00  0.00000000E+00  0.00000000E+00  0.00000000E+00  0.00000000E+00
  0.00000000E+00  0.00000000E+00  0.00000000E+00  0.00000000E+00  0.00000000E+00
  0.00000000E+00  0.00000000E+00  0.00000000E+00  0.00000000E+00  0.00000000E+00
  0.00000000E+00  0.00000000E+00  0.00000000E+00  0.00000000E+00  0.00000000E+00
  0.00000000E+00  0.00000000E+00  0.00000000E+00  0.00000000E+00  0.00000000E+00
  0.00000000E+00  0.00000000E+00  0.00000000E+00  0.00000000E+00  0.00000000E+00
  0.00000000E+00  0.00000000E+00  0.00000000E+00  0.00000000E+00  0.00000000E+00
  0.00000000E+00  0.00000000E+00  0.00000000E+00  0.00000000E+00  0.00000000E+00
  0.00000000E+00  0.00000000E+00  0.00000000E+00  0.00000000E+00  0.00000000E+00
  0.00000000E+00  0.00000000E+00  0.00000000E+00  0.00000000E+00  0.00000000E+00
  0.00000000E+00  0.00000000E+00  0.00000000E+00  0.00000000E+00  0.00000000E+00
  0.00000000E+00  0.00000000E+00  0.00000000E+00  0.00000000E+00  0.00000000E+00
  0.00000000E+00  0.00000000E+00  0.00000000E+00  0.00000000E+00  0.00000000E+00
  0.00000000E+00  0.00000000E+00  0.00000000E+00  0.00000000E+00  0.00000000E+00
  0.00000000E+00  0.00000000E+00  0.00000000E+00  0.00000000E+00  0.00000000E+00
  0.00000000E+00  0.00000000E+00  0.00000000E+00  0.00000000E+00  0.00000000E+00
  0.00000000E+00  0.00000000E+00  0.00000000E+00  0.00000000E+00  0.00000000E+00
  0.00000000E+00  0.00000000E+00  0.00000000E+00  0.00000000E+00  0.00000000E+00
  0.00000000E+00  0.00000000E+00  0.00000000E+00  0.00000000E+00  0.00000000E+00
  0.00000000E+00  0.00000000E+00  0.00000000E+00  0.00000000E+00  0.00000000E+00
  0.00000000E+00  0.00000000E+00  0.00000000E+00  0.00000000E+00  0.00000000E+00
  0.00000000E+00  0.00000000E+00  0.00000000E+00  0.00000000E+00  0.00000000E+00
  0.00000000E+00  0.00000000E+00  0.00000000E+00  0.00000000E+00  0.00000000E+00
  0.00000000E+00  0.00000000E+00  0.00000000E+00  0.00000000E+00  0.00000000E+00
  0.00000000E+00  0.00000000E+00  0.00000000E+00  0.00000000E+00  0.00000000E+00
  0.00000000E+00  0.00000000E+00  0.00000000E+00  0.00000000E+00  0.00000000E+00
  0.00000000E+00  0.00000000E+00  0.00000000E+00  0.00000000E+00  0.00000000E+00
  0.00000000E+00  0.00000000E+00  0.00000000E+00  0.00000000E+00  0.00000000E+00
  0.00000000E+00  0.00000000E+00  0.00000000E+00  0.00000000E+00  0.00000000E+00
  0.00000000E+00  0.00000000E+00  0.00000000E+00  0.00000000E+00  0.00000000E+00
  0.00000000E+00  0.00000000E+00  0.00000000E+00  0.00000000E+00  0.00000000E+00
  0.00000000E+00  0.00000000E+00  0.00000000E+00  0.00000000E+00  0.00000000E+00
  0.00000000E+00  0.00000000E+00  0.00000000E+00  0.00000000E+00  0.00000000E+00
  0.00000000E+00  0.00000000E+00  0.00000000E+00  0.00000000E+00  0.00000000E+00
  0.00000000E+00  0.00000000E+00  0.00000000E+00  0.00000000E+00  0.00000000E+00
  0.00000000E+00  0.00000000E+00  0.00000000E+00  0.00000000E+00  0.00000000E+00
  0.00000000E+00  0.00000000E+00  0.00000000E+00  0.00000000E+00  0.00000000E+00
  0.00000000E+00  0.00000000E+00  0.00000000E+00  0.00000000E+00  0.00000000E+00
  0.00000000E+00  0.00000000E+00  0.00000000E+00  0.00000000E+00  0.00000000E+00
  0.00000000E+00  0.00000000E+00  0.00000000E+00  0.00000000E+00  0.00000000E+00
  0.00000000E+00  0.00000000E+00  0.00000000E+00  0.00000000E+00  0.00000000E+00
  0.00000000E+00  0.00000000E+00  0.00000000E+00  0.00000000E+00  0.00000000E+00
  0.00000000E+00  0.00000000E+00  0.00000000E+00  0.00000000E+00  0.00000000E+00
  0.00000000E+00  0.00000000E+00  0.00000000E+00  0.00000000E+00  0.00000000E+00
  0.00000000E+00  0.00000000E+00  0.00000000E+00  0.00000000E+00  0.00000000E+00
  0.00000000E+00  0.00000000E+00  0.00000000E+00  0.00000000E+00  0.00000000E+00
  0.00000000E+00  0.00000000E+00  0.00000000E+00  0.00000000E+00  0.00000000E+00
  0.00000000E+00  0.00000000E+00  0.00000000E+00  0.00000000E+00  0.00000000E+00
  0.00000000E+00  0.00000000E+00  0.00000000E+00  0.00000000E+00  0.00000000E+00
  0.00000000E+00  0.00000000E+00  0.00000000E+00  0.00000000E+00  0.00000000E+00
  0.00000000E+00  0.00000000E+00  0.00000000E+00  0.00000000E+00  0.00000000E+00
  0.00000000E+00  0.00000000E+00  0.00000000E+00  0.00000000E+00  0.00000000E+00
  0.00000000E+00  0.00000000E+00  0.00000000E+00  0.00000000E+00  0.00000000E+00
  0.00000000E+00  0.00000000E+00  0.00000000E+00  0.00000000E+00  0.00000000E+00
  0.00000000E+00  0.00000000E+00  0.00000000E+00  0.00000000E+00  0.00000000E+00
  0.00000000E+00  0.00000000E+00  0.00000000E+00  0.00000000E+00  0.00000000E+00
  0.00000000E+00  0.00000000E+00  0.00000000E+00  0.00000000E+00  0.00000000E+00
  0.00000000E+00  0.00000000E+00  0.00000000E+00  0.00000000E+00  0.00000000E+00
  0.00000000E+00  0.00000000E+00  0.00000000E+00  0.00000000E+00  0.00000000E+00
  0.00000000E+00  0.00000000E+00  0.00000000E+00  0.00000000E+00  0.00000000E+00
  0.00000000E+00  0.00000000E+00  0.00000000E+00  0.00000000E+00  0.00000000E+00
  0.00000000E+00  0.00000000E+00  0.00000000E+00  0.00000000E+00  0.00000000E+00
  0.00000000E+00  0.00000000E+00  0.00000000E+00  0.00000000E+00  0.00000000E+00
  0.00000000E+00  0.00000000E+00  0.00000000E+00  0.00000000E+00  0.00000000E+00
  0.00000000E+00  0.00000000E+00  0.00000000E+00  0.00000000E+00  0.00000000E+00
  0.00000000E+00  0.00000000E+00  0.00000000E+00  0.00000000E+00  0.00000000E+00
  0.00000000E+00  0.00000000E+00  0.00000000E+00  0.00000000E+00  0.00000000E+00
  0.00000000E+00  0.00000000E+00  0.00000000E+00  0.00000000E+00  0.00000000E+00
  0.00000000E+00  0.00000000E+00  0.00000000E+00  0.00000000E+00  0.00000000E+00
  0.00000000E+00  0.00000000E+00  0.00000000E+00  0.00000000E+00  0.00000000E+00
  0.00000000E+00  0.00000000E+00  0.00000000E+00  0.00000000E+00  0.00000000E+00
  0.00000000E+00  0.00000000E+00  0.00000000E+00  0.00000000E+00  0.00000000E+00
  0.00000000E+00  0.00000000E+00  0.00000000E+00  0.00000000E+00  0.00000000E+00
  0.00000000E+00  0.00000000E+00  0.00000000E+00  0.00000000E+00  0.00000000E+00
  0.00000000E+00  0.00000000E+00  0.00000000E+00  0.00000000E+00  0.00000000E+00
  0.00000000E+00  0.00000000E+00  0.00000000E+00  0.00000000E+00  0.00000000E+00
  0.00000000E+00  0.00000000E+00  0.00000000E+00  0.00000000E+00  0.00000000E+00
  0.00000000E+00  0.00000000E+00  0.00000000E+00  0.00000000E+00  0.00000000E+00
  0.00000000E+00  0.00000000E+00  0.00000000E+00  0.00000000E+00  0.00000000E+00
  0.00000000E+00  0.00000000E+00  0.00000000E+00  0.00000000E+00  0.00000000E+00
  0.00000000E+00  0.00000000E+00  0.00000000E+00  0.00000000E+00  0.00000000E+00
  0.00000000E+00  0.00000000E+00  0.00000000E+00  0.00000000E+00  0.00000000E+00
  0.00000000E+00  0.00000000E+00  0.00000000E+00  0.00000000E+00  0.00000000E+00
  0.00000000E+00  0.00000000E+00  0.00000000E+00  0.00000000E+00  0.00000000E+00
  0.00000000E+00  0.00000000E+00  0.00000000E+00  0.00000000E+00  0.00000000E+00
  0.00000000E+00  0.00000000E+00  0.00000000E+00  0.00000000E+00  0.00000000E+00
  0.00000000E+00  0.00000000E+00  0.00000000E+00  0.00000000E+00  0.00000000E+00
  0.00000000E+00  0.00000000E+00  0.00000000E+00  0.00000000E+00  0.00000000E+00
  0.00000000E+00  0.00000000E+00  0.00000000E+00  0.00000000E+00  0.00000000E+00
  0.00000000E+00  0.00000000E+00  0.00000000E+00  0.00000000E+00  0.00000000E+00
  0.00000000E+00  0.00000000E+00  0.00000000E+00  0.00000000E+00  0.00000000E+00
  0.00000000E+00  0.00000000E+00  0.00000000E+00  0.00000000E+00  0.00000000E+00
  0.00000000E+00  0.00000000E+00  0.00000000E+00  0.00000000E+00  0.00000000E+00
  0.00000000E+00  0.00000000E+00  0.00000000E+00  0.00000000E+00  0.00000000E+00
  0.00000000E+00  0.00000000E+00  0.00000000E+00  0.00000000E+00  0.00000000E+00
  0.00000000E+00  0.00000000E+00  0.00000000E+00  0.00000000E+00  0.00000000E+00
  0.00000000E+00  0.00000000E+00  0.00000000E+00  0.00000000E+00  0.00000000E+00
  0.00000000E+00  0.00000000E+00  0.00000000E+00  0.00000000E+00  0.00000000E+00
  0.00000000E+00  0.00000000E+00  0.00000000E+00  0.00000000E+00  0.00000000E+00
  0.00000000E+00  0.00000000E+00  0.00000000E+00  0.00000000E+00  0.00000000E+00
  0.00000000E+00  0.00000000E+00  0.00000000E+00  0.00000000E+00  0.00000000E+00
  0.00000000E+00  0.00000000E+00  0.00000000E+00  0.00000000E+00  0.00000000E+00
  0.00000000E+00  0.00000000E+00  0.00000000E+00  0.00000000E+00  0.00000000E+00
  0.00000000E+00  0.00000000E+00  0.00000000E+00  0.00000000E+00  0.00000000E+00
  0.00000000E+00  0.00000000E+00  0.00000000E+00  0.00000000E+00  0.00000000E+00
  0.00000000E+00  0.00000000E+00  0.00000000E+00  0.00000000E+00  0.00000000E+00
  0.00000000E+00  0.00000000E+00  0.00000000E+00  0.00000000E+00  0.00000000E+00
  0.00000000E+00  0.00000000E+00  0.00000000E+00  0.00000000E+00  0.00000000E+00
  0.00000000E+00  0.00000000E+00  0.00000000E+00  0.00000000E+00  0.00000000E+00
  0.00000000E+00  0.00000000E+00  0.00000000E+00  0.00000000E+00  0.00000000E+00
  0.00000000E+00  0.00000000E+00  0.00000000E+00  0.00000000E+00  0.00000000E+00
  0.00000000E+00  0.00000000E+00  0.00000000E+00  0.00000000E+00  0.00000000E+00
  0.00000000E+00  0.00000000E+00  0.00000000E+00  0.00000000E+00  0.00000000E+00
  0.00000000E+00  0.00000000E+00  0.00000000E+00  0.00000000E+00  0.00000000E+00
  0.00000000E+00  0.00000000E+00  0.00000000E+00  0.00000000E+00  0.00000000E+00
  0.00000000E+00  0.00000000E+00  0.00000000E+00  0.00000000E+00  0.00000000E+00
  0.00000000E+00  0.00000000E+00  0.00000000E+00  0.00000000E+00  0.00000000E+00
  0.00000000E+00  0.00000000E+00  0.00000000E+00  0.00000000E+00  0.00000000E+00
  0.00000000E+00  0.00000000E+00  0.00000000E+00  0.00000000E+00  0.00000000E+00
  0.00000000E+00  0.00000000E+00  0.00000000E+00  0.00000000E+00  0.00000000E+00
  0.00000000E+00  0.00000000E+00  0.00000000E+00  0.00000000E+00  0.00000000E+00
  0.00000000E+00  0.00000000E+00  0.00000000E+00  0.00000000E+00  0.00000000E+00
  0.00000000E+00  0.00000000E+00  0.00000000E+00  0.00000000E+00  0.00000000E+00
  0.00000000E+00  0.00000000E+00  0.00000000E+00  0.00000000E+00  0.00000000E+00
  0.00000000E+00  0.00000000E+00  0.00000000E+00  0.00000000E+00  0.00000000E+00
  0.00000000E+00  0.00000000E+00  0.00000000E+00  0.00000000E+00  0.00000000E+00
  0.00000000E+00  0.00000000E+00  0.00000000E+00  0.00000000E+00  0.00000000E+00
  0.00000000E+00  0.00000000E+00  0.00000000E+00  0.00000000E+00  0.00000000E+00
  0.00000000E+00  0.00000000E+00  0.00000000E+00  0.00000000E+00  0.00000000E+00
  0.00000000E+00  0.00000000E+00  0.00000000E+00  0.00000000E+00  0.00000000E+00
  0.00000000E+00  0.00000000E+00  0.00000000E+00  0.00000000E+00  0.00000000E+00
  0.00000000E+00  0.00000000E+00  0.00000000E+00  0.00000000E+00  0.00000000E+00
  0.00000000E+00  0.00000000E+00  0.00000000E+00  0.00000000E+00  0.00000000E+00
  0.00000000E+00  0.00000000E+00  0.00000000E+00  0.00000000E+00  0.00000000E+00
  0.00000000E+00  0.00000000E+00  0.00000000E+00  0.00000000E+00  0.00000000E+00
  0.00000000E+00  0.00000000E+00  0.00000000E+00  0.00000000E+00  0.00000000E+00
  0.00000000E+00  0.00000000E+00  0.00000000E+00  0.00000000E+00  0.00000000E+00
  0.00000000E+00  0.00000000E+00  0.00000000E+00  0.00000000E+00  0.00000000E+00
  0.00000000E+00  0.00000000E+00  0.00000000E+00  0.00000000E+00  0.00000000E+00
  0.00000000E+00  0.00000000E+00  0.00000000E+00  0.00000000E+00  0.00000000E+00
  0.00000000E+00  0.00000000E+00  0.00000000E+00  0.00000000E+00  0.00000000E+00
  0.00000000E+00  0.00000000E+00  0.00000000E+00  0.00000000E+00  0.00000000E+00
  0.00000000E+00  0.00000000E+00  0.00000000E+00  0.00000000E+00  0.00000000E+00
  0.00000000E+00  0.00000000E+00  0.00000000E+00  0.00000000E+00  0.00000000E+00
  0.00000000E+00  0.00000000E+00  0.00000000E+00  0.00000000E+00  0.00000000E+00
  0.00000000E+00  0.00000000E+00  0.00000000E+00  0.00000000E+00  0.00000000E+00
  0.00000000E+00  0.00000000E+00  0.00000000E+00  0.00000000E+00  0.00000000E+00
  0.00000000E+00  0.00000000E+00  0.00000000E+00  0.00000000E+00  0.00000000E+00
  0.00000000E+00  0.00000000E+00  0.00000000E+00  0.00000000E+00  0.00000000E+00
  0.00000000E+00  0.00000000E+00  0.00000000E+00  0.00000000E+00  0.00000000E+00
  0.00000000E+00  0.00000000E+00  0.00000000E+00  0.00000000E+00  0.00000000E+00
  0.00000000E+00  0.00000000E+00  0.00000000E+00  0.00000000E+00  0.00000000E+00
  0.00000000E+00  0.00000000E+00  0.00000000E+00  0.00000000E+00  0.00000000E+00
  0.00000000E+00  0.00000000E+00  0.00000000E+00  0.00000000E+00  0.00000000E+00
  0.00000000E+00  0.00000000E+00  0.00000000E+00  0.00000000E+00  0.00000000E+00
  0.00000000E+00  0.00000000E+00  0.00000000E+00  0.00000000E+00  0.00000000E+00
  0.00000000E+00  0.00000000E+00  0.00000000E+00  0.00000000E+00  0.00000000E+00
  0.00000000E+00  0.00000000E+00  0.00000000E+00  0.00000000E+00  0.00000000E+00
  0.00000000E+00  0.00000000E+00  0.00000000E+00  0.00000000E+00  0.00000000E+00
  0.00000000E+00  0.00000000E+00  0.00000000E+00  0.00000000E+00  0.00000000E+00
  0.00000000E+00  0.00000000E+00  0.00000000E+00  0.00000000E+00  0.00000000E+00
  0.00000000E+00  0.00000000E+00  0.00000000E+00  0.00000000E+00  0.00000000E+00
  0.00000000E+00  0.00000000E+00  0.00000000E+00  0.00000000E+00  0.00000000E+00
  0.00000000E+00  0.00000000E+00  0.00000000E+00  0.00000000E+00  0.00000000E+00
  0.00000000E+00  0.00000000E+00  0.00000000E+00  0.00000000E+00  0.00000000E+00
  0.00000000E+00  0.00000000E+00  0.00000000E+00  0.00000000E+00  0.00000000E+00
  0.00000000E+00  0.00000000E+00  0.00000000E+00  0.00000000E+00  0.00000000E+00
  0.00000000E+00  0.00000000E+00  0.00000000E+00  0.00000000E+00  0.00000000E+00
  0.00000000E+00  0.00000000E+00  0.00000000E+00  0.00000000E+00  0.00000000E+00
  0.00000000E+00  0.00000000E+00  0.00000000E+00  0.00000000E+00  0.00000000E+00
  0.00000000E+00  0.00000000E+00  0.00000000E+00  0.00000000E+00  0.00000000E+00
  0.00000000E+00  0.00000000E+00  0.00000000E+00  0.00000000E+00  0.00000000E+00
  0.00000000E+00  0.00000000E+00  0.00000000E+00  0.00000000E+00  0.00000000E+00
  0.00000000E+00  0.00000000E+00  0.00000000E+00  0.00000000E+00  0.00000000E+00
  0.00000000E+00  0.00000000E+00  0.00000000E+00  0.00000000E+00  0.00000000E+00
  0.00000000E+00  0.00000000E+00  0.00000000E+00  0.00000000E+00  0.00000000E+00
  0.00000000E+00  0.00000000E+00  0.00000000E+00  0.00000000E+00  0.00000000E+00
  0.00000000E+00  0.00000000E+00  0.00000000E+00  0.00000000E+00  0.00000000E+00
  0.00000000E+00  0.00000000E+00  0.00000000E+00  0.00000000E+00  0.00000000E+00
  0.00000000E+00  0.00000000E+00  0.00000000E+00  0.00000000E+00  0.00000000E+00
  0.00000000E+00  0.00000000E+00  0.00000000E+00  0.00000000E+00  0.00000000E+00
  0.00000000E+00  0.00000000E+00  0.00000000E+00  0.00000000E+00  0.00000000E+00
  0.00000000E+00  0.00000000E+00  0.00000000E+00  0.00000000E+00  0.00000000E+00
  0.00000000E+00  0.00000000E+00  0.00000000E+00  0.00000000E+00  0.00000000E+00
  0.00000000E+00  0.00000000E+00  0.00000000E+00  0.00000000E+00  0.00000000E+00
  0.00000000E+00  0.00000000E+00  0.00000000E+00  0.00000000E+00  0.00000000E+00
  0.00000000E+00  0.00000000E+00  0.00000000E+00  0.00000000E+00  0.00000000E+00
  0.00000000E+00  0.00000000E+00  0.00000000E+00  0.00000000E+00  0.00000000E+00
  0.00000000E+00  0.00000000E+00  0.00000000E+00  0.00000000E+00  0.00000000E+00
  0.00000000E+00  0.00000000E+00  0.00000000E+00  0.00000000E+00  0.00000000E+00
  0.00000000E+00  0.00000000E+00  0.00000000E+00  0.00000000E+00  0.00000000E+00
  0.00000000E+00  0.00000000E+00  0.00000000E+00  0.00000000E+00  0.00000000E+00
  0.00000000E+00  0.00000000E+00  0.00000000E+00  0.00000000E+00  0.00000000E+00
  0.00000000E+00  0.00000000E+00  0.00000000E+00  0.00000000E+00  0.00000000E+00
  0.00000000E+00  0.00000000E+00  0.00000000E+00  0.00000000E+00  0.00000000E+00
  0.00000000E+00  0.00000000E+00  0.00000000E+00  0.00000000E+00  0.00000000E+00
  0.00000000E+00  0.00000000E+00  0.00000000E+00  0.00000000E+00  0.00000000E+00
  0.00000000E+00  0.00000000E+00  0.00000000E+00  0.00000000E+00  0.00000000E+00
  0.00000000E+00  0.00000000E+00  0.00000000E+00  0.00000000E+00  0.00000000E+00
  0.00000000E+00  0.00000000E+00  0.00000000E+00  0.00000000E+00  0.00000000E+00
  0.00000000E+00  0.00000000E+00  0.00000000E+00  0.00000000E+00  0.00000000E+00
  0.00000000E+00  0.00000000E+00  0.00000000E+00  0.00000000E+00  0.00000000E+00
  0.00000000E+00  0.00000000E+00  0.00000000E+00  0.00000000E+00  0.00000000E+00
  0.00000000E+00  0.00000000E+00  0.00000000E+00  0.00000000E+00  0.00000000E+00
  0.00000000E+00  0.00000000E+00  0.00000000E+00  0.00000000E+00  0.00000000E+00
Gaussian Version                           C   N=           2
EM64M-G16RevA.03        
