Title Card Required                                                     
FOpt      RwB97XD                                                     6-311+G(2d,2p)      
Number of atoms                            I                2
Info1-9                                    I   N=           9
          14          14           0           0           0         100
           2          18        -802
Full Title                                 C   N=           2
Title Card Required     
Route                                      C   N=           5
# opt wb97xd/6-311+g(2d,2p) geom=connectivity scf=xqc       
Charge                                     I                0
Multiplicity                               I                1
Number of electrons                        I               10
Number of alpha electrons                  I                5
Number of beta electrons                   I                5
Number of basis functions                  I               36
Number of independent functions            I               36
Number of point charges in /Mol/           I                0
Number of translation vectors              I                0
Atomic numbers                             I   N=           2
           9           1
Nuclear charges                            R   N=           2
  9.00000000E+00  1.00000000E+00
Current cartesian coordinates              R   N=           6
  0.00000000E+00  0.00000000E+00  1.73299224E-01  0.00000000E+00  0.00000000E+00
 -1.55968924E+00
Number of symbols in /Mol/                 I                0
Int Atom Types                             I   N=           2
           0           0
Force Field                                I                0
Atom Types                                 C   N=           2
                        
MM charges                                 R   N=           2
  0.00000000E+00  0.00000000E+00
Integer atomic weights                     I   N=           2
          19           1
Real atomic weights                        R   N=           2
  1.89984032E+01  1.00782504E+00
Atom fragment info                         I   N=           2
           0           0
Atom residue num                           I   N=           2
           0           0
Nuclear spins                              I   N=           2
           1           1
Nuclear ZEff                               R   N=           2
 -6.75000000E+00 -1.00000000E+00
Nuclear ZNuc                               R   N=           2
  9.00000000E+00  1.00000000E+00
Nuclear QMom                               R   N=           2
  0.00000000E+00  0.00000000E+00
Nuclear GFac                               R   N=           2
  2.62886700E+00  2.79284600E+00
MicOpt                                     I   N=           2
          -1          -1
Number of residues                         I                0
Number of secondary structures             I                0
Redundant internal dimensions              I   N=           4
           1           1           0           0
Redundant internal coordinate indices      I   N=           4
           1           2           0           0
Redundant internal coordinates             R   N=           1
  1.73298846E+00
ZRed-IntVec                                I   N=           1
           0
ZRed-FPVec                                 R   N=           1
  0.00000000E+00
ZRed-Constraint1                           R   N=           1
  1.73298846E+00
ZRed-Constraint2                           R   N=           1
  0.00000000E+00
SymInf integers                            I   N=          26
           1           4           1           1           1          -1
          -1           1          -1           1           1           1
          -1           1           0           0           0           0
           0           0           0           0           0           0
           0           0
RotTr to input orientation                 R   N=          12
  1.00000000E+00  0.00000000E+00  0.00000000E+00  0.00000000E+00  1.00000000E+00
  0.00000000E+00  0.00000000E+00  0.00000000E+00  1.00000000E+00 -0.00000000E+00
 -0.00000000E+00  3.77945225E-07
Number of contracted shells                I               12
Number of primitive shells                 I               21
Pure/Cartesian d shells                    I                0
Pure/Cartesian f shells                    I                0
Highest angular momentum                   I                2
Largest degree of contraction              I                6
Shell types                                I   N=          12
           0          -1          -1          -1          -1          -2
          -2           0           0           0           1           1
Number of primitives per shell             I   N=          12
           6           3           1           1           1           1
           1           3           1           1           1           1
Shell to atom map                          I   N=          12
           1           1           1           1           1           1
           1           2           2           2           2           2
Primitive exponents                        R   N=          21
  1.14271000E+04  1.72235000E+03  3.95746000E+02  1.15139000E+02  3.36026000E+01
  4.91901000E+00  5.54441000E+01  1.26323000E+01  3.71756000E+00  1.16545000E+00
  3.21892000E-01  1.07600000E-01  3.50000000E+00  8.75000000E-01  3.38650000E+01
  5.09479000E+00  1.15879000E+00  3.25840000E-01  1.02741000E-01  1.50000000E+00
  3.75000000E-01
Contraction coefficients                   R   N=          21
  1.80093016E-03  1.37419012E-02  6.81334059E-02  2.33325020E-01  5.89086051E-01
  2.99505026E-01  1.14536016E-01  9.20512125E-01 -3.37804046E-03  1.00000000E+00
  1.00000000E+00  1.00000000E+00  1.00000000E+00  1.00000000E+00  2.54938145E-02
  1.90373109E-01  8.52161486E-01  1.00000000E+00  1.00000000E+00  1.00000000E+00
  1.00000000E+00
P(S=P) Contraction coefficients            R   N=          21
  0.00000000E+00  0.00000000E+00  0.00000000E+00  0.00000000E+00  0.00000000E+00
  0.00000000E+00  3.54608874E-02  2.37450915E-01  8.20457708E-01  1.00000000E+00
  1.00000000E+00  1.00000000E+00  0.00000000E+00  0.00000000E+00  0.00000000E+00
  0.00000000E+00  0.00000000E+00  0.00000000E+00  0.00000000E+00  0.00000000E+00
  0.00000000E+00
Coordinates of each shell                  R   N=          36
  0.00000000E+00  0.00000000E+00  1.73298846E-01  0.00000000E+00  0.00000000E+00
  1.73298846E-01  0.00000000E+00  0.00000000E+00  1.73298846E-01  0.00000000E+00
  0.00000000E+00  1.73298846E-01  0.00000000E+00  0.00000000E+00  1.73298846E-01
  0.00000000E+00  0.00000000E+00  1.73298846E-01  0.00000000E+00  0.00000000E+00
  1.73298846E-01  0.00000000E+00  0.00000000E+00 -1.55968961E+00  0.00000000E+00
  0.00000000E+00 -1.55968961E+00  0.00000000E+00  0.00000000E+00 -1.55968961E+00
  0.00000000E+00  0.00000000E+00 -1.55968961E+00  0.00000000E+00  0.00000000E+00
 -1.55968961E+00
Num ILSW                                   I              100
ILSW                                       I   N=         100
           0           0           0           0           2           0
           0           0           0           0        4639          -1
           5           0           0           0           2           0
           0           0           1           0           1           0
           1           0           0           0           0           0
           0           0      100000           0          -1           0
           0           0           0           0           0           0
           0           0           0           1           0           0
           0 -2000000000           1           0           0           0
           0           0         121          52           0           0
           0           0          58           0           0           0
           0           0           0           0           0           1
           0           0           0           0           0           0
           0           0           0           0           0           0
           0           0           0           0           0           0
           0           0           0           0           0           0
           0           0           0           0
Num RLSW                                   I               52
RLSW                                       R   N=          52
  1.00000000E+00  1.00000000E+00  1.00000000E+00  1.00000000E+00  1.00000000E+00
  0.00000000E+00  2.00000000E-01  2.22036000E-01  0.00000000E+00  7.77964000E-01
  0.00000000E+00  2.00000000E-01  0.00000000E+00  0.00000000E+00  1.00000000E+00
  0.00000000E+00  0.00000000E+00  1.00000000E+00  0.00000000E+00  0.00000000E+00
  0.00000000E+00  0.00000000E+00  1.00000000E+00  0.00000000E+00  0.00000000E+00
  0.00000000E+00  0.00000000E+00  1.00000000E+00  0.00000000E+00  0.00000000E+00
  0.00000000E+00  0.00000000E+00  1.00000000E+00  0.00000000E+00  0.00000000E+00
  0.00000000E+00  0.00000000E+00  0.00000000E+00  1.00000000E+00  1.00000000E+00
  0.00000000E+00  1.00000000E+00  0.00000000E+00  0.00000000E+00  0.00000000E+00
  0.00000000E+00  0.00000000E+00  0.00000000E+00  0.00000000E+00  0.00000000E+00
  0.00000000E+00  0.00000000E+00
MxBond                                     I                1
NBond                                      I   N=           2
           1           1
IBond                                      I   N=           2
           2           1
RBond                                      R   N=           2
  1.00000000E+00  1.00000000E+00
Virial Ratio                               R      2.002424890656139E+00
SCF Energy                                 R     -1.004560634742359E+02
Total Energy                               R     -1.004560634742359E+02
RMS Force                                  R      5.531791862436988E-06
RMS Density                                R      5.894346696743168E-09
Job Status                                 I                1
Nuclear derivative order                   I                1
External E-field                           R   N=          35
  0.00000000E+00  0.00000000E+00  0.00000000E+00  0.00000000E+00  0.00000000E+00
  0.00000000E+00  0.00000000E+00  0.00000000E+00  0.00000000E+00  0.00000000E+00
  0.00000000E+00  0.00000000E+00  0.00000000E+00  0.00000000E+00  0.00000000E+00
  0.00000000E+00  0.00000000E+00  0.00000000E+00  0.00000000E+00  0.00000000E+00
  0.00000000E+00  0.00000000E+00  0.00000000E+00  0.00000000E+00  0.00000000E+00
  0.00000000E+00  0.00000000E+00  0.00000000E+00  0.00000000E+00  0.00000000E+00
  0.00000000E+00  0.00000000E+00  0.00000000E+00  0.00000000E+00  0.00000000E+00
IOpCl                                      I                0
IROHF                                      I                0
Alpha Orbital Energies                     R   N=          36
 -2.48058272E+01 -1.31093560E+00 -6.48272484E-01 -5.10451691E-01 -5.10451691E-01
  9.30313942E-02  2.76094008E-01  2.84441537E-01  2.84441537E-01  3.82224832E-01
  4.61453247E-01  7.80084343E-01  7.80084343E-01  1.20410672E+00  1.34762089E+00
  1.34762089E+00  1.42670154E+00  1.78598512E+00  2.08444412E+00  2.08444416E+00
  2.18412036E+00  2.34040154E+00  2.34040154E+00  3.27595210E+00  3.85450377E+00
  3.85450377E+00  4.47591266E+00  6.37480207E+00  6.37480207E+00  7.07352088E+00
  9.13340981E+00  9.13341015E+00  9.29829877E+00  9.29829877E+00  9.77513305E+00
  6.69015208E+01
Alpha MO coefficients                      R   N=        1296
  5.47981968E-01  4.71787005E-01  0.00000000E+00  0.00000000E+00 -9.21134140E-04
  1.14791830E-02  0.00000000E+00  0.00000000E+00  3.98447080E-05 -8.37291377E-03
  0.00000000E+00  0.00000000E+00  2.33450266E-03  4.12355531E-03  0.00000000E+00
  0.00000000E+00 -1.36799565E-03  2.10979650E-04  0.00000000E+00  0.00000000E+00
  8.99219690E-16  0.00000000E+00 -3.97117288E-04  0.00000000E+00  0.00000000E+00
 -4.77576893E-16  0.00000000E+00 -1.21550531E-05  3.54276206E-03 -2.62186846E-03
  0.00000000E+00  0.00000000E+00 -3.34543658E-04  0.00000000E+00  0.00000000E+00
  1.67364495E-03 -1.23020653E-01 -1.99639729E-01  0.00000000E+00  0.00000000E+00
 -4.30993906E-02  5.95499025E-01  0.00000000E+00  0.00000000E+00 -6.86790084E-02
  4.59658403E-01  0.00000000E+00  0.00000000E+00 -5.11747912E-02 -3.94931443E-02
  0.00000000E+00  0.00000000E+00  2.08133675E-02  3.13176956E-03  0.00000000E+00
  0.00000000E+00 -5.40047245E-17  0.00000000E+00  1.12820323E-02  0.00000000E+00
  0.00000000E+00 -1.50537378E-16  0.00000000E+00  1.00893641E-01  2.92446167E-02
  4.17830073E-02  0.00000000E+00  0.00000000E+00  1.76237193E-02  0.00000000E+00
  0.00000000E+00 -2.78045941E-03 -3.49715113E-02 -5.76226825E-02  0.00000000E+00
  0.00000000E+00  2.69085068E-01  1.78179820E-01  0.00000000E+00  0.00000000E+00
  3.88961861E-01  2.39270187E-01  0.00000000E+00  0.00000000E+00  2.64193663E-01
  8.13730983E-02  0.00000000E+00  0.00000000E+00  8.45910633E-03 -6.52183959E-03
  0.00000000E+00  0.00000000E+00  1.35658207E-18  0.00000000E+00 -1.42612869E-02
  0.00000000E+00  0.00000000E+00  2.19785528E-16  0.00000000E+00 -1.72091994E-01
 -2.25666784E-01 -8.37177914E-02  0.00000000E+00  0.00000000E+00 -1.75602464E-02
  0.00000000E+00  0.00000000E+00 -2.38598969E-02  0.00000000E+00  0.00000000E+00
  0.00000000E+00  3.15469571E-01  0.00000000E+00  0.00000000E+00  0.00000000E+00
  4.57388190E-01  0.00000000E+00  0.00000000E+00  0.00000000E+00  3.91893336E-01
  0.00000000E+00  0.00000000E+00  0.00000000E+00  7.17228520E-02  0.00000000E+00
  0.00000000E+00  0.00000000E+00 -2.97142080E-03  0.00000000E+00  0.00000000E+00
  0.00000000E+00  0.00000000E+00 -1.75797134E-02  0.00000000E+00  0.00000000E+00
  0.00000000E+00  0.00000000E+00  0.00000000E+00  0.00000000E+00  1.29957950E-02
  0.00000000E+00  0.00000000E+00  3.03866197E-02  0.00000000E+00  0.00000000E+00
  0.00000000E+00  3.15469571E-01  0.00000000E+00  0.00000000E+00  0.00000000E+00
  4.57388190E-01  0.00000000E+00  0.00000000E+00  0.00000000E+00  3.91893336E-01
  0.00000000E+00  0.00000000E+00  0.00000000E+00  7.17228520E-02  0.00000000E+00
  0.00000000E+00  0.00000000E+00 -2.97142080E-03  0.00000000E+00  0.00000000E+00
  0.00000000E+00  0.00000000E+00 -1.75797134E-02  0.00000000E+00  0.00000000E+00
  0.00000000E+00  0.00000000E+00  0.00000000E+00  0.00000000E+00  1.29957950E-02
  0.00000000E+00  0.00000000E+00  3.03866197E-02  0.00000000E+00  0.00000000E+00
  2.88955037E-02  4.86635379E-02  0.00000000E+00  0.00000000E+00  1.08956995E-01
 -1.75638214E-01  0.00000000E+00  0.00000000E+00  1.68492981E-01 -2.23113013E-01
  0.00000000E+00  0.00000000E+00  1.10053764E-01 -1.33327305E+00  0.00000000E+00
  0.00000000E+00  7.00626756E-01 -6.37333193E-04  0.00000000E+00  0.00000000E+00
  9.02873599E-17  0.00000000E+00  1.42258717E-02  0.00000000E+00  0.00000000E+00
 -1.83215207E-16  0.00000000E+00  7.58661461E-02  7.51370085E-03  2.44401991E+00
  0.00000000E+00  0.00000000E+00 -3.29776993E-02  0.00000000E+00  0.00000000E+00
 -7.54764520E-03  2.59269930E-02  4.22064179E-02  0.00000000E+00  0.00000000E+00
 -9.75023669E-02 -1.18006700E-01  0.00000000E+00  0.00000000E+00 -9.34342425E-02
 -4.20241343E-01  0.00000000E+00  0.00000000E+00 -5.53807118E-01  1.55022672E+00
  0.00000000E+00  0.00000000E+00  6.97867284E-01 -2.70375913E-03  0.00000000E+00
  0.00000000E+00  7.63136431E-17  0.00000000E+00  2.37171457E-02  0.00000000E+00
  0.00000000E+00 -1.57696403E-16  0.00000000E+00 -8.48306076E-03 -2.79379720E-01
 -5.76750371E-01  0.00000000E+00  0.00000000E+00  8.26951274E-03  0.00000000E+00
  0.00000000E+00 -1.43773550E-01  0.00000000E+00  0.00000000E+00  0.00000000E+00
 -1.31940811E-01  0.00000000E+00  0.00000000E+00  0.00000000E+00 -1.32894548E-01
  0.00000000E+00  0.00000000E+00  0.00000000E+00 -5.03570777E-01  0.00000000E+00
  0.00000000E+00  0.00000000E+00  1.23637857E+00  0.00000000E+00  0.00000000E+00
  0.00000000E+00  5.79595640E-04  0.00000000E+00  0.00000000E+00  0.00000000E+00
  0.00000000E+00  6.41494544E-03  0.00000000E+00  0.00000000E+00  0.00000000E+00
  0.00000000E+00  0.00000000E+00  0.00000000E+00  5.43366694E-03  0.00000000E+00
  0.00000000E+00  3.21181926E-02  0.00000000E+00  0.00000000E+00  0.00000000E+00
 -1.31940811E-01  0.00000000E+00  0.00000000E+00  0.00000000E+00 -1.32894548E-01
  0.00000000E+00  0.00000000E+00  0.00000000E+00 -5.03570777E-01  0.00000000E+00
  0.00000000E+00  0.00000000E+00  1.23637857E+00  0.00000000E+00  0.00000000E+00
  0.00000000E+00  5.79595640E-04  0.00000000E+00  0.00000000E+00  0.00000000E+00
  0.00000000E+00  6.41494544E-03  0.00000000E+00  0.00000000E+00  0.00000000E+00
  0.00000000E+00  0.00000000E+00  0.00000000E+00  5.43366694E-03  0.00000000E+00
  0.00000000E+00  3.21181926E-02  0.00000000E+00  0.00000000E+00  2.05485436E-02
  3.18643367E-02  0.00000000E+00  0.00000000E+00  5.22292388E-02 -4.27248021E-02
  0.00000000E+00  0.00000000E+00  5.41539768E-02 -1.03085882E+00  0.00000000E+00
  0.00000000E+00  3.38415423E-01  5.00824510E+00  0.00000000E+00  0.00000000E+00
 -2.81073937E+00 -3.53673324E-03  0.00000000E+00  0.00000000E+00 -2.00570141E-16
  0.00000000E+00 -3.44681855E-02  0.00000000E+00  0.00000000E+00  4.88254317E-16
  0.00000000E+00 -2.71031766E-03 -1.05009842E-01 -4.50739086E+00  0.00000000E+00
  0.00000000E+00  7.98693181E-03  0.00000000E+00  0.00000000E+00  6.43766370E-02
 -2.65919928E-02 -4.46988456E-02  0.00000000E+00  0.00000000E+00 -1.53200498E-01
  1.40374926E-01  0.00000000E+00  0.00000000E+00 -2.26172927E-01  4.45410470E-01
  0.00000000E+00  0.00000000E+00 -5.06408691E-01 -1.43956899E+00  0.00000000E+00
  0.00000000E+00  4.75067099E-01 -1.06095944E-02  0.00000000E+00  0.00000000E+00
  2.04796594E-16  0.00000000E+00 -4.04996554E-03  0.00000000E+00  0.00000000E+00
 -8.17634266E-16  0.00000000E+00 -1.80928063E-01 -1.70589435E+00  2.45477907E+00
  0.00000000E+00  0.00000000E+00 -1.88623577E-02  0.00000000E+00  0.00000000E+00
  2.44857314E-01  0.00000000E+00  0.00000000E+00  0.00000000E+00 -5.37327591E-02
  0.00000000E+00  0.00000000E+00  0.00000000E+00 -8.23366127E-02  0.00000000E+00
  0.00000000E+00  0.00000000E+00 -3.71856546E-01  0.00000000E+00  0.00000000E+00
  0.00000000E+00 -3.43475744E-01  0.00000000E+00  0.00000000E+00  0.00000000E+00
 -1.54540686E-02  0.00000000E+00  0.00000000E+00  0.00000000E+00  0.00000000E+00
 -2.26122812E-02  0.00000000E+00  0.00000000E+00  0.00000000E+00  0.00000000E+00
  0.00000000E+00  0.00000000E+00 -5.30924236E-02  0.00000000E+00  0.00000000E+00
  1.25260976E+00  0.00000000E+00  0.00000000E+00  0.00000000E+00 -5.37327591E-02
  0.00000000E+00  0.00000000E+00  0.00000000E+00 -8.23366127E-02  0.00000000E+00
  0.00000000E+00  0.00000000E+00 -3.71856546E-01  0.00000000E+00  0.00000000E+00
  0.00000000E+00 -3.43475744E-01  0.00000000E+00  0.00000000E+00  0.00000000E+00
 -1.54540686E-02  0.00000000E+00  0.00000000E+00  0.00000000E+00  0.00000000E+00
 -2.26122812E-02  0.00000000E+00  0.00000000E+00  0.00000000E+00  0.00000000E+00
  0.00000000E+00  0.00000000E+00 -5.30924236E-02  0.00000000E+00  0.00000000E+00
  1.25260976E+00  0.00000000E+00  0.00000000E+00  3.05000260E-02  5.09483274E-02
  0.00000000E+00  0.00000000E+00 -7.10059313E-02 -1.10484662E-01  0.00000000E+00
  0.00000000E+00 -2.45197389E-01 -4.06424745E+00  0.00000000E+00  0.00000000E+00
  3.71801008E+00 -2.87973036E-01  0.00000000E+00  0.00000000E+00 -7.56069245E-01
  3.56875544E-02  0.00000000E+00  0.00000000E+00 -1.25514259E-16  0.00000000E+00
 -9.51586226E-02  0.00000000E+00  0.00000000E+00  1.06949281E-15  0.00000000E+00
  1.10783706E-01  4.25821178E+00  1.47167376E-01  0.00000000E+00  0.00000000E+00
 -5.83355420E-03  0.00000000E+00  0.00000000E+00  2.93300386E+00  0.00000000E+00
  0.00000000E+00 -2.60604959E-01  0.00000000E+00  0.00000000E+00  0.00000000E+00
 -8.09282175E-01  0.00000000E+00  0.00000000E+00  0.00000000E+00  1.72314339E+00
  0.00000000E+00  0.00000000E+00  0.00000000E+00 -7.61945378E-01  0.00000000E+00
  0.00000000E+00  0.00000000E+00  6.76699432E-03  0.00000000E+00  0.00000000E+00
  0.00000000E+00  0.00000000E+00  2.82145758E-02  0.00000000E+00  0.00000000E+00
  0.00000000E+00  0.00000000E+00  0.00000000E+00  0.00000000E+00 -4.61892270E-03
  0.00000000E+00  0.00000000E+00 -2.05585381E-01  0.00000000E+00  0.00000000E+00
  0.00000000E+00  0.00000000E+00  0.00000000E+00 -2.60604959E-01  0.00000000E+00
  0.00000000E+00  0.00000000E+00 -8.09282175E-01  0.00000000E+00  0.00000000E+00
  0.00000000E+00  1.72314339E+00  0.00000000E+00  0.00000000E+00  0.00000000E+00
 -7.61945378E-01  0.00000000E+00  0.00000000E+00  0.00000000E+00  6.76699432E-03
  0.00000000E+00  0.00000000E+00  0.00000000E+00  0.00000000E+00  2.82145758E-02
  0.00000000E+00  0.00000000E+00  0.00000000E+00  0.00000000E+00  0.00000000E+00
  0.00000000E+00 -4.61892270E-03  0.00000000E+00  0.00000000E+00 -2.05585381E-01
  0.00000000E+00 -5.20648400E-03 -1.02795947E-02  0.00000000E+00  0.00000000E+00
  2.51120408E-01  7.27890928E-02  0.00000000E+00  0.00000000E+00  7.55340745E-01
 -1.44970511E+00  0.00000000E+00  0.00000000E+00 -6.19990684E-01 -1.38282432E+00
  0.00000000E+00  0.00000000E+00  1.11574497E+00 -2.55370203E-03  0.00000000E+00
  0.00000000E+00 -1.76647655E-17  0.00000000E+00  6.20503131E-02  0.00000000E+00
  0.00000000E+00 -1.63182755E-15  0.00000000E+00  1.00312002E-01  6.90499251E-01
  1.87117126E+00  0.00000000E+00  0.00000000E+00 -1.15520729E-01  0.00000000E+00
  0.00000000E+00  1.48184806E+00  1.11329589E-01  2.23626451E-01  0.00000000E+00
  0.00000000E+00  1.00447562E-02 -1.75419720E+00  0.00000000E+00  0.00000000E+00
  7.27304533E-02  3.24229570E+00  0.00000000E+00  0.00000000E+00 -7.85373380E-01
 -2.92511461E+00  0.00000000E+00  0.00000000E+00  1.07061013E+00 -1.67801292E-02
  0.00000000E+00  0.00000000E+00  2.67678997E-16  0.00000000E+00 -2.08366634E-01
  0.00000000E+00  0.00000000E+00 -2.83155716E-15  0.00000000E+00 -2.24836080E-01
 -6.62363816E-01  1.95694223E+00  0.00000000E+00  0.00000000E+00 -8.35695067E-02
  0.00000000E+00  0.00000000E+00 -1.56203424E-01  1.95370632E-16  5.31422205E-16
  0.00000000E+00  0.00000000E+00  3.53015295E-16 -5.03970587E-15  0.00000000E+00
  0.00000000E+00  2.30741790E-15  1.55938968E-14  0.00000000E+00  0.00000000E+00
 -1.04219930E-14 -2.53824269E-14  0.00000000E+00  0.00000000E+00  1.28758848E-14
 -1.74676940E-16  0.00000000E+00  0.00000000E+00  7.21342882E-03  0.00000000E+00
 -6.41048833E-16  0.00000000E+00  0.00000000E+00  9.96676073E-01  0.00000000E+00
  4.81126799E-16 -1.07770398E-14  2.52105992E-14  0.00000000E+00  0.00000000E+00
 -6.65535294E-16  0.00000000E+00  0.00000000E+00 -6.04977378E-16  0.00000000E+00
  0.00000000E+00  0.00000000E+00  0.00000000E+00  0.00000000E+00  0.00000000E+00
  0.00000000E+00  0.00000000E+00  0.00000000E+00  0.00000000E+00  0.00000000E+00
  0.00000000E+00  0.00000000E+00  0.00000000E+00  0.00000000E+00  0.00000000E+00
  0.00000000E+00  0.00000000E+00  0.00000000E+00  0.00000000E+00  0.00000000E+00
  7.21339614E-03  0.00000000E+00  0.00000000E+00  0.00000000E+00  0.00000000E+00
  9.96676088E-01  0.00000000E+00  0.00000000E+00  0.00000000E+00  0.00000000E+00
  0.00000000E+00  0.00000000E+00  0.00000000E+00  0.00000000E+00  0.00000000E+00
 -3.46072868E-02 -7.02431557E-02  0.00000000E+00  0.00000000E+00 -6.43302076E-02
  6.71597207E-01  0.00000000E+00  0.00000000E+00  1.45093747E-01 -4.67082654E+00
  0.00000000E+00  0.00000000E+00  2.54709076E+00  3.80813492E-01  0.00000000E+00
  0.00000000E+00 -1.03970190E-01  8.14079217E-03  0.00000000E+00  0.00000000E+00
  2.07195649E-16  0.00000000E+00 -6.29802508E-01  0.00000000E+00  0.00000000E+00
  6.38670624E-16  0.00000000E+00 -1.23921845E+00  5.71061749E+00 -8.41448350E-01
  0.00000000E+00  0.00000000E+00  1.41935369E-01  0.00000000E+00  0.00000000E+00
  2.16464947E+00  0.00000000E+00  0.00000000E+00  3.48239898E-02  0.00000000E+00
  0.00000000E+00  0.00000000E+00  4.94623129E-02  0.00000000E+00  0.00000000E+00
  0.00000000E+00 -3.72694428E-01  0.00000000E+00  0.00000000E+00  0.00000000E+00
 -9.28268118E-02  0.00000000E+00  0.00000000E+00  0.00000000E+00  1.56760793E-02
  0.00000000E+00  0.00000000E+00  0.00000000E+00  0.00000000E+00  1.08046260E+00
  0.00000000E+00  0.00000000E+00  0.00000000E+00  0.00000000E+00  0.00000000E+00
  0.00000000E+00 -1.43907763E-01  0.00000000E+00  0.00000000E+00  7.31581580E-01
  0.00000000E+00  0.00000000E+00  0.00000000E+00  0.00000000E+00  0.00000000E+00
  3.48239898E-02  0.00000000E+00  0.00000000E+00  0.00000000E+00  4.94623129E-02
  0.00000000E+00  0.00000000E+00  0.00000000E+00 -3.72694428E-01  0.00000000E+00
  0.00000000E+00  0.00000000E+00 -9.28268118E-02  0.00000000E+00  0.00000000E+00
  0.00000000E+00  1.56760793E-02  0.00000000E+00  0.00000000E+00  0.00000000E+00
  0.00000000E+00  1.08046260E+00  0.00000000E+00  0.00000000E+00  0.00000000E+00
  0.00000000E+00  0.00000000E+00  0.00000000E+00 -1.43907763E-01  0.00000000E+00
  0.00000000E+00  7.31581580E-01  0.00000000E+00  3.08749021E-02  6.64922358E-02
  0.00000000E+00  0.00000000E+00 -2.75880973E-02 -7.17509806E-01  0.00000000E+00
  0.00000000E+00  1.58139103E-01  3.60042092E+00  0.00000000E+00  0.00000000E+00
 -2.46215685E+00 -2.74008546E-01  0.00000000E+00  0.00000000E+00  4.41824573E-01
  4.52650814E-02  0.00000000E+00  0.00000000E+00 -1.66905176E-16  0.00000000E+00
  1.19479831E+00  0.00000000E+00  0.00000000E+00  4.03922657E-16  0.00000000E+00
 -9.80904094E-01 -2.52547498E+00  4.03997792E-02  0.00000000E+00  0.00000000E+00
  2.32001182E-01  0.00000000E+00  0.00000000E+00 -1.76694470E+00  0.00000000E+00
  0.00000000E+00 -7.00792914E-02  0.00000000E+00  0.00000000E+00  0.00000000E+00
  6.70086310E-02  0.00000000E+00  0.00000000E+00  0.00000000E+00 -5.64334051E-02
  0.00000000E+00  0.00000000E+00  0.00000000E+00  1.71260182E-01  0.00000000E+00
  0.00000000E+00  0.00000000E+00 -6.35748335E-03  0.00000000E+00  0.00000000E+00
  0.00000000E+00  0.00000000E+00  3.02967397E-01  0.00000000E+00  0.00000000E+00
  0.00000000E+00  0.00000000E+00  0.00000000E+00  0.00000000E+00  1.25174923E+00
  0.00000000E+00  0.00000000E+00 -6.41425630E-01  0.00000000E+00  0.00000000E+00
  0.00000000E+00  0.00000000E+00  0.00000000E+00 -7.00792914E-02  0.00000000E+00
  0.00000000E+00  0.00000000E+00  6.70086310E-02  0.00000000E+00  0.00000000E+00
  0.00000000E+00 -5.64334051E-02  0.00000000E+00  0.00000000E+00  0.00000000E+00
  1.71260182E-01  0.00000000E+00  0.00000000E+00  0.00000000E+00 -6.35748335E-03
  0.00000000E+00  0.00000000E+00  0.00000000E+00  0.00000000E+00  3.02967397E-01
  0.00000000E+00  0.00000000E+00  0.00000000E+00  0.00000000E+00  0.00000000E+00
  0.00000000E+00  1.25174923E+00  0.00000000E+00  0.00000000E+00 -6.41425630E-01
  0.00000000E+00 -1.99710988E-02 -2.84220313E-02  0.00000000E+00  0.00000000E+00
 -3.93624063E-01 -1.67980795E-01  0.00000000E+00  0.00000000E+00  6.62726936E-03
  1.55764967E+00  0.00000000E+00  0.00000000E+00 -1.32437520E+00 -1.04621599E+00
  0.00000000E+00  0.00000000E+00  5.95792737E-01 -5.99213626E-02  0.00000000E+00
  0.00000000E+00 -4.37560960E-16  0.00000000E+00  9.85491746E-01  0.00000000E+00
  0.00000000E+00 -6.81821744E-17  0.00000000E+00 -5.97601547E-01 -1.42788752E+00
  1.17275979E+00  0.00000000E+00  0.00000000E+00 -1.42789490E+00  0.00000000E+00
  0.00000000E+00  1.40608867E-01  0.00000000E+00  0.00000000E+00  0.00000000E+00
 -1.25832585E+00  0.00000000E+00  0.00000000E+00  0.00000000E+00  1.49540053E+00
  0.00000000E+00  0.00000000E+00  0.00000000E+00 -8.61469463E-01  0.00000000E+00
  0.00000000E+00  0.00000000E+00  2.89371643E-01  0.00000000E+00  0.00000000E+00
  0.00000000E+00  1.25261851E-02  0.00000000E+00  0.00000000E+00  0.00000000E+00
  0.00000000E+00  4.92878730E-03  0.00000000E+00  0.00000000E+00  0.00000000E+00
  0.00000000E+00  0.00000000E+00  0.00000000E+00 -1.05583603E-01  0.00000000E+00
  0.00000000E+00  1.10274699E-01  0.00000000E+00  0.00000000E+00  0.00000000E+00
 -1.25832585E+00  0.00000000E+00  0.00000000E+00  0.00000000E+00  1.49540053E+00
  0.00000000E+00  0.00000000E+00  0.00000000E+00 -8.61469463E-01  0.00000000E+00
  0.00000000E+00  0.00000000E+00  2.89371643E-01  0.00000000E+00  0.00000000E+00
  0.00000000E+00  1.25261851E-02  0.00000000E+00  0.00000000E+00  0.00000000E+00
  0.00000000E+00  4.92878730E-03  0.00000000E+00  0.00000000E+00  0.00000000E+00
  0.00000000E+00  0.00000000E+00  0.00000000E+00 -1.05583603E-01  0.00000000E+00
  0.00000000E+00  1.10274699E-01  0.00000000E+00  0.00000000E+00  1.28875223E-02
  1.87955846E-02  0.00000000E+00  0.00000000E+00 -1.23865680E+00  5.86599949E-02
  0.00000000E+00  0.00000000E+00  1.75587971E+00 -9.21704492E-01  0.00000000E+00
  0.00000000E+00 -1.98211693E-01  8.43080935E-02  0.00000000E+00  0.00000000E+00
  2.11968563E-01  4.19050110E-03  0.00000000E+00  0.00000000E+00 -8.65193942E-16
  0.00000000E+00 -5.43633307E-01  0.00000000E+00  0.00000000E+00 -2.28980568E-16
  0.00000000E+00  5.00011462E-01  6.19361313E-01 -3.30403209E-03  0.00000000E+00
  0.00000000E+00  8.03893494E-01  0.00000000E+00  0.00000000E+00  1.45356086E-01
  0.00000000E+00  0.00000000E+00  0.00000000E+00  0.00000000E+00  0.00000000E+00
  0.00000000E+00  0.00000000E+00  0.00000000E+00  0.00000000E+00  0.00000000E+00
  0.00000000E+00  0.00000000E+00  0.00000000E+00  0.00000000E+00  0.00000000E+00
  0.00000000E+00  0.00000000E+00  0.00000000E+00  0.00000000E+00  0.00000000E+00
  0.00000000E+00  1.12486203E+00  0.00000000E+00  0.00000000E+00  0.00000000E+00
  0.00000000E+00 -5.21539440E-01  0.00000000E+00  0.00000000E+00  0.00000000E+00
  0.00000000E+00  0.00000000E+00  0.00000000E+00  0.00000000E+00  0.00000000E+00
  0.00000000E+00  3.22468079E-16  2.49925672E-16  0.00000000E+00  0.00000000E+00
 -1.22127588E-15 -1.42134690E-15  0.00000000E+00  0.00000000E+00  1.54460379E-15
  1.37880478E-14  0.00000000E+00  0.00000000E+00 -9.47549256E-15  3.51965906E-15
  0.00000000E+00  0.00000000E+00 -1.21090265E-15  5.33247814E-16  0.00000000E+00
  0.00000000E+00  1.12486203E+00  0.00000000E+00  1.86307824E-15  0.00000000E+00
  0.00000000E+00 -5.21539469E-01  0.00000000E+00  1.19976635E-15 -1.39345755E-14
 -4.37728068E-15  0.00000000E+00  0.00000000E+00 -1.42736898E-16  0.00000000E+00
  0.00000000E+00 -7.56315311E-15  0.00000000E+00  0.00000000E+00  1.87428556E-02
  0.00000000E+00  0.00000000E+00  0.00000000E+00 -3.14749018E-02  0.00000000E+00
  0.00000000E+00  0.00000000E+00  1.24756763E-01  0.00000000E+00  0.00000000E+00
  0.00000000E+00  1.73986545E-02  0.00000000E+00  0.00000000E+00  0.00000000E+00
  1.14065912E+00  0.00000000E+00  0.00000000E+00  0.00000000E+00  0.00000000E+00
 -6.25855550E-01  0.00000000E+00  0.00000000E+00  0.00000000E+00  0.00000000E+00
  0.00000000E+00  0.00000000E+00 -5.16921092E-02  0.00000000E+00  0.00000000E+00
 -1.86961508E-01  0.00000000E+00  0.00000000E+00  0.00000000E+00  0.00000000E+00
  0.00000000E+00  1.87428556E-02  0.00000000E+00  0.00000000E+00  0.00000000E+00
 -3.14749018E-02  0.00000000E+00  0.00000000E+00  0.00000000E+00  1.24756763E-01
  0.00000000E+00  0.00000000E+00  0.00000000E+00  1.73986545E-02  0.00000000E+00
  0.00000000E+00  0.00000000E+00  1.14065912E+00  0.00000000E+00  0.00000000E+00
  0.00000000E+00  0.00000000E+00 -6.25855550E-01  0.00000000E+00  0.00000000E+00
  0.00000000E+00  0.00000000E+00  0.00000000E+00  0.00000000E+00 -5.16921092E-02
  0.00000000E+00  0.00000000E+00 -1.86961508E-01  0.00000000E+00  8.35958925E-03
  1.45644565E-02  0.00000000E+00  0.00000000E+00  4.60133354E-02 -2.64321536E-01
  0.00000000E+00  0.00000000E+00 -6.59323690E-02  1.95459637E+00  0.00000000E+00
  0.00000000E+00 -1.34803987E+00  4.54224072E-03  0.00000000E+00  0.00000000E+00
  1.28239462E-01 -1.18341344E+00  0.00000000E+00  0.00000000E+00  1.07840419E-15
  0.00000000E+00  9.76459221E-01  0.00000000E+00  0.00000000E+00 -6.57342390E-16
  0.00000000E+00 -2.80443309E-01 -1.86836854E+00  6.13182528E-02  0.00000000E+00
  0.00000000E+00 -5.57594743E-02  0.00000000E+00  0.00000000E+00 -9.46246778E-01
 -2.32594512E+00  2.39766830E+00  0.00000000E+00  0.00000000E+00 -6.04359722E-03
 -2.29054684E-01  0.00000000E+00  0.00000000E+00  1.96228142E-02  3.99969108E-01
  0.00000000E+00  0.00000000E+00 -1.39878954E-01 -1.96750329E-01  0.00000000E+00
  0.00000000E+00  7.38220042E-02 -8.97791279E-03  0.00000000E+00  0.00000000E+00
  1.96607478E-16  0.00000000E+00  2.18027243E-02  0.00000000E+00  0.00000000E+00
 -3.60481669E-16  0.00000000E+00  7.71441566E-05 -1.92512745E-01  1.29844091E-01
  0.00000000E+00  0.00000000E+00  2.38308549E-02  0.00000000E+00  0.00000000E+00
 -9.59910264E-02
Orthonormal basis                          R   N=        1296
  5.40972850E-02  5.57743090E-02  0.00000000E+00  0.00000000E+00 -3.74195323E-02
  1.39447672E-01  0.00000000E+00  0.00000000E+00 -8.39686577E-02  1.84711969E-01
  0.00000000E+00  0.00000000E+00 -1.17845663E-01  1.72394488E-01  0.00000000E+00
  0.00000000E+00 -9.71311494E-02  1.34848433E-02  0.00000000E+00  0.00000000E+00
  0.00000000E+00  0.00000000E+00  3.59692734E-02  0.00000000E+00  0.00000000E+00
  3.47527156E-31  0.00000000E+00  1.44764277E-01  2.06104674E-01  1.86132275E-01
  0.00000000E+00  0.00000000E+00  6.12528141E-02  0.00000000E+00  0.00000000E+00
  8.31651316E-02  1.69611690E-01  1.73466748E-01  0.00000000E+00  0.00000000E+00
  8.63159727E-02  2.13290629E-01  0.00000000E+00  0.00000000E+00  1.56642287E-01
  1.74650354E-01  0.00000000E+00  0.00000000E+00  2.43430841E-01  1.03516772E-01
  0.00000000E+00  0.00000000E+00  2.28542223E-01 -1.59600042E-02  0.00000000E+00
  0.00000000E+00 -5.04853984E-25  0.00000000E+00 -5.23305869E-02  0.00000000E+00
  0.00000000E+00 -2.43283635E-26  0.00000000E+00 -1.41019081E-01 -1.13703671E-01
 -3.57931005E-02  0.00000000E+00  0.00000000E+00  6.86590368E-02  0.00000000E+00
  0.00000000E+00  2.04090786E-01 -8.93268440E-02 -8.97544922E-02  0.00000000E+00
  0.00000000E+00  2.66989973E-01 -4.35936715E-02  0.00000000E+00  0.00000000E+00
  3.37087376E-01  7.25509597E-02  0.00000000E+00  0.00000000E+00  1.29789239E-01
  1.78584572E-01  0.00000000E+00  0.00000000E+00 -4.99017303E-02 -7.75281437E-02
  0.00000000E+00  0.00000000E+00 -1.47796039E-22  0.00000000E+00 -6.92279434E-02
  0.00000000E+00  0.00000000E+00 -5.86895283E-23  0.00000000E+00  1.46246486E-02
  1.12443037E-01  2.04937792E-01  0.00000000E+00  0.00000000E+00 -3.29511322E-01
  0.00000000E+00  0.00000000E+00 -2.31416999E-01  4.36872931E-01  4.36453094E-01
  0.00000000E+00  0.00000000E+00  1.38645967E-02  2.21269323E-02  0.00000000E+00
  0.00000000E+00  2.16614314E-03 -1.39352057E-01  0.00000000E+00  0.00000000E+00
 -1.23656973E-01 -1.42995887E-01  0.00000000E+00  0.00000000E+00 -1.78741424E-01
 -9.68504867E-02  0.00000000E+00  0.00000000E+00 -6.33923623E-22  0.00000000E+00
 -9.73042999E-02  0.00000000E+00  0.00000000E+00 -4.04651607E-22  0.00000000E+00
  1.91266811E-03  2.20424998E-02 -2.58925998E-02  0.00000000E+00  0.00000000E+00
 -1.92743252E-01  0.00000000E+00  0.00000000E+00 -1.83874180E-01  9.83145242E-02
  9.68981967E-02  0.00000000E+00  0.00000000E+00  1.59273241E-01 -1.72890533E-02
  0.00000000E+00  0.00000000E+00  1.52319751E-01 -5.20553905E-02  0.00000000E+00
  0.00000000E+00  8.16218527E-02 -5.58026018E-02  0.00000000E+00  0.00000000E+00
  4.52507234E-02  4.47455501E-01  0.00000000E+00  0.00000000E+00  1.07011358E-20
  0.00000000E+00  5.30254047E-01  0.00000000E+00  0.00000000E+00  1.29182132E-20
  0.00000000E+00  1.93096274E-01  2.72614771E-02 -5.08014011E-02  0.00000000E+00
  0.00000000E+00  7.05406804E-02  0.00000000E+00  0.00000000E+00 -1.18518538E-01
  5.67729419E-17  1.22798390E-16  0.00000000E+00  0.00000000E+00  1.19366235E-16
 -3.00556047E-16  0.00000000E+00  0.00000000E+00 -2.86343149E-17 -3.77584135E-18
  0.00000000E+00  0.00000000E+00 -2.87322411E-17  1.04525377E-16  0.00000000E+00
  0.00000000E+00 -1.05894335E-18 -3.96557632E-16  0.00000000E+00  0.00000000E+00
  5.85617674E-01  0.00000000E+00  2.27833717E-16  0.00000000E+00  0.00000000E+00
  5.85617674E-01  0.00000000E+00 -1.35202656E-16 -1.65510289E-16  2.91572625E-16
  0.00000000E+00  0.00000000E+00  4.61558009E-16  0.00000000E+00  0.00000000E+00
 -1.93581144E-16 -8.28749344E-02 -7.57616638E-02  0.00000000E+00  0.00000000E+00
  6.93854094E-01  1.65372831E-01  0.00000000E+00  0.00000000E+00  1.79660616E-01
 -1.28513233E-02  0.00000000E+00  0.00000000E+00 -3.23323224E-01 -2.75918572E-01
  0.00000000E+00  0.00000000E+00 -3.44686022E-01 -7.80839062E-02  0.00000000E+00
  0.00000000E+00  1.77720961E-18  0.00000000E+00 -9.24105434E-02  0.00000000E+00
  0.00000000E+00 -2.05518060E-18  0.00000000E+00 -1.85065022E-02 -1.36748371E-02
 -1.39781178E-01  0.00000000E+00  0.00000000E+00  2.88486350E-01  0.00000000E+00
  0.00000000E+00  2.79898722E-01 -2.46912980E-02 -2.09277196E-02  0.00000000E+00
  0.00000000E+00  8.43227963E-02  7.24159255E-02  0.00000000E+00  0.00000000E+00
 -2.86898476E-02  5.03187028E-02  0.00000000E+00  0.00000000E+00 -3.78202827E-04
 -1.45527299E-01  0.00000000E+00  0.00000000E+00  3.92181486E-01 -6.22841525E-01
  0.00000000E+00  0.00000000E+00  6.23967561E-17  0.00000000E+00  2.34601888E-01
  0.00000000E+00  0.00000000E+00  5.96212685E-17  0.00000000E+00  6.75197824E-01
  9.38211757E-02 -3.46530669E-01  0.00000000E+00  0.00000000E+00 -1.95362744E-01
  0.00000000E+00  0.00000000E+00  7.62232951E-02  1.74231330E-01  1.26776478E-01
  0.00000000E+00  0.00000000E+00  2.32651851E-01 -5.33448796E-01  0.00000000E+00
  0.00000000E+00 -8.21427382E-02 -1.99325709E-01  0.00000000E+00  0.00000000E+00
  1.44118543E-01  3.17030955E-01  0.00000000E+00  0.00000000E+00  3.73565456E-02
 -6.12238281E-01  0.00000000E+00  0.00000000E+00 -1.24386425E-15  0.00000000E+00
  3.47073047E-01  0.00000000E+00  0.00000000E+00 -3.04217443E-16  0.00000000E+00
 -1.70199192E-01 -5.04218433E-02  3.66109057E-01  0.00000000E+00  0.00000000E+00
  6.92197260E-01  0.00000000E+00  0.00000000E+00 -2.07598501E-01  2.60574116E-16
 -7.23297469E-18  0.00000000E+00  0.00000000E+00  4.58084281E-16 -3.60370025E-16
  0.00000000E+00  0.00000000E+00 -3.22060915E-16 -8.63163323E-16  0.00000000E+00
  0.00000000E+00  3.12474577E-16  5.46015479E-16  0.00000000E+00  0.00000000E+00
  3.10507572E-16 -9.03439902E-17  0.00000000E+00  0.00000000E+00  9.60426235E-01
  0.00000000E+00 -1.46388562E-16  0.00000000E+00  0.00000000E+00 -9.60426235E-01
  0.00000000E+00  4.24355527E-17  5.70483741E-16  3.20082035E-17  0.00000000E+00
  0.00000000E+00  2.95021146E-16  0.00000000E+00  0.00000000E+00  2.05062076E-16
 -1.72453565E-01 -1.15092838E-01  0.00000000E+00  0.00000000E+00 -5.21758735E-01
  6.56858459E-01  0.00000000E+00  0.00000000E+00  3.68970147E-01  8.02607273E-02
  0.00000000E+00  0.00000000E+00  3.09525939E-01 -3.54294979E-01  0.00000000E+00
  0.00000000E+00 -5.86611395E-01 -4.51577999E-01  0.00000000E+00  0.00000000E+00
  7.95246908E-16  0.00000000E+00  4.96332376E-01  0.00000000E+00  0.00000000E+00
 -5.05641044E-16  0.00000000E+00 -2.47971638E-01 -2.58244898E-02  1.36292237E-02
  0.00000000E+00  0.00000000E+00  1.48944083E-01  0.00000000E+00  0.00000000E+00
 -2.50620063E-01  2.18347604E-01  4.35142649E-02  0.00000000E+00  0.00000000E+00
 -5.54658408E-01 -9.62985784E-01  0.00000000E+00  0.00000000E+00  8.35401051E-01
  1.38530244E-01  0.00000000E+00  0.00000000E+00 -8.86171256E-02  7.47265898E-02
  0.00000000E+00  0.00000000E+00 -5.79222077E-01 -9.37166363E-02  0.00000000E+00
  0.00000000E+00  2.20908379E-16  0.00000000E+00  2.41890816E-01  0.00000000E+00
  0.00000000E+00 -3.68474890E-16  0.00000000E+00  2.30439390E-01 -2.90089434E-01
  3.88921721E-02  0.00000000E+00  0.00000000E+00 -3.10595897E-01  0.00000000E+00
  0.00000000E+00  1.14282971E+00  1.76745728E-01 -5.96691677E-02  0.00000000E+00
  0.00000000E+00 -2.74803672E-01 -2.45178126E-01  0.00000000E+00  0.00000000E+00
  4.44571567E-01  3.08168749E-01  0.00000000E+00  0.00000000E+00  8.62237502E-01
 -3.49589060E-01  0.00000000E+00  0.00000000E+00 -3.91691531E-01  3.31780815E-01
  0.00000000E+00  0.00000000E+00  6.98313090E-17  0.00000000E+00 -1.20911085E+00
  0.00000000E+00  0.00000000E+00 -2.69163965E-16  0.00000000E+00  1.32435995E+00
 -1.98440493E-01 -3.50445907E-02  0.00000000E+00  0.00000000E+00  1.06683882E+00
  0.00000000E+00  0.00000000E+00 -5.85753112E-01  1.98547257E-01 -1.15303747E-01
  0.00000000E+00  0.00000000E+00 -6.19794764E-01 -2.92186048E-01  0.00000000E+00
  0.00000000E+00  1.33710601E+00  2.91029162E-01  0.00000000E+00  0.00000000E+00
 -1.12549975E+00 -1.00751409E-01  0.00000000E+00  0.00000000E+00  9.08344493E-01
  6.88865182E-04  0.00000000E+00  0.00000000E+00  1.93128589E-17  0.00000000E+00
 -2.34135764E-01  0.00000000E+00  0.00000000E+00 -3.31907359E-17  0.00000000E+00
 -5.86683227E-01  1.27962180E+00 -6.80123163E-01  0.00000000E+00  0.00000000E+00
  7.02956812E-01  0.00000000E+00  0.00000000E+00 -5.06642857E-01  1.14035724E+00
 -1.00039615E+00  0.00000000E+00  0.00000000E+00  4.19576780E-01 -8.30578385E-01
  0.00000000E+00  0.00000000E+00 -9.20116418E-01  1.47075741E+00  0.00000000E+00
  0.00000000E+00  9.39643480E-01 -6.84989972E-01  0.00000000E+00  0.00000000E+00
 -5.11581404E-01 -3.96798775E-02  0.00000000E+00  0.00000000E+00 -5.46463806E-17
  0.00000000E+00  2.37899828E-01  0.00000000E+00  0.00000000E+00  2.51372472E-17
  0.00000000E+00 -6.69633755E-01  9.93049236E-01 -7.43800233E-01  0.00000000E+00
  0.00000000E+00 -2.91298269E-01  0.00000000E+00  0.00000000E+00 -4.37051074E-02
 -2.00365764E+00  2.17971997E+00  0.00000000E+00  0.00000000E+00  1.29572322E-01
 -7.73530721E-01  0.00000000E+00  0.00000000E+00 -2.91828523E-01  9.05607040E-01
  0.00000000E+00  0.00000000E+00  5.20040065E-01 -3.70696694E-01  0.00000000E+00
  0.00000000E+00 -2.83629662E-01 -2.17371259E-03  0.00000000E+00  0.00000000E+00
  1.89264342E-16  0.00000000E+00  8.09115068E-03  0.00000000E+00  0.00000000E+00
 -5.20631485E-16  0.00000000E+00 -2.97690696E-01  7.01627320E-01 -5.18501544E-01
  0.00000000E+00  0.00000000E+00  1.23220152E-02  0.00000000E+00  0.00000000E+00
 -7.50665598E-03  2.44330831E-02 -7.09148488E-02  0.00000000E+00  0.00000000E+00
  6.19431351E-02  3.32140983E-01  0.00000000E+00  0.00000000E+00 -2.24397630E-01
  8.22175081E-01  0.00000000E+00  0.00000000E+00 -8.98023550E-01  6.00141211E+00
  0.00000000E+00  0.00000000E+00 -2.74373989E+00 -1.00994889E-01  0.00000000E+00
  0.00000000E+00  1.02880919E-15  0.00000000E+00  2.88900432E-01  0.00000000E+00
  0.00000000E+00 -1.22010159E-15  0.00000000E+00  1.43310366E-01 -2.05704636E+00
 -5.82971295E+00  0.00000000E+00  0.00000000E+00  2.20483038E-01  0.00000000E+00
  0.00000000E+00 -1.84248502E+00 -6.05996980E-02  1.81081369E-01  0.00000000E+00
  0.00000000E+00  4.16320140E-02 -1.17463420E+00  0.00000000E+00  0.00000000E+00
 -8.47534741E-02  8.30212048E+00  0.00000000E+00  0.00000000E+00 -5.23984733E+00
 -2.46476676E+00  0.00000000E+00  0.00000000E+00  1.67162770E+00 -2.97567653E-01
  0.00000000E+00  0.00000000E+00  7.56302196E-16  0.00000000E+00  1.28772862E+00
  0.00000000E+00  0.00000000E+00  3.09537805E-16  0.00000000E+00 -3.22460429E-02
 -7.71272252E+00  2.54703940E+00  0.00000000E+00  0.00000000E+00 -3.75591364E-01
  0.00000000E+00  0.00000000E+00 -3.74417919E+00  0.00000000E+00  0.00000000E+00
  0.00000000E+00  0.00000000E+00  0.00000000E+00  0.00000000E+00  0.00000000E+00
  0.00000000E+00  0.00000000E+00  0.00000000E+00  0.00000000E+00  0.00000000E+00
  0.00000000E+00  0.00000000E+00  0.00000000E+00  0.00000000E+00  0.00000000E+00
  0.00000000E+00  0.00000000E+00  0.00000000E+00  0.00000000E+00  5.85617674E-01
  0.00000000E+00  0.00000000E+00  0.00000000E+00  0.00000000E+00  5.85617674E-01
  0.00000000E+00  0.00000000E+00  0.00000000E+00  0.00000000E+00  0.00000000E+00
  0.00000000E+00  0.00000000E+00  0.00000000E+00  0.00000000E+00  0.00000000E+00
  0.00000000E+00  0.00000000E+00  0.00000000E+00  0.00000000E+00  0.00000000E+00
  0.00000000E+00  0.00000000E+00  0.00000000E+00  0.00000000E+00  0.00000000E+00
  0.00000000E+00  0.00000000E+00  0.00000000E+00  0.00000000E+00  0.00000000E+00
  0.00000000E+00  0.00000000E+00  0.00000000E+00  0.00000000E+00  0.00000000E+00
  9.60426235E-01  0.00000000E+00  0.00000000E+00  0.00000000E+00  0.00000000E+00
 -9.60426235E-01  0.00000000E+00  0.00000000E+00  0.00000000E+00  0.00000000E+00
  0.00000000E+00  0.00000000E+00  0.00000000E+00  0.00000000E+00  0.00000000E+00
  0.00000000E+00  0.00000000E+00  1.33310392E-01  0.00000000E+00  0.00000000E+00
  0.00000000E+00  2.37262911E-01  0.00000000E+00  0.00000000E+00  0.00000000E+00
  3.03162264E-01  0.00000000E+00  0.00000000E+00  0.00000000E+00  2.41309808E-01
  0.00000000E+00  0.00000000E+00  0.00000000E+00 -4.24184748E-02  0.00000000E+00
  0.00000000E+00  0.00000000E+00  0.00000000E+00 -1.03262967E-01  0.00000000E+00
  0.00000000E+00  0.00000000E+00  0.00000000E+00  0.00000000E+00  0.00000000E+00
  1.87165083E-01  0.00000000E+00  0.00000000E+00  2.87330801E-01  0.00000000E+00
  0.00000000E+00  0.00000000E+00  0.00000000E+00  2.44995619E-01  0.00000000E+00
  0.00000000E+00  0.00000000E+00  2.56844242E-01  0.00000000E+00  0.00000000E+00
  0.00000000E+00  1.53202166E-01  0.00000000E+00  0.00000000E+00  0.00000000E+00
  8.97473326E-02  0.00000000E+00  0.00000000E+00  0.00000000E+00  3.45265253E-01
  0.00000000E+00  0.00000000E+00  0.00000000E+00  0.00000000E+00  4.57934156E-01
  0.00000000E+00  0.00000000E+00  0.00000000E+00  0.00000000E+00  0.00000000E+00
  0.00000000E+00 -2.78582116E-01  0.00000000E+00  0.00000000E+00 -1.65760133E-01
  0.00000000E+00  0.00000000E+00  0.00000000E+00  0.00000000E+00  5.55135247E-01
  0.00000000E+00  0.00000000E+00  0.00000000E+00  3.57390817E-01  0.00000000E+00
  0.00000000E+00  0.00000000E+00 -1.56039959E-01  0.00000000E+00  0.00000000E+00
  0.00000000E+00 -3.49402427E-01  0.00000000E+00  0.00000000E+00  0.00000000E+00
 -3.32992544E-01  0.00000000E+00  0.00000000E+00  0.00000000E+00  0.00000000E+00
 -2.32568531E-01  0.00000000E+00  0.00000000E+00  0.00000000E+00  0.00000000E+00
  0.00000000E+00  0.00000000E+00 -6.59522336E-02  0.00000000E+00  0.00000000E+00
 -1.84379885E-01  0.00000000E+00  0.00000000E+00  0.00000000E+00  0.00000000E+00
  1.63696569E-01  0.00000000E+00  0.00000000E+00  0.00000000E+00  4.13615957E-02
  0.00000000E+00  0.00000000E+00  0.00000000E+00 -2.34853528E-01  0.00000000E+00
  0.00000000E+00  0.00000000E+00 -4.20935953E-01  0.00000000E+00  0.00000000E+00
  0.00000000E+00  6.24694936E-01  0.00000000E+00  0.00000000E+00  0.00000000E+00
  0.00000000E+00  2.46008884E-02  0.00000000E+00  0.00000000E+00  0.00000000E+00
  0.00000000E+00  0.00000000E+00  0.00000000E+00  6.19825056E-01  0.00000000E+00
  0.00000000E+00  1.88521501E-01  0.00000000E+00  0.00000000E+00  0.00000000E+00
  0.00000000E+00 -4.96968504E-01  0.00000000E+00  0.00000000E+00  0.00000000E+00
  3.89135210E-01  0.00000000E+00  0.00000000E+00  0.00000000E+00  2.83931235E-01
  0.00000000E+00  0.00000000E+00  0.00000000E+00 -4.50559828E-01  0.00000000E+00
  0.00000000E+00  0.00000000E+00 -6.47231517E-01  0.00000000E+00  0.00000000E+00
  0.00000000E+00  0.00000000E+00  8.14591574E-01  0.00000000E+00  0.00000000E+00
  0.00000000E+00  0.00000000E+00  0.00000000E+00  0.00000000E+00  5.86768025E-01
  0.00000000E+00  0.00000000E+00 -1.96946983E-01  0.00000000E+00  0.00000000E+00
  0.00000000E+00  0.00000000E+00  7.70261637E-01  0.00000000E+00  0.00000000E+00
  0.00000000E+00 -6.88634623E-01  0.00000000E+00  0.00000000E+00  0.00000000E+00
 -4.23430148E-01  0.00000000E+00  0.00000000E+00  0.00000000E+00  6.38941509E-01
  0.00000000E+00  0.00000000E+00  0.00000000E+00 -4.04316080E-01  0.00000000E+00
  0.00000000E+00  0.00000000E+00  0.00000000E+00  5.88058351E-01  0.00000000E+00
  0.00000000E+00  0.00000000E+00  0.00000000E+00  0.00000000E+00  0.00000000E+00
  5.20156623E-01  0.00000000E+00  0.00000000E+00 -6.57507464E-02  0.00000000E+00
  0.00000000E+00  0.00000000E+00  0.00000000E+00  2.00738396E-01  0.00000000E+00
  0.00000000E+00  0.00000000E+00 -2.96573439E-01  0.00000000E+00  0.00000000E+00
  0.00000000E+00 -1.41971289E-01  0.00000000E+00  0.00000000E+00  0.00000000E+00
 -6.52489771E-01  0.00000000E+00  0.00000000E+00  0.00000000E+00 -3.00463722E-01
  0.00000000E+00  0.00000000E+00  0.00000000E+00  0.00000000E+00  5.67455391E-01
  0.00000000E+00  0.00000000E+00  0.00000000E+00  0.00000000E+00  0.00000000E+00
  0.00000000E+00 -6.94320955E-01  0.00000000E+00  0.00000000E+00  1.46139026E+00
  0.00000000E+00  0.00000000E+00  0.00000000E+00  0.00000000E+00  6.95879172E-01
  0.00000000E+00  0.00000000E+00  0.00000000E+00 -1.47221965E+00  0.00000000E+00
  0.00000000E+00  0.00000000E+00  1.98481619E+00  0.00000000E+00  0.00000000E+00
  0.00000000E+00 -9.75577036E-01  0.00000000E+00  0.00000000E+00  0.00000000E+00
  8.39420895E-02  0.00000000E+00  0.00000000E+00  0.00000000E+00  0.00000000E+00
 -2.14773784E-01  0.00000000E+00  0.00000000E+00  0.00000000E+00  0.00000000E+00
  0.00000000E+00  0.00000000E+00  7.95696771E-02  0.00000000E+00  0.00000000E+00
 -4.98658753E-01  0.00000000E+00  0.00000000E+00  0.00000000E+00  0.00000000E+00
  0.00000000E+00  1.33310392E-01  0.00000000E+00  0.00000000E+00  0.00000000E+00
  2.37262911E-01  0.00000000E+00  0.00000000E+00  0.00000000E+00  3.03162264E-01
  0.00000000E+00  0.00000000E+00  0.00000000E+00  2.41309808E-01  0.00000000E+00
  0.00000000E+00  0.00000000E+00 -4.24184748E-02  0.00000000E+00  0.00000000E+00
  0.00000000E+00  0.00000000E+00 -1.03262967E-01  0.00000000E+00  0.00000000E+00
  0.00000000E+00  0.00000000E+00  0.00000000E+00  0.00000000E+00  1.87165083E-01
  0.00000000E+00  0.00000000E+00  2.87330801E-01  0.00000000E+00  0.00000000E+00
  0.00000000E+00  0.00000000E+00  2.44995619E-01  0.00000000E+00  0.00000000E+00
  0.00000000E+00  2.56844242E-01  0.00000000E+00  0.00000000E+00  0.00000000E+00
  1.53202166E-01  0.00000000E+00  0.00000000E+00  0.00000000E+00  8.97473326E-02
  0.00000000E+00  0.00000000E+00  0.00000000E+00  3.45265253E-01  0.00000000E+00
  0.00000000E+00  0.00000000E+00  0.00000000E+00  4.57934156E-01  0.00000000E+00
  0.00000000E+00  0.00000000E+00  0.00000000E+00  0.00000000E+00  0.00000000E+00
 -2.78582116E-01  0.00000000E+00  0.00000000E+00 -1.65760133E-01  0.00000000E+00
  0.00000000E+00  0.00000000E+00  0.00000000E+00  5.55135247E-01  0.00000000E+00
  0.00000000E+00  0.00000000E+00  3.57390817E-01  0.00000000E+00  0.00000000E+00
  0.00000000E+00 -1.56039959E-01  0.00000000E+00  0.00000000E+00  0.00000000E+00
 -3.49402427E-01  0.00000000E+00  0.00000000E+00  0.00000000E+00 -3.32992544E-01
  0.00000000E+00  0.00000000E+00  0.00000000E+00  0.00000000E+00 -2.32568531E-01
  0.00000000E+00  0.00000000E+00  0.00000000E+00  0.00000000E+00  0.00000000E+00
  0.00000000E+00 -6.59522336E-02  0.00000000E+00  0.00000000E+00 -1.84379885E-01
  0.00000000E+00  0.00000000E+00  0.00000000E+00  0.00000000E+00  1.63696569E-01
  0.00000000E+00  0.00000000E+00  0.00000000E+00  4.13615957E-02  0.00000000E+00
  0.00000000E+00  0.00000000E+00 -2.34853528E-01  0.00000000E+00  0.00000000E+00
  0.00000000E+00 -4.20935953E-01  0.00000000E+00  0.00000000E+00  0.00000000E+00
  6.24694936E-01  0.00000000E+00  0.00000000E+00  0.00000000E+00  0.00000000E+00
  2.46008884E-02  0.00000000E+00  0.00000000E+00  0.00000000E+00  0.00000000E+00
  0.00000000E+00  0.00000000E+00  6.19825056E-01  0.00000000E+00  0.00000000E+00
  1.88521501E-01  0.00000000E+00  0.00000000E+00  0.00000000E+00  0.00000000E+00
 -4.96968504E-01  0.00000000E+00  0.00000000E+00  0.00000000E+00  3.89135210E-01
  0.00000000E+00  0.00000000E+00  0.00000000E+00  2.83931235E-01  0.00000000E+00
  0.00000000E+00  0.00000000E+00 -4.50559828E-01  0.00000000E+00  0.00000000E+00
  0.00000000E+00 -6.47231517E-01  0.00000000E+00  0.00000000E+00  0.00000000E+00
  0.00000000E+00  8.14591574E-01  0.00000000E+00  0.00000000E+00  0.00000000E+00
  0.00000000E+00  0.00000000E+00  0.00000000E+00  5.86768025E-01  0.00000000E+00
  0.00000000E+00 -1.96946983E-01  0.00000000E+00  0.00000000E+00  0.00000000E+00
  0.00000000E+00  7.70261637E-01  0.00000000E+00  0.00000000E+00  0.00000000E+00
 -6.88634623E-01  0.00000000E+00  0.00000000E+00  0.00000000E+00 -4.23430148E-01
  0.00000000E+00  0.00000000E+00  0.00000000E+00  6.38941509E-01  0.00000000E+00
  0.00000000E+00  0.00000000E+00 -4.04316080E-01  0.00000000E+00  0.00000000E+00
  0.00000000E+00  0.00000000E+00  5.88058351E-01  0.00000000E+00  0.00000000E+00
  0.00000000E+00  0.00000000E+00  0.00000000E+00  0.00000000E+00  5.20156623E-01
  0.00000000E+00  0.00000000E+00 -6.57507464E-02  0.00000000E+00  0.00000000E+00
  0.00000000E+00  0.00000000E+00  2.00738396E-01  0.00000000E+00  0.00000000E+00
  0.00000000E+00 -2.96573439E-01  0.00000000E+00  0.00000000E+00  0.00000000E+00
 -1.41971289E-01  0.00000000E+00  0.00000000E+00  0.00000000E+00 -6.52489771E-01
  0.00000000E+00  0.00000000E+00  0.00000000E+00 -3.00463722E-01  0.00000000E+00
  0.00000000E+00  0.00000000E+00  0.00000000E+00  5.67455391E-01  0.00000000E+00
  0.00000000E+00  0.00000000E+00  0.00000000E+00  0.00000000E+00  0.00000000E+00
 -6.94320955E-01  0.00000000E+00  0.00000000E+00  1.46139026E+00  0.00000000E+00
  0.00000000E+00  0.00000000E+00  0.00000000E+00  6.95879172E-01  0.00000000E+00
  0.00000000E+00  0.00000000E+00 -1.47221965E+00  0.00000000E+00  0.00000000E+00
  0.00000000E+00  1.98481619E+00  0.00000000E+00  0.00000000E+00  0.00000000E+00
 -9.75577036E-01  0.00000000E+00  0.00000000E+00  0.00000000E+00  8.39420895E-02
  0.00000000E+00  0.00000000E+00  0.00000000E+00  0.00000000E+00 -2.14773784E-01
  0.00000000E+00  0.00000000E+00  0.00000000E+00  0.00000000E+00  0.00000000E+00
  0.00000000E+00  7.95696771E-02  0.00000000E+00  0.00000000E+00 -4.98658753E-01
  0.00000000E+00
Total SCF Density                          R   N=         666
  6.33282650E-01  5.70211467E-01  5.31518746E-01  0.00000000E+00  0.00000000E+00
  1.99042101E-01  0.00000000E+00  0.00000000E+00  0.00000000E+00  1.99042101E-01
 -9.22592248E-03 -1.46712638E-02  0.00000000E+00  0.00000000E+00  1.48530360E-01
 -1.46399022E-01 -2.47473468E-01  0.00000000E+00  0.00000000E+00  4.45386203E-02
  7.72997818E-01  0.00000000E+00  0.00000000E+00  2.88584112E-01  0.00000000E+00
  0.00000000E+00  0.00000000E+00  4.18407913E-01  0.00000000E+00  0.00000000E+00
  0.00000000E+00  2.88584112E-01  0.00000000E+00  0.00000000E+00  0.00000000E+00
  4.18407913E-01 -1.02636270E-02 -1.73663379E-02  0.00000000E+00  0.00000000E+00
  2.15247631E-01  5.68146586E-02  0.00000000E+00  0.00000000E+00  3.12016274E-01
 -1.39006645E-01 -2.19007402E-01  0.00000000E+00  0.00000000E+00  8.91615002E-02
  6.32526272E-01  0.00000000E+00  0.00000000E+00  1.22995520E-01  5.37212351E-01
  0.00000000E+00  0.00000000E+00  2.47260845E-01  0.00000000E+00  0.00000000E+00
  0.00000000E+00  3.58494767E-01  0.00000000E+00  0.00000000E+00  0.00000000E+00
  3.07160773E-01  0.00000000E+00  0.00000000E+00  0.00000000E+00  2.47260845E-01
  0.00000000E+00  0.00000000E+00  0.00000000E+00  3.58494767E-01  0.00000000E+00
  0.00000000E+00  0.00000000E+00  3.07160773E-01 -3.32886015E-03 -7.81127609E-03
  0.00000000E+00  0.00000000E+00  1.46588043E-01  3.32524784E-02  0.00000000E+00
  0.00000000E+00  2.12551971E-01  7.93423953E-02  0.00000000E+00  0.00000000E+00
  1.44845201E-01  8.54473222E-03  1.02818085E-02  0.00000000E+00  0.00000000E+00
  4.71892356E-02 -1.79434997E-02  0.00000000E+00  0.00000000E+00  6.87270921E-02
  2.56454928E-03  0.00000000E+00  0.00000000E+00  4.70578735E-02  1.63965866E-02
  0.00000000E+00  0.00000000E+00  4.52527547E-02  0.00000000E+00  0.00000000E+00
  0.00000000E+00  6.56103709E-02  0.00000000E+00  0.00000000E+00  0.00000000E+00
  5.62154154E-02  0.00000000E+00  0.00000000E+00  0.00000000E+00  1.02883350E-02
  0.00000000E+00  0.00000000E+00  0.00000000E+00  4.52527547E-02  0.00000000E+00
  0.00000000E+00  0.00000000E+00  6.56103709E-02  0.00000000E+00  0.00000000E+00
  0.00000000E+00  5.62154154E-02  0.00000000E+00  0.00000000E+00  0.00000000E+00
  1.02883350E-02 -7.21187748E-03 -1.05760281E-02  0.00000000E+00  0.00000000E+00
  2.76087171E-03  2.77717573E-02  0.00000000E+00  0.00000000E+00  3.72154757E-03
  2.32050107E-02  0.00000000E+00  0.00000000E+00  2.33305791E-03 -2.78565283E-04
  0.00000000E+00  0.00000000E+00  1.01324832E-03 -8.31614091E-05 -2.99764557E-04
  0.00000000E+00  0.00000000E+00 -3.78020270E-03  1.41065478E-03  0.00000000E+00
  0.00000000E+00 -5.50365057E-03 -2.45408192E-04  0.00000000E+00  0.00000000E+00
 -3.76560762E-03 -1.30703147E-03  0.00000000E+00  0.00000000E+00  1.94502343E-05
  1.04773769E-04  0.00000000E+00  0.00000000E+00 -1.87478569E-03  0.00000000E+00
  0.00000000E+00  0.00000000E+00 -2.71818556E-03  0.00000000E+00  0.00000000E+00
  0.00000000E+00 -2.32896002E-03  0.00000000E+00  0.00000000E+00  0.00000000E+00
 -4.26237548E-04  0.00000000E+00  0.00000000E+00  0.00000000E+00  1.76586831E-05
  0.00000000E+00  0.00000000E+00  0.00000000E+00 -1.87478569E-03  0.00000000E+00
  0.00000000E+00  0.00000000E+00 -2.71818556E-03  0.00000000E+00  0.00000000E+00
  0.00000000E+00 -2.32896002E-03  0.00000000E+00  0.00000000E+00  0.00000000E+00
 -4.26237548E-04  0.00000000E+00  0.00000000E+00  0.00000000E+00  1.76586831E-05
  9.98702667E-16  8.69868956E-16  0.00000000E+00  0.00000000E+00  3.68628739E-18
 -4.32054566E-17  0.00000000E+00  0.00000000E+00  8.45677695E-18 -6.40627959E-17
  0.00000000E+00  0.00000000E+00  1.04083409E-17  1.19262239E-17  0.00000000E+00
  0.00000000E+00 -4.68493923E-18  2.37169225E-20  0.00000000E+00  0.00000000E+00
  0.00000000E+00  0.00000000E+00  0.00000000E+00  0.00000000E+00  0.00000000E+00
  0.00000000E+00  0.00000000E+00  0.00000000E+00  0.00000000E+00  0.00000000E+00
  0.00000000E+00  0.00000000E+00  0.00000000E+00  0.00000000E+00  0.00000000E+00
  0.00000000E+00  0.00000000E+00  0.00000000E+00  0.00000000E+00  0.00000000E+00
  0.00000000E+00  0.00000000E+00  3.07107284E-53 -2.21359468E-03 -3.23584610E-03
  0.00000000E+00  0.00000000E+00 -8.64676455E-03  8.34561428E-03  0.00000000E+00
  0.00000000E+00 -1.26439026E-02  3.55381043E-03  0.00000000E+00  0.00000000E+00
 -8.69204868E-03 -3.21537113E-03  0.00000000E+00  0.00000000E+00  2.29445196E-04
  2.56517534E-04  0.00000000E+00  0.00000000E+00 -1.96737519E-18  0.00000000E+00
  6.61652519E-04  0.00000000E+00  0.00000000E+00 -1.10917293E-02  0.00000000E+00
  0.00000000E+00  0.00000000E+00 -1.60815066E-02  0.00000000E+00  0.00000000E+00
  0.00000000E+00 -1.37787450E-02  0.00000000E+00  0.00000000E+00  0.00000000E+00
 -2.52173436E-03  0.00000000E+00  0.00000000E+00  0.00000000E+00  1.04473452E-04
  0.00000000E+00  0.00000000E+00  0.00000000E+00  0.00000000E+00  6.18092645E-04
  0.00000000E+00  0.00000000E+00  0.00000000E+00 -1.10917293E-02  0.00000000E+00
  0.00000000E+00  0.00000000E+00 -1.60815066E-02  0.00000000E+00  0.00000000E+00
  0.00000000E+00 -1.37787450E-02  0.00000000E+00  0.00000000E+00  0.00000000E+00
 -2.52173436E-03  0.00000000E+00  0.00000000E+00  0.00000000E+00  1.04473452E-04
  0.00000000E+00  0.00000000E+00  0.00000000E+00  0.00000000E+00  6.18092645E-04
 -5.01768765E-16 -4.15899953E-16  0.00000000E+00  0.00000000E+00  1.31838984E-16
 -1.12323345E-16  0.00000000E+00  0.00000000E+00  1.91686944E-16 -2.51534904E-17
  0.00000000E+00  0.00000000E+00  1.29236899E-16  4.38017678E-17  0.00000000E+00
  0.00000000E+00 -1.23327997E-18 -3.98444298E-18  0.00000000E+00  0.00000000E+00
  3.91227760E-21  0.00000000E+00 -9.24282352E-18  0.00000000E+00  0.00000000E+00
  0.00000000E+00  0.00000000E+00  0.00000000E+00  0.00000000E+00  0.00000000E+00
  0.00000000E+00  0.00000000E+00  0.00000000E+00  0.00000000E+00  0.00000000E+00
  0.00000000E+00  0.00000000E+00  0.00000000E+00  0.00000000E+00  0.00000000E+00
  0.00000000E+00  0.00000000E+00  0.00000000E+00  0.00000000E+00  0.00000000E+00
  0.00000000E+00  0.00000000E+00  0.00000000E+00  0.00000000E+00  0.00000000E+00
  0.00000000E+00  0.00000000E+00 -2.45685827E-52 -1.28006904E-02 -2.04634229E-02
  0.00000000E+00  0.00000000E+00 -1.01311659E-01  5.88372095E-02  0.00000000E+00
  0.00000000E+00 -1.47732996E-01  1.04004561E-02  0.00000000E+00  0.00000000E+00
 -1.01257707E-01 -3.59766321E-02  0.00000000E+00  0.00000000E+00  1.28841717E-03
  2.87665890E-03  0.00000000E+00  0.00000000E+00 -1.12757026E-17  0.00000000E+00
  7.18508690E-03  0.00000000E+00  0.00000000E+00 -1.05818132E-16  0.00000000E+00
  7.95903630E-02  1.24711728E-02  1.76731344E-02  0.00000000E+00  0.00000000E+00
 -1.23974501E-01 -4.55069166E-02  0.00000000E+00  0.00000000E+00 -1.79568245E-01
 -8.11649261E-02  0.00000000E+00  0.00000000E+00 -1.22216102E-01 -3.90071170E-02
  0.00000000E+00  0.00000000E+00 -2.61021370E-03  3.12819483E-03  0.00000000E+00
  0.00000000E+00  2.49366500E-18  0.00000000E+00  7.09366114E-03  0.00000000E+00
  0.00000000E+00 -1.11022302E-16  0.00000000E+00  8.35719995E-02  1.03586592E-01
 -7.29834354E-03 -9.50893603E-03  0.00000000E+00  0.00000000E+00 -4.86512293E-02
  1.98696443E-02  0.00000000E+00  0.00000000E+00 -7.08654958E-02 -1.60661708E-03
  0.00000000E+00  0.00000000E+00 -4.85241347E-02 -1.69466597E-02  0.00000000E+00
  0.00000000E+00  3.30108183E-04  1.35259119E-03  0.00000000E+00  0.00000000E+00
 -9.54097912E-18  0.00000000E+00  3.33272374E-03  0.00000000E+00  0.00000000E+00
 -4.68375339E-17  0.00000000E+00  3.72456666E-02  4.02099283E-02  1.75227250E-02
  0.00000000E+00  0.00000000E+00  8.19955574E-03  0.00000000E+00  0.00000000E+00
  0.00000000E+00  1.18882463E-02  0.00000000E+00  0.00000000E+00  0.00000000E+00
  1.01859309E-02  0.00000000E+00  0.00000000E+00  0.00000000E+00  1.86419096E-03
  0.00000000E+00  0.00000000E+00  0.00000000E+00 -7.72319510E-05  0.00000000E+00
  0.00000000E+00  0.00000000E+00  0.00000000E+00 -4.56924702E-04  0.00000000E+00
  0.00000000E+00  0.00000000E+00  0.00000000E+00  0.00000000E+00  0.00000000E+00
  3.37781374E-04  0.00000000E+00  0.00000000E+00  0.00000000E+00  8.19955574E-03
  0.00000000E+00  0.00000000E+00  0.00000000E+00  1.18882463E-02  0.00000000E+00
  0.00000000E+00  0.00000000E+00  1.01859309E-02  0.00000000E+00  0.00000000E+00
  0.00000000E+00  1.86419096E-03  0.00000000E+00  0.00000000E+00  0.00000000E+00
 -7.72319510E-05  0.00000000E+00  0.00000000E+00  0.00000000E+00  0.00000000E+00
 -4.56924702E-04  0.00000000E+00  0.00000000E+00  0.00000000E+00  0.00000000E+00
  0.00000000E+00  0.00000000E+00  3.37781374E-04 -3.47459396E-03 -5.32871878E-03
  0.00000000E+00  0.00000000E+00 -1.09689270E-02  1.47243716E-02  0.00000000E+00
  0.00000000E+00 -1.60813181E-02  7.80409662E-03  0.00000000E+00  0.00000000E+00
 -1.10839539E-02 -4.25265452E-03  0.00000000E+00  0.00000000E+00  4.37445217E-04
  3.39295912E-04  0.00000000E+00  0.00000000E+00 -2.56142763E-18  0.00000000E+00
  8.98791872E-04  0.00000000E+00  0.00000000E+00 -1.26851654E-17  0.00000000E+00
  9.60020621E-03  8.95395610E-03  4.41470834E-03  0.00000000E+00  0.00000000E+00
  1.23813931E-03  0.00000000E+00  0.00000000E+00  1.91721078E-02  0.00000000E+00
  0.00000000E+00  0.00000000E+00  2.77969620E-02  0.00000000E+00  0.00000000E+00
  0.00000000E+00  2.38166276E-02  0.00000000E+00  0.00000000E+00  0.00000000E+00
  4.35883006E-03  0.00000000E+00  0.00000000E+00  0.00000000E+00 -1.80582868E-04
  0.00000000E+00  0.00000000E+00  0.00000000E+00  0.00000000E+00 -1.06837613E-03
  0.00000000E+00  0.00000000E+00  0.00000000E+00  0.00000000E+00  0.00000000E+00
  0.00000000E+00  7.89796561E-04  0.00000000E+00  0.00000000E+00  1.84669332E-03
  0.00000000E+00  0.00000000E+00  0.00000000E+00  1.91721078E-02  0.00000000E+00
  0.00000000E+00  0.00000000E+00  2.77969620E-02  0.00000000E+00  0.00000000E+00
  0.00000000E+00  2.38166276E-02  0.00000000E+00  0.00000000E+00  0.00000000E+00
  4.35883006E-03  0.00000000E+00  0.00000000E+00  0.00000000E+00 -1.80582868E-04
  0.00000000E+00  0.00000000E+00  0.00000000E+00  0.00000000E+00 -1.06837613E-03
  0.00000000E+00  0.00000000E+00  0.00000000E+00  0.00000000E+00  0.00000000E+00
  0.00000000E+00  7.89796561E-04  0.00000000E+00  0.00000000E+00  1.84669332E-03
  4.18719568E-03  5.43913073E-03  0.00000000E+00  0.00000000E+00 -1.26040950E-02
 -1.17758019E-02  0.00000000E+00  0.00000000E+00 -1.81791280E-02 -1.40020736E-02
  0.00000000E+00  0.00000000E+00 -1.23148740E-02 -3.64968657E-03  0.00000000E+00
  0.00000000E+00 -5.23987335E-04  2.94511534E-04  0.00000000E+00  0.00000000E+00
  3.25260652E-18  0.00000000E+00  6.16477937E-04  0.00000000E+00  0.00000000E+00
 -1.12757026E-17  0.00000000E+00  7.65109244E-03  1.06180041E-02  3.75386768E-03
  0.00000000E+00  0.00000000E+00  7.38847452E-04  0.00000000E+00  0.00000000E+00
  1.15965344E-03
Grdnt Energy                               R     -1.004560634742359E+02
Grdnt NVar                                 I                1
Grdnt IGetFC                               I                0
Internal Forces                            R   N=           1
  9.58134456E-06
Internal Force Constants                   R   N=           1
  6.58383509E-01
Mulliken Charges                           R   N=           2
 -3.44807785E-01  3.44807785E-01
Optimization MaxStp                        I              100
Optimization MaxJob                        I                1
Optimization Job offset                    I                0
Optimization Num results per geometry      I                2
Optimization Num geometry variables        I                6
Optimization Reference Energy              R     -1.000000000000000E+02
Opt point       1 Results for each geome   R   N=           2
 -4.56063474E-01  0.00000000E+00
Opt point       1 Geometries               R   N=           6
  0.00000000E+00  0.00000000E+00  1.73298846E-01  0.00000000E+00  0.00000000E+00
 -1.55968961E+00
Opt point       1 Gradient at each geome   R   N=           6
  0.00000000E+00  0.00000000E+00 -9.58134456E-06  0.00000000E+00  0.00000000E+00
  9.58134456E-06
Optimization Number of geometries          I   N=           1
           1
ONIOM Charges                              I   N=          16
           0           0           0           0           0           0
           0           0           0           0           0           0
           0           0           0           0
ONIOM Multiplicities                       I   N=          16
           1           0           0           0           0           0
           0           0           0           0           0           0
           0           0           0           0
Atom Layers                                I   N=           2
           1           1
Atom Modifiers                             I   N=           2
           0           0
Int Atom Modified Types                    I   N=           2
           0           0
Force Field                                I                0
Atom Modified Types                        C   N=           2
                        
Link Atoms                                 I   N=           2
           0           0
Atom Modified MM Charges                   R   N=           2
  0.00000000E+00  0.00000000E+00
Link Distances                             R   N=           8
  0.00000000E+00  0.00000000E+00  0.00000000E+00  0.00000000E+00  0.00000000E+00
  0.00000000E+00  0.00000000E+00  0.00000000E+00
Cartesian Gradient                         R   N=           6
  0.00000000E+00  0.00000000E+00 -9.58134456E-06  0.00000000E+00  0.00000000E+00
  9.58134456E-06
Nonadiabatic coupling                      R   N=           6
  0.00000000E+00  0.00000000E+00  0.00000000E+00  0.00000000E+00  0.00000000E+00
  0.00000000E+00
Dipole Moment                              R   N=           3
  0.00000000E+00  0.00000000E+00 -7.41683634E-01
Quadrupole Moment                          R   N=           6
 -5.25413088E-01 -5.25413088E-01  1.05082618E+00  0.00000000E+00  0.00000000E+00
  0.00000000E+00
QEq coupling tensors                       R   N=          12
  1.38044806E+00  0.00000000E+00  1.38044806E+00  0.00000000E+00  0.00000000E+00
 -2.76089611E+00  2.80012616E-01  0.00000000E+00  2.80012616E-01  0.00000000E+00
  0.00000000E+00 -5.60025233E-01
ClPar MaxAn                                I              200
ClPar NIntPar                              I                4
ClPar NRealPar                             I               16
ClPar NBits                                I               30
ClPar LenBitVec                            I                1
ClPar Read BitMap                          I   N=         200
           0           0           0           0           0           0
           0           0           0           0           0           0
           0           0           0           0           0           0
           0           0           0           0           0           0
           0           0           0           0           0           0
           0           0           0           0           0           0
           0           0           0           0           0           0
           0           0           0           0           0           0
           0           0           0           0           0           0
           0           0           0           0           0           0
           0           0           0           0           0           0
           0           0           0           0           0           0
           0           0           0           0           0           0
           0           0           0           0           0           0
           0           0           0           0           0           0
           0           0           0           0           0           0
           0           0           0           0           0           0
           0           0           0           0           0           0
           0           0           0           0           0           0
           0           0           0           0           0           0
           0           0           0           0           0           0
           0           0           0           0           0           0
           0           0           0           0           0           0
           0           0           0           0           0           0
           0           0           0           0           0           0
           0           0           0           0           0           0
           0           0           0           0           0           0
           0           0           0           0           0           0
           0           0           0           0           0           0
           0           0           0           0           0           0
           0           0           0           0           0           0
           0           0           0           0           0           0
           0           0           0           0           0           0
           0           0
ClPar Default BitMap                       I   N=         200
        2016        2016        2016        2016        2016        2016
        2016        2016        2016        2016        2016        2016
        2016        2016        2016        2016        2016        2016
        2016        2016        2016        2016        2016        2016
        2016        2016        2016        2016        2016        2016
        2016        2016        2016        2016        2016        2016
        2016        2016        2016        2016        2016        2016
        2016        2016        2016        2016        2016        2016
        2016        2016        2016        2016        2016        2016
        2016        2016        2016        2016        2016        2016
        2016        2016        2016        2016        2016        2016
        2016        2016        2016        2016        2016        2016
        2016        2016        2016        2016        2016        2016
        2016        2016        2016        2016        2016        2016
        2016        2016         480         480         480         480
         480         480         480         480         480         480
         480         480         480         480         480         480
         480         480         480         480         480         480
         480         480         480         480         480         480
         480         480         480         480         480         480
         480         480         480         480         480         480
         480         480         480         480         480         480
         480         480         480         480         480         480
         480         480         480         480         480         480
         480         480         480         480         480         480
         480         480         480         480         480         480
         480         480         480         480         480         480
         480         480         480         480         480         480
         480         480         480         480         480         480
         480         480         480         480         480         480
         480         480         480         480         480         480
         480         480         480         480         480         480
         480         480         480         480         480         480
         480         480
ClPar Int Params                           I   N=         800
           0           0           0           0           0           0
           0           0           0           0           0           0
           0           0           0           0           0           0
           0           0           0           0           0           0
           0           0           0           0           0           0
           0           0           0           0           0           0
           0           0           0           0           0           0
           0           0           0           0           0           0
           0           0           0           0           0           0
           0           0           0           0           0           0
           0           0           0           0           0           0
           0           0           0           0           0           0
           0           0           0           0           0           0
           0           0           0           0           0           0
           0           0           0           0           0           0
           0           0           0           0           0           0
           0           0           0           0           0           0
           0           0           0           0           0           0
           0           0           0           0           0           0
           0           0           0           0           0           0
           0           0           0           0           0           0
           0           0           0           0           0           0
           0           0           0           0           0           0
           0           0           0           0           0           0
           0           0           0           0           0           0
           0           0           0           0           0           0
           0           0           0           0           0           0
           0           0           0           0           0           0
           0           0           0           0           0           0
           0           0           0           0           0           0
           0           0           0           0           0           0
           0           0           0           0           0           0
           0           0           0           0           0           0
           0           0           0           0           0           0
           0           0           0           0           0           0
           0           0           0           0           0           0
           0           0           0           0           0           0
           0           0           0           0           0           0
           0           0           0           0           0           0
           0           0           0           0           0           0
           0           0           0           0           0           0
           0           0           0           0           0           0
           0           0           0           0           0           0
           0           0           0           0           0           0
           0           0           0           0           0           0
           0           0           0           0           0           0
           0           0           0           0           0           0
           0           0           0           0           0           0
           0           0           0           0           0           0
           0           0           0           0           0           0
           0           0           0           0           0           0
           0           0           0           0           0           0
           0           0           0           0           0           0
           0           0           0           0           0           0
           0           0           0           0           0           0
           0           0           0           0           0           0
           0           0           0           0           0           0
           0           0           0           0           0           0
           0           0           0           0           0           0
           0           0           0           0           0           0
           0           0           0           0           0           0
           0           0           0           0           0           0
           0           0           0           0           0           0
           0           0           0           0           0           0
           0           0           0           0           0           0
           0           0           0           0           0           0
           0           0           0           0           0           0
           0           0           0           0           0           0
           0           0           0           0           0           0
           0           0           0           0           0           0
           0           0           0           0           0           0
           0           0           0           0           0           0
           0           0           0           0           0           0
           0           0           0           0           0           0
           0           0           0           0           0           0
           0           0           0           0           0           0
           0           0           0           0           0           0
           0           0           0           0           0           0
           0           0           0           0           0           0
           0           0           0           0           0           0
           0           0           0           0           0           0
           0           0           0           0           0           0
           0           0           0           0           0           0
           0           0           0           0           0           0
           0           0           0           0           0           0
           0           0           0           0           0           0
           0           0           0           0           0           0
           0           0           0           0           0           0
           0           0           0           0           0           0
           0           0           0           0           0           0
           0           0           0           0           0           0
           0           0           0           0           0           0
           0           0           0           0           0           0
           0           0           0           0           0           0
           0           0           0           0           0           0
           0           0           0           0           0           0
           0           0           0           0           0           0
           0           0           0           0           0           0
           0           0           0           0           0           0
           0           0           0           0           0           0
           0           0           0           0           0           0
           0           0           0           0           0           0
           0           0           0           0           0           0
           0           0           0           0           0           0
           0           0           0           0           0           0
           0           0           0           0           0           0
           0           0           0           0           0           0
           0           0           0           0           0           0
           0           0           0           0           0           0
           0           0           0           0           0           0
           0           0           0           0           0           0
           0           0           0           0           0           0
           0           0           0           0           0           0
           0           0           0           0           0           0
           0           0           0           0           0           0
           0           0           0           0           0           0
           0           0           0           0           0           0
           0           0           0           0           0           0
           0           0           0           0           0           0
           0           0           0           0           0           0
           0           0           0           0           0           0
           0           0           0           0           0           0
           0           0           0           0           0           0
           0           0           0           0           0           0
           0           0           0           0           0           0
           0           0           0           0           0           0
           0           0           0           0           0           0
           0           0           0           0           0           0
           0           0           0           0           0           0
           0           0           0           0           0           0
           0           0           0           0           0           0
           0           0           0           0           0           0
           0           0           0           0           0           0
           0           0
ClPar Real Params                          R   N=        3200
  0.00000000E+00  0.00000000E+00  0.00000000E+00  0.00000000E+00  0.00000000E+00
  0.00000000E+00  0.00000000E+00  0.00000000E+00  0.00000000E+00  0.00000000E+00
  0.00000000E+00  0.00000000E+00  0.00000000E+00  0.00000000E+00  0.00000000E+00
  0.00000000E+00  0.00000000E+00  0.00000000E+00  0.00000000E+00  0.00000000E+00
  0.00000000E+00  0.00000000E+00  0.00000000E+00  0.00000000E+00  0.00000000E+00
  0.00000000E+00  0.00000000E+00  0.00000000E+00  0.00000000E+00  0.00000000E+00
  0.00000000E+00  0.00000000E+00  0.00000000E+00  0.00000000E+00  0.00000000E+00
  0.00000000E+00  0.00000000E+00  0.00000000E+00  0.00000000E+00  0.00000000E+00
  0.00000000E+00  0.00000000E+00  0.00000000E+00  0.00000000E+00  0.00000000E+00
  0.00000000E+00  0.00000000E+00  0.00000000E+00  0.00000000E+00  0.00000000E+00
  0.00000000E+00  0.00000000E+00  0.00000000E+00  0.00000000E+00  0.00000000E+00
  0.00000000E+00  0.00000000E+00  0.00000000E+00  0.00000000E+00  0.00000000E+00
  0.00000000E+00  0.00000000E+00  0.00000000E+00  0.00000000E+00  0.00000000E+00
  0.00000000E+00  0.00000000E+00  0.00000000E+00  0.00000000E+00  0.00000000E+00
  0.00000000E+00  0.00000000E+00  0.00000000E+00  0.00000000E+00  0.00000000E+00
  0.00000000E+00  0.00000000E+00  0.00000000E+00  0.00000000E+00  0.00000000E+00
  0.00000000E+00  0.00000000E+00  0.00000000E+00  0.00000000E+00  0.00000000E+00
  0.00000000E+00  0.00000000E+00  0.00000000E+00  0.00000000E+00  0.00000000E+00
  0.00000000E+00  0.00000000E+00  0.00000000E+00  0.00000000E+00  0.00000000E+00
  0.00000000E+00  0.00000000E+00  0.00000000E+00  0.00000000E+00  0.00000000E+00
  0.00000000E+00  0.00000000E+00  0.00000000E+00  0.00000000E+00  0.00000000E+00
  0.00000000E+00  0.00000000E+00  0.00000000E+00  0.00000000E+00  0.00000000E+00
  0.00000000E+00  0.00000000E+00  0.00000000E+00  0.00000000E+00  0.00000000E+00
  0.00000000E+00  0.00000000E+00  0.00000000E+00  0.00000000E+00  0.00000000E+00
  0.00000000E+00  0.00000000E+00  0.00000000E+00  0.00000000E+00  0.00000000E+00
  0.00000000E+00  0.00000000E+00  0.00000000E+00  0.00000000E+00  0.00000000E+00
  0.00000000E+00  0.00000000E+00  0.00000000E+00  0.00000000E+00  0.00000000E+00
  0.00000000E+00  0.00000000E+00  0.00000000E+00  0.00000000E+00  0.00000000E+00
  0.00000000E+00  0.00000000E+00  0.00000000E+00  0.00000000E+00  0.00000000E+00
  0.00000000E+00  0.00000000E+00  0.00000000E+00  0.00000000E+00  0.00000000E+00
  0.00000000E+00  0.00000000E+00  0.00000000E+00  0.00000000E+00  0.00000000E+00
  0.00000000E+00  0.00000000E+00  0.00000000E+00  0.00000000E+00  0.00000000E+00
  0.00000000E+00  0.00000000E+00  0.00000000E+00  0.00000000E+00  0.00000000E+00
  0.00000000E+00  0.00000000E+00  0.00000000E+00  0.00000000E+00  0.00000000E+00
  0.00000000E+00  0.00000000E+00  0.00000000E+00  0.00000000E+00  0.00000000E+00
  0.00000000E+00  0.00000000E+00  0.00000000E+00  0.00000000E+00  0.00000000E+00
  0.00000000E+00  0.00000000E+00  0.00000000E+00  0.00000000E+00  0.00000000E+00
  0.00000000E+00  0.00000000E+00  0.00000000E+00  0.00000000E+00  0.00000000E+00
  0.00000000E+00  0.00000000E+00  0.00000000E+00  0.00000000E+00  0.00000000E+00
  0.00000000E+00  0.00000000E+00  0.00000000E+00  0.00000000E+00  0.00000000E+00
  2.26000000E-01  4.43000000E-01  1.01000000E-01  1.47000000E-01  1.92000000E-01
  2.40000000E-01  2.75000000E-01  3.03000000E-01  3.25000000E-01  4.13000000E-01
  9.60000000E-02  1.35000000E-01  1.73000000E-01  2.11000000E-01  2.48000000E-01
  2.86000000E-01  3.23000000E-01  3.60000000E-01  8.20000000E-02  1.04000000E-01
  1.17000000E-01  1.23000000E-01  1.29000000E-01  1.34000000E-01  1.40000000E-01
  1.44000000E-01  1.48000000E-01  1.52000000E-01  1.55000000E-01  1.76000000E-01
  1.98000000E-01  2.19000000E-01  2.39000000E-01  2.60000000E-01  2.80000000E-01
  3.00000000E-01  7.90000000E-02  9.90000000E-02  1.19000000E-01  1.26000000E-01
  1.33000000E-01  1.40000000E-01  1.47000000E-01  1.53000000E-01  1.58000000E-01
  1.63000000E-01  1.57000000E-01  1.70000000E-01  1.87000000E-01  2.03000000E-01
  2.19000000E-01  2.34000000E-01  2.50000000E-01  2.65000000E-01  7.40000000E-02
  9.20000000E-02  1.05000000E-01  1.06000000E-01  1.07000000E-01  1.08000000E-01
  1.09000000E-01  1.10000000E-01  1.11000000E-01  1.12000000E-01  1.13000000E-01
  1.14000000E-01  1.15000000E-01  1.16000000E-01  1.17000000E-01  1.17000000E-01
  1.26000000E-01  1.36000000E-01  1.46000000E-01  1.55000000E-01  1.65000000E-01
  1.73000000E-01  1.82000000E-01  1.90000000E-01  1.62000000E-01  1.78000000E-01
  1.10000000E-01  1.35000000E-01  1.59000000E-01  1.83000000E-01  2.07000000E-01
  2.31000000E-01  6.90000000E-02  9.40000000E-02  1.02000000E-01  1.03000000E-01
  1.05000000E-01  1.07000000E-01  1.09000000E-01  1.11000000E-01  1.13000000E-01
  1.15000000E-01  1.17000000E-01  1.19000000E-01  1.20000000E-01  1.22000000E-01
  1.24000000E-01  1.26000000E-01  1.28000000E-01  1.28000000E-01  1.28000000E-01
  1.28000000E-01  1.28000000E-01  1.28000000E-01  1.28000000E-01  1.28000000E-01
  1.28000000E-01  1.28000000E-01  1.28000000E-01  1.28000000E-01  1.28000000E-01
  1.28000000E-01  1.28000000E-01  1.28000000E-01  1.28000000E-01  1.28000000E-01
  1.28000000E-01  1.28000000E-01  1.28000000E-01  1.28000000E-01  1.28000000E-01
  1.28000000E-01  1.28000000E-01  1.28000000E-01  1.28000000E-01  1.28000000E-01
  1.28000000E-01  1.28000000E-01  1.28000000E-01  1.28000000E-01  1.28000000E-01
  1.28000000E-01  1.28000000E-01  1.28000000E-01  1.28000000E-01  1.28000000E-01
  1.28000000E-01  1.28000000E-01  1.28000000E-01  1.28000000E-01  1.28000000E-01
  1.28000000E-01  1.28000000E-01  1.28000000E-01  1.28000000E-01  1.28000000E-01
  1.28000000E-01  1.28000000E-01  1.28000000E-01  1.28000000E-01  1.28000000E-01
  1.28000000E-01  1.28000000E-01  1.28000000E-01  1.28000000E-01  1.28000000E-01
  1.28000000E-01  1.28000000E-01  1.28000000E-01  1.28000000E-01  1.28000000E-01
  1.28000000E-01  1.28000000E-01  1.28000000E-01  1.28000000E-01  1.28000000E-01
  1.28000000E-01  1.28000000E-01  1.28000000E-01  1.28000000E-01  1.28000000E-01
  1.28000000E-01  1.28000000E-01  1.28000000E-01  1.28000000E-01  1.28000000E-01
  1.28000000E-01  1.28000000E-01  1.28000000E-01  1.28000000E-01  1.28000000E-01
  1.28000000E-01  1.28000000E-01  1.28000000E-01  1.28000000E-01  1.28000000E-01
  1.28000000E-01  1.28000000E-01  1.28000000E-01  1.28000000E-01  1.28000000E-01
  1.28000000E-01  1.28000000E-01  1.28000000E-01  1.28000000E-01  1.28000000E-01
  5.47000000E-01  5.92000000E-01  5.99000000E-01  6.68000000E-01  6.98000000E-01
  7.18000000E-01  7.26000000E-01  7.36000000E-01  7.43000000E-01  7.45000000E-01
  6.07000000E-01  6.66000000E-01  6.93000000E-01  7.09000000E-01  7.20000000E-01
  7.29000000E-01  7.35000000E-01  7.40000000E-01  6.08000000E-01  7.34000000E-01
  7.46000000E-01  7.55000000E-01  7.61000000E-01  7.65000000E-01  7.67000000E-01
  7.60000000E-01  7.49000000E-01  7.33000000E-01  7.08000000E-01  6.48000000E-01
  6.88000000E-01  7.09000000E-01  7.22000000E-01  7.31000000E-01  7.38000000E-01
  7.44000000E-01  6.09000000E-01  7.30000000E-01  7.41000000E-01  7.52000000E-01
  7.58000000E-01  7.63000000E-01  7.66000000E-01  7.58000000E-01  7.48000000E-01
  7.33000000E-01  7.01000000E-01  6.45000000E-01  6.86000000E-01  7.08000000E-01
  7.22000000E-01  7.31000000E-01  7.38000000E-01  7.44000000E-01  6.08000000E-01
  7.28000000E-01  7.32000000E-01  7.32000000E-01  7.32000000E-01  7.32000000E-01
  7.32000000E-01  7.32000000E-01  7.32000000E-01  7.32000000E-01  7.32000000E-01
  7.31000000E-01  7.31000000E-01  7.31000000E-01  7.31000000E-01  7.46000000E-01
  7.37000000E-01  7.46000000E-01  7.51000000E-01  7.55000000E-01  7.58000000E-01
  7.47000000E-01  7.32000000E-01  7.11000000E-01  7.41000000E-01  7.07000000E-01
  7.47000000E-01  7.43000000E-01  7.42000000E-01  7.42000000E-01  7.43000000E-01
  7.44000000E-01  6.05000000E-01  7.24000000E-01  7.26000000E-01  7.26000000E-01
  7.27000000E-01  7.27000000E-01  7.27000000E-01  7.28000000E-01  7.28000000E-01
  7.28000000E-01  7.28000000E-01  7.28000000E-01  7.29000000E-01  7.29000000E-01
  7.29000000E-01  7.29000000E-01  7.29000000E-01  7.29000000E-01  7.29000000E-01
  7.29000000E-01  7.29000000E-01  7.29000000E-01  7.29000000E-01  7.29000000E-01
  7.29000000E-01  7.29000000E-01  7.29000000E-01  7.29000000E-01  7.29000000E-01
  7.29000000E-01  7.29000000E-01  7.29000000E-01  7.29000000E-01  7.29000000E-01
  7.29000000E-01  7.29000000E-01  7.29000000E-01  7.29000000E-01  7.29000000E-01
  7.29000000E-01  7.29000000E-01  7.29000000E-01  7.29000000E-01  7.29000000E-01
  7.29000000E-01  7.29000000E-01  7.29000000E-01  7.29000000E-01  7.29000000E-01
  7.29000000E-01  7.29000000E-01  7.29000000E-01  7.29000000E-01  7.29000000E-01
  7.29000000E-01  7.29000000E-01  7.29000000E-01  7.29000000E-01  7.29000000E-01
  7.29000000E-01  7.29000000E-01  7.29000000E-01  7.29000000E-01  7.29000000E-01
  7.29000000E-01  7.29000000E-01  7.29000000E-01  7.29000000E-01  7.29000000E-01
  7.29000000E-01  7.29000000E-01  7.29000000E-01  7.29000000E-01  7.29000000E-01
  7.29000000E-01  7.29000000E-01  7.29000000E-01  7.29000000E-01  7.29000000E-01
  7.29000000E-01  7.29000000E-01  7.29000000E-01  7.29000000E-01  7.29000000E-01
  7.29000000E-01  7.29000000E-01  7.29000000E-01  7.29000000E-01  7.29000000E-01
  7.29000000E-01  7.29000000E-01  7.29000000E-01  7.29000000E-01  7.29000000E-01
  7.29000000E-01  7.29000000E-01  7.29000000E-01  7.29000000E-01  7.29000000E-01
  7.29000000E-01  7.29000000E-01  7.29000000E-01  7.29000000E-01  7.29000000E-01
  7.29000000E-01  7.29000000E-01  7.29000000E-01  7.29000000E-01  7.29000000E-01
  7.29000000E-01  7.29000000E-01  7.29000000E-01  7.29000000E-01  7.29000000E-01
  1.00000000E+00  1.70400000E+00  3.23000000E-01  3.89000000E-01  4.67000000E-01
  5.67000000E-01  6.36000000E-01  6.64000000E-01  6.96000000E-01  8.79000000E-01
  3.07000000E-01  3.48000000E-01  4.00000000E-01  4.54000000E-01  5.09000000E-01
  5.65000000E-01  6.21000000E-01  6.77000000E-01  2.56000000E-01  3.50000000E-01
  3.64000000E-01  3.62000000E-01  3.62000000E-01  3.62000000E-01  3.62000000E-01
  3.65000000E-01  3.69000000E-01  3.75000000E-01  3.86000000E-01  4.46000000E-01
  4.55000000E-01  4.74000000E-01  4.96000000E-01  5.20000000E-01  5.45000000E-01
  5.70000000E-01  2.45000000E-01  3.22000000E-01  3.55000000E-01  3.59000000E-01
  3.64000000E-01  3.70000000E-01  3.76000000E-01  3.85000000E-01  3.95000000E-01
  4.08000000E-01  3.76000000E-01  4.23000000E-01  4.22000000E-01  4.32000000E-01
  4.45000000E-01  4.59000000E-01  4.75000000E-01  4.91000000E-01  2.28000000E-01
  2.92000000E-01  2.89000000E-01  2.92000000E-01  2.95000000E-01  2.98000000E-01
  3.00000000E-01  3.03000000E-01  3.06000000E-01  3.09000000E-01  3.12000000E-01
  3.15000000E-01  3.18000000E-01  3.21000000E-01  3.24000000E-01  3.61000000E-01
  3.69000000E-01  3.70000000E-01  3.72000000E-01  3.75000000E-01  3.78000000E-01
  3.85000000E-01  3.94000000E-01  4.07000000E-01  5.26000000E-01  6.21000000E-01
  3.36000000E-01  3.54000000E-01  3.71000000E-01  3.86000000E-01  4.02000000E-01
  4.17000000E-01  2.09000000E-01  2.94000000E-01  2.65000000E-01  2.72000000E-01
  2.78000000E-01  2.84000000E-01  2.91000000E-01  2.97000000E-01  3.03000000E-01
  3.10000000E-01  3.16000000E-01  3.22000000E-01  3.29000000E-01  3.35000000E-01
  3.41000000E-01  3.48000000E-01  3.54000000E-01  3.54000000E-01  3.54000000E-01
  3.54000000E-01  3.54000000E-01  3.54000000E-01  3.54000000E-01  3.54000000E-01
  3.54000000E-01  3.54000000E-01  3.54000000E-01  3.54000000E-01  3.54000000E-01
  3.54000000E-01  3.54000000E-01  3.54000000E-01  3.54000000E-01  3.54000000E-01
  3.54000000E-01  3.54000000E-01  3.54000000E-01  3.54000000E-01  3.54000000E-01
  3.54000000E-01  3.54000000E-01  3.54000000E-01  3.54000000E-01  3.54000000E-01
  3.54000000E-01  3.54000000E-01  3.54000000E-01  3.54000000E-01  3.54000000E-01
  3.54000000E-01  3.54000000E-01  3.54000000E-01  3.54000000E-01  3.54000000E-01
  3.54000000E-01  3.54000000E-01  3.54000000E-01  3.54000000E-01  3.54000000E-01
  3.54000000E-01  3.54000000E-01  3.54000000E-01  3.54000000E-01  3.54000000E-01
  3.54000000E-01  3.54000000E-01  3.54000000E-01  3.54000000E-01  3.54000000E-01
  3.54000000E-01  3.54000000E-01  3.54000000E-01  3.54000000E-01  3.54000000E-01
  3.54000000E-01  3.54000000E-01  3.54000000E-01  3.54000000E-01  3.54000000E-01
  3.54000000E-01  3.54000000E-01  3.54000000E-01  3.54000000E-01  3.54000000E-01
  3.54000000E-01  3.54000000E-01  3.54000000E-01  3.54000000E-01  3.54000000E-01
  3.54000000E-01  3.54000000E-01  3.54000000E-01  3.54000000E-01  3.54000000E-01
  3.54000000E-01  3.54000000E-01  3.54000000E-01  3.54000000E-01  3.54000000E-01
  3.54000000E-01  3.54000000E-01  3.54000000E-01  3.54000000E-01  3.54000000E-01
  3.54000000E-01  3.54000000E-01  3.54000000E-01  3.54000000E-01  3.54000000E-01
  3.54000000E-01  3.54000000E-01  3.54000000E-01  3.54000000E-01  3.54000000E-01
  2.74000000E-01  2.96000000E-01  5.80000000E-02  4.40000000E-02  3.90000000E-02
  3.90000000E-02  3.60000000E-02  3.20000000E-02  2.90000000E-02  3.30000000E-02
  5.50000000E-02  3.90000000E-02  3.30000000E-02  3.00000000E-02  2.80000000E-02
  2.60000000E-02  2.50000000E-02  2.50000000E-02  4.50000000E-02  4.40000000E-02
  3.30000000E-02  2.50000000E-02  2.10000000E-02  1.80000000E-02  1.50000000E-02
  1.80000000E-02  2.10000000E-02  2.50000000E-02  3.30000000E-02  5.00000000E-02
  3.80000000E-02  3.10000000E-02  2.70000000E-02  2.40000000E-02  2.20000000E-02
  2.10000000E-02  4.30000000E-02  4.00000000E-02  3.20000000E-02  2.50000000E-02
  2.10000000E-02  1.80000000E-02  1.60000000E-02  1.90000000E-02  2.20000000E-02
  2.80000000E-02  3.10000000E-02  4.70000000E-02  3.40000000E-02  2.80000000E-02
  2.40000000E-02  2.10000000E-02  1.90000000E-02  1.80000000E-02  3.90000000E-02
  3.60000000E-02  2.50000000E-02  2.50000000E-02  2.50000000E-02  2.60000000E-02
  2.60000000E-02  2.60000000E-02  2.70000000E-02  2.70000000E-02  2.70000000E-02
  2.70000000E-02  2.80000000E-02  2.80000000E-02  2.80000000E-02  3.30000000E-02
  3.30000000E-02  2.60000000E-02  2.10000000E-02  1.80000000E-02  1.60000000E-02
  1.80000000E-02  2.20000000E-02  2.60000000E-02  4.90000000E-02  8.20000000E-02
  3.00000000E-02  2.40000000E-02  2.10000000E-02  1.80000000E-02  1.60000000E-02
  1.50000000E-02  3.50000000E-02  3.60000000E-02  2.20000000E-02  2.30000000E-02
  2.40000000E-02  2.40000000E-02  2.50000000E-02  2.50000000E-02  2.60000000E-02
  2.70000000E-02  2.70000000E-02  2.80000000E-02  2.80000000E-02  2.90000000E-02
  3.00000000E-02  3.00000000E-02  3.10000000E-02  3.10000000E-02  3.10000000E-02
  3.10000000E-02  3.10000000E-02  3.10000000E-02  3.10000000E-02  3.10000000E-02
  3.10000000E-02  3.10000000E-02  3.10000000E-02  3.10000000E-02  3.10000000E-02
  3.10000000E-02  3.10000000E-02  3.10000000E-02  3.10000000E-02  3.10000000E-02
  3.10000000E-02  3.10000000E-02  3.10000000E-02  3.10000000E-02  3.10000000E-02
  3.10000000E-02  3.10000000E-02  3.10000000E-02  3.10000000E-02  3.10000000E-02
  3.10000000E-02  3.10000000E-02  3.10000000E-02  3.10000000E-02  3.10000000E-02
  3.10000000E-02  3.10000000E-02  3.10000000E-02  3.10000000E-02  3.10000000E-02
  3.10000000E-02  3.10000000E-02  3.10000000E-02  3.10000000E-02  3.10000000E-02
  3.10000000E-02  3.10000000E-02  3.10000000E-02  3.10000000E-02  3.10000000E-02
  3.10000000E-02  3.10000000E-02  3.10000000E-02  3.10000000E-02  3.10000000E-02
  3.10000000E-02  3.10000000E-02  3.10000000E-02  3.10000000E-02  3.10000000E-02
  3.10000000E-02  3.10000000E-02  3.10000000E-02  3.10000000E-02  3.10000000E-02
  3.10000000E-02  3.10000000E-02  3.10000000E-02  3.10000000E-02  3.10000000E-02
  3.10000000E-02  3.10000000E-02  3.10000000E-02  3.10000000E-02  3.10000000E-02
  3.10000000E-02  3.10000000E-02  3.10000000E-02  3.10000000E-02  3.10000000E-02
  3.10000000E-02  3.10000000E-02  3.10000000E-02  3.10000000E-02  3.10000000E-02
  3.10000000E-02  3.10000000E-02  3.10000000E-02  3.10000000E-02  3.10000000E-02
  3.10000000E-02  3.10000000E-02  3.10000000E-02  3.10000000E-02  3.10000000E-02
  3.10000000E-02  3.10000000E-02  3.10000000E-02  3.10000000E-02  3.10000000E-02
 -5.92770000E-01 -9.17860000E-01 -2.48668000E+00 -8.36430000E-01 -3.18470000E-01
 -4.55790000E-01 -5.70730000E-01 -6.77940000E-01 -7.69860000E-01 -8.51140000E-01
 -1.51908000E+00 -3.18830000E-01 -2.17900000E-01 -3.01260000E-01 -3.72750000E-01
 -4.15890000E-01 -4.45930000E-01 -5.91320000E-01 -9.56370000E-01 -2.88450000E-01
 -4.87320000E-01 -6.34280000E-01 -7.17490000E-01 -7.91980000E-01 -8.68490000E-01
 -9.17520000E-01 -9.54890000E-01 -9.88460000E-01 -1.50055000E+00 -2.92560000E-01
 -2.14960000E-01 -2.91180000E-01 -3.42080000E-01 -3.84480000E-01 -4.34940000E-01
 -5.24310000E-01 -8.10070000E-01 -2.58460000E-01 -4.35550000E-01 -5.32740000E-01
 -6.08450000E-01 -6.10260000E-01 -7.58920000E-01 -8.90130000E-01 -8.45780000E-01
 -8.69340000E-01 -1.38234000E+00 -2.64850000E-01 -1.97280000E-01 -2.65040000E-01
 -2.94470000E-01 -3.16570000E-01 -3.63590000E-01 -4.57840000E-01 -8.61830000E-01
 -1.33004000E+00 -6.82880000E-01 -6.25540000E-01 -6.35430000E-01 -8.79690000E-01
 -9.02690000E-01 -9.59650000E-01 -1.01869000E+00 -6.81170000E-01 -7.96500000E-01
 -9.04950000E-01 -8.34790000E-01 -9.01560000E-01 -9.74130000E-01 -1.03326000E+00
 -7.15490000E-01 -7.83960000E-01 -8.28380000E-01 -5.61040000E-01 -1.03841000E+00
 -8.62500000E-01 -9.59300000E-01 -1.01755000E+00 -7.64900000E-01 -1.29467000E+00
 -1.92740000E-01 -2.56010000E-01 -3.19820000E-01 -1.94660000E-01 -2.60090000E-01
 -4.27990000E-01  0.00000000E+00  0.00000000E+00  0.00000000E+00  0.00000000E+00
  0.00000000E+00  0.00000000E+00  0.00000000E+00  0.00000000E+00  0.00000000E+00
  0.00000000E+00  0.00000000E+00  0.00000000E+00  0.00000000E+00  0.00000000E+00
  0.00000000E+00  0.00000000E+00  0.00000000E+00  0.00000000E+00  0.00000000E+00
  0.00000000E+00  0.00000000E+00  0.00000000E+00  0.00000000E+00  0.00000000E+00
  0.00000000E+00  0.00000000E+00  0.00000000E+00  0.00000000E+00  0.00000000E+00
  0.00000000E+00  0.00000000E+00  0.00000000E+00  0.00000000E+00  0.00000000E+00
  0.00000000E+00  0.00000000E+00  0.00000000E+00  0.00000000E+00  0.00000000E+00
  0.00000000E+00  0.00000000E+00  0.00000000E+00  0.00000000E+00  0.00000000E+00
  0.00000000E+00  0.00000000E+00  0.00000000E+00  0.00000000E+00  0.00000000E+00
  0.00000000E+00  0.00000000E+00  0.00000000E+00  0.00000000E+00  0.00000000E+00
  0.00000000E+00  0.00000000E+00  0.00000000E+00  0.00000000E+00  0.00000000E+00
  0.00000000E+00  0.00000000E+00  0.00000000E+00  0.00000000E+00  0.00000000E+00
  0.00000000E+00  0.00000000E+00  0.00000000E+00  0.00000000E+00  0.00000000E+00
  0.00000000E+00  0.00000000E+00  0.00000000E+00  0.00000000E+00  0.00000000E+00
  0.00000000E+00  0.00000000E+00  0.00000000E+00  0.00000000E+00  0.00000000E+00
  0.00000000E+00  0.00000000E+00  0.00000000E+00  0.00000000E+00  0.00000000E+00
  0.00000000E+00  0.00000000E+00  0.00000000E+00  0.00000000E+00  0.00000000E+00
  0.00000000E+00  0.00000000E+00  0.00000000E+00  0.00000000E+00  0.00000000E+00
  0.00000000E+00  0.00000000E+00  0.00000000E+00  0.00000000E+00  0.00000000E+00
  0.00000000E+00  0.00000000E+00  0.00000000E+00  0.00000000E+00  0.00000000E+00
  0.00000000E+00  0.00000000E+00  0.00000000E+00  0.00000000E+00  0.00000000E+00
  0.00000000E+00  0.00000000E+00  0.00000000E+00  0.00000000E+00  0.00000000E+00
  1.90440000E+00  1.36430000E+00  4.84000000E-01  7.31600000E+00  9.24030000E+00
  8.78200000E+00  5.61290000E+00  4.83340000E+00  3.24870000E+00  2.71090000E+00
  2.01130000E+00  1.50282000E+01  1.46788000E+01  2.13546000E+01  2.38290000E+01
  1.98022000E+01  1.50468000E+01  1.09745000E+01  1.27219000E+01  1.51949000E+01
  1.57342000E+01  2.79222000E+01  1.61366000E+01  2.21252000E+01  2.45676000E+01
  1.96016000E+01  1.79818000E+01  1.72396000E+01  5.01500000E+00  1.92898000E+01
  2.34477000E+01  2.23993000E+01  2.96586000E+01  2.60081000E+01  2.15580000E+01
  1.69594000E+01  1.56479000E+01  1.86897000E+01  1.93530000E+01  3.43444000E+01
  1.98480000E+01  2.72140000E+01  3.02182000E+01  2.41099000E+01  2.21176000E+01
  2.12047000E+01  7.56690000E+00  2.37264000E+01  2.93879000E+01  3.01278000E+01
  4.19382000E+01  3.85203000E+01  3.39511000E+01  2.75774000E+01  1.56460000E+01
  1.04460000E+01  2.01830000E+01  4.99540000E+01  4.76430000E+01  1.18690000E+01
  1.08670000E+01  9.96100000E+00  9.18700000E+00  3.67980000E+01  1.34070000E+01
  9.38200000E+00  9.81700000E+00  8.90800000E+00  8.40700000E+00  8.05800000E+00
  1.29600000E+01  2.67920000E+01  2.49300000E+01  3.45630000E+01  1.11860000E+01
  1.09440000E+01  1.01270000E+01  9.40400000E+00  1.36660000E+01  7.81000000E+00
  6.93600000E+01  5.86630000E+01  4.79690000E+01  4.52740000E+01  3.92290000E+01
  3.30660000E+01  0.00000000E+00  0.00000000E+00  0.00000000E+00  0.00000000E+00
  0.00000000E+00  0.00000000E+00  0.00000000E+00  0.00000000E+00  0.00000000E+00
  0.00000000E+00  0.00000000E+00  0.00000000E+00  0.00000000E+00  0.00000000E+00
  0.00000000E+00  0.00000000E+00  0.00000000E+00  0.00000000E+00  0.00000000E+00
  0.00000000E+00  0.00000000E+00  0.00000000E+00  0.00000000E+00  0.00000000E+00
  0.00000000E+00  0.00000000E+00  0.00000000E+00  0.00000000E+00  0.00000000E+00
  0.00000000E+00  0.00000000E+00  0.00000000E+00  0.00000000E+00  0.00000000E+00
  0.00000000E+00  0.00000000E+00  0.00000000E+00  0.00000000E+00  0.00000000E+00
  0.00000000E+00  0.00000000E+00  0.00000000E+00  0.00000000E+00  0.00000000E+00
  0.00000000E+00  0.00000000E+00  0.00000000E+00  0.00000000E+00  0.00000000E+00
  0.00000000E+00  0.00000000E+00  0.00000000E+00  0.00000000E+00  0.00000000E+00
  0.00000000E+00  0.00000000E+00  0.00000000E+00  0.00000000E+00  0.00000000E+00
  0.00000000E+00  0.00000000E+00  0.00000000E+00  0.00000000E+00  0.00000000E+00
  0.00000000E+00  0.00000000E+00  0.00000000E+00  0.00000000E+00  0.00000000E+00
  0.00000000E+00  0.00000000E+00  0.00000000E+00  0.00000000E+00  0.00000000E+00
  0.00000000E+00  0.00000000E+00  0.00000000E+00  0.00000000E+00  0.00000000E+00
  0.00000000E+00  0.00000000E+00  0.00000000E+00  0.00000000E+00  0.00000000E+00
  0.00000000E+00  0.00000000E+00  0.00000000E+00  0.00000000E+00  0.00000000E+00
  0.00000000E+00  0.00000000E+00  0.00000000E+00  0.00000000E+00  0.00000000E+00
  0.00000000E+00  0.00000000E+00  0.00000000E+00  0.00000000E+00  0.00000000E+00
  0.00000000E+00  0.00000000E+00  0.00000000E+00  0.00000000E+00  0.00000000E+00
  0.00000000E+00  0.00000000E+00  0.00000000E+00  0.00000000E+00  0.00000000E+00
  0.00000000E+00  0.00000000E+00  0.00000000E+00  0.00000000E+00  0.00000000E+00
  0.00000000E+00  0.00000000E+00  0.00000000E+00  0.00000000E+00  0.00000000E+00
  0.00000000E+00  0.00000000E+00  0.00000000E+00  0.00000000E+00  0.00000000E+00
  0.00000000E+00  0.00000000E+00  0.00000000E+00  0.00000000E+00  0.00000000E+00
  0.00000000E+00  0.00000000E+00  0.00000000E+00  0.00000000E+00  0.00000000E+00
  0.00000000E+00  0.00000000E+00  0.00000000E+00  0.00000000E+00  0.00000000E+00
  0.00000000E+00  0.00000000E+00  0.00000000E+00  0.00000000E+00  0.00000000E+00
  0.00000000E+00  0.00000000E+00  0.00000000E+00  0.00000000E+00  0.00000000E+00
  0.00000000E+00  0.00000000E+00  0.00000000E+00  0.00000000E+00  0.00000000E+00
  0.00000000E+00  0.00000000E+00  0.00000000E+00  0.00000000E+00  0.00000000E+00
  0.00000000E+00  0.00000000E+00  0.00000000E+00  0.00000000E+00  0.00000000E+00
  0.00000000E+00  0.00000000E+00  0.00000000E+00  0.00000000E+00  0.00000000E+00
  0.00000000E+00  0.00000000E+00  0.00000000E+00  0.00000000E+00  0.00000000E+00
  0.00000000E+00  0.00000000E+00  0.00000000E+00  0.00000000E+00  0.00000000E+00
  0.00000000E+00  0.00000000E+00  0.00000000E+00  0.00000000E+00  0.00000000E+00
  0.00000000E+00  0.00000000E+00  0.00000000E+00  0.00000000E+00  0.00000000E+00
  0.00000000E+00  0.00000000E+00  0.00000000E+00  0.00000000E+00  0.00000000E+00
  0.00000000E+00  0.00000000E+00  0.00000000E+00  0.00000000E+00  0.00000000E+00
  0.00000000E+00  0.00000000E+00  0.00000000E+00  0.00000000E+00  0.00000000E+00
  0.00000000E+00  0.00000000E+00  0.00000000E+00  0.00000000E+00  0.00000000E+00
  0.00000000E+00  0.00000000E+00  0.00000000E+00  0.00000000E+00  0.00000000E+00
  0.00000000E+00  0.00000000E+00  0.00000000E+00  0.00000000E+00  0.00000000E+00
  0.00000000E+00  0.00000000E+00  0.00000000E+00  0.00000000E+00  0.00000000E+00
  0.00000000E+00  0.00000000E+00  0.00000000E+00  0.00000000E+00  0.00000000E+00
  0.00000000E+00  0.00000000E+00  0.00000000E+00  0.00000000E+00  0.00000000E+00
  0.00000000E+00  0.00000000E+00  0.00000000E+00  0.00000000E+00  0.00000000E+00
  0.00000000E+00  0.00000000E+00  0.00000000E+00  0.00000000E+00  0.00000000E+00
  0.00000000E+00  0.00000000E+00  0.00000000E+00  0.00000000E+00  0.00000000E+00
  0.00000000E+00  0.00000000E+00  0.00000000E+00  0.00000000E+00  0.00000000E+00
  0.00000000E+00  0.00000000E+00  0.00000000E+00  0.00000000E+00  0.00000000E+00
  0.00000000E+00  0.00000000E+00  0.00000000E+00  0.00000000E+00  0.00000000E+00
  0.00000000E+00  0.00000000E+00  0.00000000E+00  0.00000000E+00  0.00000000E+00
  0.00000000E+00  0.00000000E+00  0.00000000E+00  0.00000000E+00  0.00000000E+00
  0.00000000E+00  0.00000000E+00  0.00000000E+00  0.00000000E+00  0.00000000E+00
  0.00000000E+00  0.00000000E+00  0.00000000E+00  0.00000000E+00  0.00000000E+00
  0.00000000E+00  0.00000000E+00  0.00000000E+00  0.00000000E+00  0.00000000E+00
  0.00000000E+00  0.00000000E+00  0.00000000E+00  0.00000000E+00  0.00000000E+00
  0.00000000E+00  0.00000000E+00  0.00000000E+00  0.00000000E+00  0.00000000E+00
  0.00000000E+00  0.00000000E+00  0.00000000E+00  0.00000000E+00  0.00000000E+00
  0.00000000E+00  0.00000000E+00  0.00000000E+00  0.00000000E+00  0.00000000E+00
  0.00000000E+00  0.00000000E+00  0.00000000E+00  0.00000000E+00  0.00000000E+00
  0.00000000E+00  0.00000000E+00  0.00000000E+00  0.00000000E+00  0.00000000E+00
  0.00000000E+00  0.00000000E+00  0.00000000E+00  0.00000000E+00  0.00000000E+00
  0.00000000E+00  0.00000000E+00  0.00000000E+00  0.00000000E+00  0.00000000E+00
  0.00000000E+00  0.00000000E+00  0.00000000E+00  0.00000000E+00  0.00000000E+00
  0.00000000E+00  0.00000000E+00  0.00000000E+00  0.00000000E+00  0.00000000E+00
  0.00000000E+00  0.00000000E+00  0.00000000E+00  0.00000000E+00  0.00000000E+00
  0.00000000E+00  0.00000000E+00  0.00000000E+00  0.00000000E+00  0.00000000E+00
  0.00000000E+00  0.00000000E+00  0.00000000E+00  0.00000000E+00  0.00000000E+00
  0.00000000E+00  0.00000000E+00  0.00000000E+00  0.00000000E+00  0.00000000E+00
  0.00000000E+00  0.00000000E+00  0.00000000E+00  0.00000000E+00  0.00000000E+00
  0.00000000E+00  0.00000000E+00  0.00000000E+00  0.00000000E+00  0.00000000E+00
  0.00000000E+00  0.00000000E+00  0.00000000E+00  0.00000000E+00  0.00000000E+00
  0.00000000E+00  0.00000000E+00  0.00000000E+00  0.00000000E+00  0.00000000E+00
  0.00000000E+00  0.00000000E+00  0.00000000E+00  0.00000000E+00  0.00000000E+00
  0.00000000E+00  0.00000000E+00  0.00000000E+00  0.00000000E+00  0.00000000E+00
  0.00000000E+00  0.00000000E+00  0.00000000E+00  0.00000000E+00  0.00000000E+00
  0.00000000E+00  0.00000000E+00  0.00000000E+00  0.00000000E+00  0.00000000E+00
  0.00000000E+00  0.00000000E+00  0.00000000E+00  0.00000000E+00  0.00000000E+00
  0.00000000E+00  0.00000000E+00  0.00000000E+00  0.00000000E+00  0.00000000E+00
  0.00000000E+00  0.00000000E+00  0.00000000E+00  0.00000000E+00  0.00000000E+00
  0.00000000E+00  0.00000000E+00  0.00000000E+00  0.00000000E+00  0.00000000E+00
  0.00000000E+00  0.00000000E+00  0.00000000E+00  0.00000000E+00  0.00000000E+00
  0.00000000E+00  0.00000000E+00  0.00000000E+00  0.00000000E+00  0.00000000E+00
  0.00000000E+00  0.00000000E+00  0.00000000E+00  0.00000000E+00  0.00000000E+00
  0.00000000E+00  0.00000000E+00  0.00000000E+00  0.00000000E+00  0.00000000E+00
  0.00000000E+00  0.00000000E+00  0.00000000E+00  0.00000000E+00  0.00000000E+00
  0.00000000E+00  0.00000000E+00  0.00000000E+00  0.00000000E+00  0.00000000E+00
  0.00000000E+00  0.00000000E+00  0.00000000E+00  0.00000000E+00  0.00000000E+00
  0.00000000E+00  0.00000000E+00  0.00000000E+00  0.00000000E+00  0.00000000E+00
  0.00000000E+00  0.00000000E+00  0.00000000E+00  0.00000000E+00  0.00000000E+00
  0.00000000E+00  0.00000000E+00  0.00000000E+00  0.00000000E+00  0.00000000E+00
  0.00000000E+00  0.00000000E+00  0.00000000E+00  0.00000000E+00  0.00000000E+00
  0.00000000E+00  0.00000000E+00  0.00000000E+00  0.00000000E+00  0.00000000E+00
  0.00000000E+00  0.00000000E+00  0.00000000E+00  0.00000000E+00  0.00000000E+00
  0.00000000E+00  0.00000000E+00  0.00000000E+00  0.00000000E+00  0.00000000E+00
  0.00000000E+00  0.00000000E+00  0.00000000E+00  0.00000000E+00  0.00000000E+00
  0.00000000E+00  0.00000000E+00  0.00000000E+00  0.00000000E+00  0.00000000E+00
  0.00000000E+00  0.00000000E+00  0.00000000E+00  0.00000000E+00  0.00000000E+00
  0.00000000E+00  0.00000000E+00  0.00000000E+00  0.00000000E+00  0.00000000E+00
  0.00000000E+00  0.00000000E+00  0.00000000E+00  0.00000000E+00  0.00000000E+00
  0.00000000E+00  0.00000000E+00  0.00000000E+00  0.00000000E+00  0.00000000E+00
  0.00000000E+00  0.00000000E+00  0.00000000E+00  0.00000000E+00  0.00000000E+00
  0.00000000E+00  0.00000000E+00  0.00000000E+00  0.00000000E+00  0.00000000E+00
  0.00000000E+00  0.00000000E+00  0.00000000E+00  0.00000000E+00  0.00000000E+00
  0.00000000E+00  0.00000000E+00  0.00000000E+00  0.00000000E+00  0.00000000E+00
  0.00000000E+00  0.00000000E+00  0.00000000E+00  0.00000000E+00  0.00000000E+00
  0.00000000E+00  0.00000000E+00  0.00000000E+00  0.00000000E+00  0.00000000E+00
  0.00000000E+00  0.00000000E+00  0.00000000E+00  0.00000000E+00  0.00000000E+00
  0.00000000E+00  0.00000000E+00  0.00000000E+00  0.00000000E+00  0.00000000E+00
  0.00000000E+00  0.00000000E+00  0.00000000E+00  0.00000000E+00  0.00000000E+00
  0.00000000E+00  0.00000000E+00  0.00000000E+00  0.00000000E+00  0.00000000E+00
  0.00000000E+00  0.00000000E+00  0.00000000E+00  0.00000000E+00  0.00000000E+00
  0.00000000E+00  0.00000000E+00  0.00000000E+00  0.00000000E+00  0.00000000E+00
  0.00000000E+00  0.00000000E+00  0.00000000E+00  0.00000000E+00  0.00000000E+00
  0.00000000E+00  0.00000000E+00  0.00000000E+00  0.00000000E+00  0.00000000E+00
  0.00000000E+00  0.00000000E+00  0.00000000E+00  0.00000000E+00  0.00000000E+00
  0.00000000E+00  0.00000000E+00  0.00000000E+00  0.00000000E+00  0.00000000E+00
  0.00000000E+00  0.00000000E+00  0.00000000E+00  0.00000000E+00  0.00000000E+00
  0.00000000E+00  0.00000000E+00  0.00000000E+00  0.00000000E+00  0.00000000E+00
  0.00000000E+00  0.00000000E+00  0.00000000E+00  0.00000000E+00  0.00000000E+00
  0.00000000E+00  0.00000000E+00  0.00000000E+00  0.00000000E+00  0.00000000E+00
  0.00000000E+00  0.00000000E+00  0.00000000E+00  0.00000000E+00  0.00000000E+00
  0.00000000E+00  0.00000000E+00  0.00000000E+00  0.00000000E+00  0.00000000E+00
  0.00000000E+00  0.00000000E+00  0.00000000E+00  0.00000000E+00  0.00000000E+00
  0.00000000E+00  0.00000000E+00  0.00000000E+00  0.00000000E+00  0.00000000E+00
  0.00000000E+00  0.00000000E+00  0.00000000E+00  0.00000000E+00  0.00000000E+00
  0.00000000E+00  0.00000000E+00  0.00000000E+00  0.00000000E+00  0.00000000E+00
  0.00000000E+00  0.00000000E+00  0.00000000E+00  0.00000000E+00  0.00000000E+00
  0.00000000E+00  0.00000000E+00  0.00000000E+00  0.00000000E+00  0.00000000E+00
  0.00000000E+00  0.00000000E+00  0.00000000E+00  0.00000000E+00  0.00000000E+00
  0.00000000E+00  0.00000000E+00  0.00000000E+00  0.00000000E+00  0.00000000E+00
  0.00000000E+00  0.00000000E+00  0.00000000E+00  0.00000000E+00  0.00000000E+00
  0.00000000E+00  0.00000000E+00  0.00000000E+00  0.00000000E+00  0.00000000E+00
  0.00000000E+00  0.00000000E+00  0.00000000E+00  0.00000000E+00  0.00000000E+00
  0.00000000E+00  0.00000000E+00  0.00000000E+00  0.00000000E+00  0.00000000E+00
  0.00000000E+00  0.00000000E+00  0.00000000E+00  0.00000000E+00  0.00000000E+00
  0.00000000E+00  0.00000000E+00  0.00000000E+00  0.00000000E+00  0.00000000E+00
  0.00000000E+00  0.00000000E+00  0.00000000E+00  0.00000000E+00  0.00000000E+00
  0.00000000E+00  0.00000000E+00  0.00000000E+00  0.00000000E+00  0.00000000E+00
  0.00000000E+00  0.00000000E+00  0.00000000E+00  0.00000000E+00  0.00000000E+00
  0.00000000E+00  0.00000000E+00  0.00000000E+00  0.00000000E+00  0.00000000E+00
  0.00000000E+00  0.00000000E+00  0.00000000E+00  0.00000000E+00  0.00000000E+00
  0.00000000E+00  0.00000000E+00  0.00000000E+00  0.00000000E+00  0.00000000E+00
  0.00000000E+00  0.00000000E+00  0.00000000E+00  0.00000000E+00  0.00000000E+00
  0.00000000E+00  0.00000000E+00  0.00000000E+00  0.00000000E+00  0.00000000E+00
  0.00000000E+00  0.00000000E+00  0.00000000E+00  0.00000000E+00  0.00000000E+00
  0.00000000E+00  0.00000000E+00  0.00000000E+00  0.00000000E+00  0.00000000E+00
  0.00000000E+00  0.00000000E+00  0.00000000E+00  0.00000000E+00  0.00000000E+00
  0.00000000E+00  0.00000000E+00  0.00000000E+00  0.00000000E+00  0.00000000E+00
  0.00000000E+00  0.00000000E+00  0.00000000E+00  0.00000000E+00  0.00000000E+00
  0.00000000E+00  0.00000000E+00  0.00000000E+00  0.00000000E+00  0.00000000E+00
  0.00000000E+00  0.00000000E+00  0.00000000E+00  0.00000000E+00  0.00000000E+00
  0.00000000E+00  0.00000000E+00  0.00000000E+00  0.00000000E+00  0.00000000E+00
  0.00000000E+00  0.00000000E+00  0.00000000E+00  0.00000000E+00  0.00000000E+00
  0.00000000E+00  0.00000000E+00  0.00000000E+00  0.00000000E+00  0.00000000E+00
  0.00000000E+00  0.00000000E+00  0.00000000E+00  0.00000000E+00  0.00000000E+00
  0.00000000E+00  0.00000000E+00  0.00000000E+00  0.00000000E+00  0.00000000E+00
  0.00000000E+00  0.00000000E+00  0.00000000E+00  0.00000000E+00  0.00000000E+00
  0.00000000E+00  0.00000000E+00  0.00000000E+00  0.00000000E+00  0.00000000E+00
  0.00000000E+00  0.00000000E+00  0.00000000E+00  0.00000000E+00  0.00000000E+00
  0.00000000E+00  0.00000000E+00  0.00000000E+00  0.00000000E+00  0.00000000E+00
  0.00000000E+00  0.00000000E+00  0.00000000E+00  0.00000000E+00  0.00000000E+00
  0.00000000E+00  0.00000000E+00  0.00000000E+00  0.00000000E+00  0.00000000E+00
  0.00000000E+00  0.00000000E+00  0.00000000E+00  0.00000000E+00  0.00000000E+00
  0.00000000E+00  0.00000000E+00  0.00000000E+00  0.00000000E+00  0.00000000E+00
  0.00000000E+00  0.00000000E+00  0.00000000E+00  0.00000000E+00  0.00000000E+00
  0.00000000E+00  0.00000000E+00  0.00000000E+00  0.00000000E+00  0.00000000E+00
  0.00000000E+00  0.00000000E+00  0.00000000E+00  0.00000000E+00  0.00000000E+00
  0.00000000E+00  0.00000000E+00  0.00000000E+00  0.00000000E+00  0.00000000E+00
  0.00000000E+00  0.00000000E+00  0.00000000E+00  0.00000000E+00  0.00000000E+00
  0.00000000E+00  0.00000000E+00  0.00000000E+00  0.00000000E+00  0.00000000E+00
  0.00000000E+00  0.00000000E+00  0.00000000E+00  0.00000000E+00  0.00000000E+00
  0.00000000E+00  0.00000000E+00  0.00000000E+00  0.00000000E+00  0.00000000E+00
  0.00000000E+00  0.00000000E+00  0.00000000E+00  0.00000000E+00  0.00000000E+00
  0.00000000E+00  0.00000000E+00  0.00000000E+00  0.00000000E+00  0.00000000E+00
  0.00000000E+00  0.00000000E+00  0.00000000E+00  0.00000000E+00  0.00000000E+00
  0.00000000E+00  0.00000000E+00  0.00000000E+00  0.00000000E+00  0.00000000E+00
  0.00000000E+00  0.00000000E+00  0.00000000E+00  0.00000000E+00  0.00000000E+00
  0.00000000E+00  0.00000000E+00  0.00000000E+00  0.00000000E+00  0.00000000E+00
  0.00000000E+00  0.00000000E+00  0.00000000E+00  0.00000000E+00  0.00000000E+00
  0.00000000E+00  0.00000000E+00  0.00000000E+00  0.00000000E+00  0.00000000E+00
  0.00000000E+00  0.00000000E+00  0.00000000E+00  0.00000000E+00  0.00000000E+00
  0.00000000E+00  0.00000000E+00  0.00000000E+00  0.00000000E+00  0.00000000E+00
  0.00000000E+00  0.00000000E+00  0.00000000E+00  0.00000000E+00  0.00000000E+00
  0.00000000E+00  0.00000000E+00  0.00000000E+00  0.00000000E+00  0.00000000E+00
  0.00000000E+00  0.00000000E+00  0.00000000E+00  0.00000000E+00  0.00000000E+00
  0.00000000E+00  0.00000000E+00  0.00000000E+00  0.00000000E+00  0.00000000E+00
  0.00000000E+00  0.00000000E+00  0.00000000E+00  0.00000000E+00  0.00000000E+00
  0.00000000E+00  0.00000000E+00  0.00000000E+00  0.00000000E+00  0.00000000E+00
  0.00000000E+00  0.00000000E+00  0.00000000E+00  0.00000000E+00  0.00000000E+00
  0.00000000E+00  0.00000000E+00  0.00000000E+00  0.00000000E+00  0.00000000E+00
  0.00000000E+00  0.00000000E+00  0.00000000E+00  0.00000000E+00  0.00000000E+00
  0.00000000E+00  0.00000000E+00  0.00000000E+00  0.00000000E+00  0.00000000E+00
  0.00000000E+00  0.00000000E+00  0.00000000E+00  0.00000000E+00  0.00000000E+00
  0.00000000E+00  0.00000000E+00  0.00000000E+00  0.00000000E+00  0.00000000E+00
  0.00000000E+00  0.00000000E+00  0.00000000E+00  0.00000000E+00  0.00000000E+00
  0.00000000E+00  0.00000000E+00  0.00000000E+00  0.00000000E+00  0.00000000E+00
  0.00000000E+00  0.00000000E+00  0.00000000E+00  0.00000000E+00  0.00000000E+00
  0.00000000E+00  0.00000000E+00  0.00000000E+00  0.00000000E+00  0.00000000E+00
  0.00000000E+00  0.00000000E+00  0.00000000E+00  0.00000000E+00  0.00000000E+00
  0.00000000E+00  0.00000000E+00  0.00000000E+00  0.00000000E+00  0.00000000E+00
  0.00000000E+00  0.00000000E+00  0.00000000E+00  0.00000000E+00  0.00000000E+00
  0.00000000E+00  0.00000000E+00  0.00000000E+00  0.00000000E+00  0.00000000E+00
  0.00000000E+00  0.00000000E+00  0.00000000E+00  0.00000000E+00  0.00000000E+00
  0.00000000E+00  0.00000000E+00  0.00000000E+00  0.00000000E+00  0.00000000E+00
  0.00000000E+00  0.00000000E+00  0.00000000E+00  0.00000000E+00  0.00000000E+00
  0.00000000E+00  0.00000000E+00  0.00000000E+00  0.00000000E+00  0.00000000E+00
  0.00000000E+00  0.00000000E+00  0.00000000E+00  0.00000000E+00  0.00000000E+00
  0.00000000E+00  0.00000000E+00  0.00000000E+00  0.00000000E+00  0.00000000E+00
  0.00000000E+00  0.00000000E+00  0.00000000E+00  0.00000000E+00  0.00000000E+00
  0.00000000E+00  0.00000000E+00  0.00000000E+00  0.00000000E+00  0.00000000E+00
  0.00000000E+00  0.00000000E+00  0.00000000E+00  0.00000000E+00  0.00000000E+00
  0.00000000E+00  0.00000000E+00  0.00000000E+00  0.00000000E+00  0.00000000E+00
  0.00000000E+00  0.00000000E+00  0.00000000E+00  0.00000000E+00  0.00000000E+00
  0.00000000E+00  0.00000000E+00  0.00000000E+00  0.00000000E+00  0.00000000E+00
  0.00000000E+00  0.00000000E+00  0.00000000E+00  0.00000000E+00  0.00000000E+00
  0.00000000E+00  0.00000000E+00  0.00000000E+00  0.00000000E+00  0.00000000E+00
  0.00000000E+00  0.00000000E+00  0.00000000E+00  0.00000000E+00  0.00000000E+00
  0.00000000E+00  0.00000000E+00  0.00000000E+00  0.00000000E+00  0.00000000E+00
  0.00000000E+00  0.00000000E+00  0.00000000E+00  0.00000000E+00  0.00000000E+00
  0.00000000E+00  0.00000000E+00  0.00000000E+00  0.00000000E+00  0.00000000E+00
  0.00000000E+00  0.00000000E+00  0.00000000E+00  0.00000000E+00  0.00000000E+00
  0.00000000E+00  0.00000000E+00  0.00000000E+00  0.00000000E+00  0.00000000E+00
  0.00000000E+00  0.00000000E+00  0.00000000E+00  0.00000000E+00  0.00000000E+00
  0.00000000E+00  0.00000000E+00  0.00000000E+00  0.00000000E+00  0.00000000E+00
  0.00000000E+00  0.00000000E+00  0.00000000E+00  0.00000000E+00  0.00000000E+00
  0.00000000E+00  0.00000000E+00  0.00000000E+00  0.00000000E+00  0.00000000E+00
  0.00000000E+00  0.00000000E+00  0.00000000E+00  0.00000000E+00  0.00000000E+00
  0.00000000E+00  0.00000000E+00  0.00000000E+00  0.00000000E+00  0.00000000E+00
  0.00000000E+00  0.00000000E+00  0.00000000E+00  0.00000000E+00  0.00000000E+00
  0.00000000E+00  0.00000000E+00  0.00000000E+00  0.00000000E+00  0.00000000E+00
  0.00000000E+00  0.00000000E+00  0.00000000E+00  0.00000000E+00  0.00000000E+00
  0.00000000E+00  0.00000000E+00  0.00000000E+00  0.00000000E+00  0.00000000E+00
  0.00000000E+00  0.00000000E+00  0.00000000E+00  0.00000000E+00  0.00000000E+00
  0.00000000E+00  0.00000000E+00  0.00000000E+00  0.00000000E+00  0.00000000E+00
  0.00000000E+00  0.00000000E+00  0.00000000E+00  0.00000000E+00  0.00000000E+00
  0.00000000E+00  0.00000000E+00  0.00000000E+00  0.00000000E+00  0.00000000E+00
  0.00000000E+00  0.00000000E+00  0.00000000E+00  0.00000000E+00  0.00000000E+00
  0.00000000E+00  0.00000000E+00  0.00000000E+00  0.00000000E+00  0.00000000E+00
  0.00000000E+00  0.00000000E+00  0.00000000E+00  0.00000000E+00  0.00000000E+00
  0.00000000E+00  0.00000000E+00  0.00000000E+00  0.00000000E+00  0.00000000E+00
  0.00000000E+00  0.00000000E+00  0.00000000E+00  0.00000000E+00  0.00000000E+00
  0.00000000E+00  0.00000000E+00  0.00000000E+00  0.00000000E+00  0.00000000E+00
  0.00000000E+00  0.00000000E+00  0.00000000E+00  0.00000000E+00  0.00000000E+00
  0.00000000E+00  0.00000000E+00  0.00000000E+00  0.00000000E+00  0.00000000E+00
  0.00000000E+00  0.00000000E+00  0.00000000E+00  0.00000000E+00  0.00000000E+00
  0.00000000E+00  0.00000000E+00  0.00000000E+00  0.00000000E+00  0.00000000E+00
  0.00000000E+00  0.00000000E+00  0.00000000E+00  0.00000000E+00  0.00000000E+00
  0.00000000E+00  0.00000000E+00  0.00000000E+00  0.00000000E+00  0.00000000E+00
  0.00000000E+00  0.00000000E+00  0.00000000E+00  0.00000000E+00  0.00000000E+00
  0.00000000E+00  0.00000000E+00  0.00000000E+00  0.00000000E+00  0.00000000E+00
  0.00000000E+00  0.00000000E+00  0.00000000E+00  0.00000000E+00  0.00000000E+00
  0.00000000E+00  0.00000000E+00  0.00000000E+00  0.00000000E+00  0.00000000E+00
  0.00000000E+00  0.00000000E+00  0.00000000E+00  0.00000000E+00  0.00000000E+00
  0.00000000E+00  0.00000000E+00  0.00000000E+00  0.00000000E+00  0.00000000E+00
  0.00000000E+00  0.00000000E+00  0.00000000E+00  0.00000000E+00  0.00000000E+00
  0.00000000E+00  0.00000000E+00  0.00000000E+00  0.00000000E+00  0.00000000E+00
  0.00000000E+00  0.00000000E+00  0.00000000E+00  0.00000000E+00  0.00000000E+00
  0.00000000E+00  0.00000000E+00  0.00000000E+00  0.00000000E+00  0.00000000E+00
  0.00000000E+00  0.00000000E+00  0.00000000E+00  0.00000000E+00  0.00000000E+00
  0.00000000E+00  0.00000000E+00  0.00000000E+00  0.00000000E+00  0.00000000E+00
  0.00000000E+00  0.00000000E+00  0.00000000E+00  0.00000000E+00  0.00000000E+00
  0.00000000E+00  0.00000000E+00  0.00000000E+00  0.00000000E+00  0.00000000E+00
  0.00000000E+00  0.00000000E+00  0.00000000E+00  0.00000000E+00  0.00000000E+00
  0.00000000E+00  0.00000000E+00  0.00000000E+00  0.00000000E+00  0.00000000E+00
  0.00000000E+00  0.00000000E+00  0.00000000E+00  0.00000000E+00  0.00000000E+00
  0.00000000E+00  0.00000000E+00  0.00000000E+00  0.00000000E+00  0.00000000E+00
  0.00000000E+00  0.00000000E+00  0.00000000E+00  0.00000000E+00  0.00000000E+00
  0.00000000E+00  0.00000000E+00  0.00000000E+00  0.00000000E+00  0.00000000E+00
  0.00000000E+00  0.00000000E+00  0.00000000E+00  0.00000000E+00  0.00000000E+00
  0.00000000E+00  0.00000000E+00  0.00000000E+00  0.00000000E+00  0.00000000E+00
  0.00000000E+00  0.00000000E+00  0.00000000E+00  0.00000000E+00  0.00000000E+00
  0.00000000E+00  0.00000000E+00  0.00000000E+00  0.00000000E+00  0.00000000E+00
  0.00000000E+00  0.00000000E+00  0.00000000E+00  0.00000000E+00  0.00000000E+00
  0.00000000E+00  0.00000000E+00  0.00000000E+00  0.00000000E+00  0.00000000E+00
  0.00000000E+00  0.00000000E+00  0.00000000E+00  0.00000000E+00  0.00000000E+00
  0.00000000E+00  0.00000000E+00  0.00000000E+00  0.00000000E+00  0.00000000E+00
  0.00000000E+00  0.00000000E+00  0.00000000E+00  0.00000000E+00  0.00000000E+00
  0.00000000E+00  0.00000000E+00  0.00000000E+00  0.00000000E+00  0.00000000E+00
  0.00000000E+00  0.00000000E+00  0.00000000E+00  0.00000000E+00  0.00000000E+00
  0.00000000E+00  0.00000000E+00  0.00000000E+00  0.00000000E+00  0.00000000E+00
  0.00000000E+00  0.00000000E+00  0.00000000E+00  0.00000000E+00  0.00000000E+00
  0.00000000E+00  0.00000000E+00  0.00000000E+00  0.00000000E+00  0.00000000E+00
  0.00000000E+00  0.00000000E+00  0.00000000E+00  0.00000000E+00  0.00000000E+00
  0.00000000E+00  0.00000000E+00  0.00000000E+00  0.00000000E+00  0.00000000E+00
  0.00000000E+00  0.00000000E+00  0.00000000E+00  0.00000000E+00  0.00000000E+00
  0.00000000E+00  0.00000000E+00  0.00000000E+00  0.00000000E+00  0.00000000E+00
  0.00000000E+00  0.00000000E+00  0.00000000E+00  0.00000000E+00  0.00000000E+00
  0.00000000E+00  0.00000000E+00  0.00000000E+00  0.00000000E+00  0.00000000E+00
  0.00000000E+00  0.00000000E+00  0.00000000E+00  0.00000000E+00  0.00000000E+00
  0.00000000E+00  0.00000000E+00  0.00000000E+00  0.00000000E+00  0.00000000E+00
  0.00000000E+00  0.00000000E+00  0.00000000E+00  0.00000000E+00  0.00000000E+00
  0.00000000E+00  0.00000000E+00  0.00000000E+00  0.00000000E+00  0.00000000E+00
  0.00000000E+00  0.00000000E+00  0.00000000E+00  0.00000000E+00  0.00000000E+00
  0.00000000E+00  0.00000000E+00  0.00000000E+00  0.00000000E+00  0.00000000E+00
  0.00000000E+00  0.00000000E+00  0.00000000E+00  0.00000000E+00  0.00000000E+00
  0.00000000E+00  0.00000000E+00  0.00000000E+00  0.00000000E+00  0.00000000E+00
  0.00000000E+00  0.00000000E+00  0.00000000E+00  0.00000000E+00  0.00000000E+00
  0.00000000E+00  0.00000000E+00  0.00000000E+00  0.00000000E+00  0.00000000E+00
  0.00000000E+00  0.00000000E+00  0.00000000E+00  0.00000000E+00  0.00000000E+00
  0.00000000E+00  0.00000000E+00  0.00000000E+00  0.00000000E+00  0.00000000E+00
  0.00000000E+00  0.00000000E+00  0.00000000E+00  0.00000000E+00  0.00000000E+00
  0.00000000E+00  0.00000000E+00  0.00000000E+00  0.00000000E+00  0.00000000E+00
  0.00000000E+00  0.00000000E+00  0.00000000E+00  0.00000000E+00  0.00000000E+00
  0.00000000E+00  0.00000000E+00  0.00000000E+00  0.00000000E+00  0.00000000E+00
  0.00000000E+00  0.00000000E+00  0.00000000E+00  0.00000000E+00  0.00000000E+00
  0.00000000E+00  0.00000000E+00  0.00000000E+00  0.00000000E+00  0.00000000E+00
  0.00000000E+00  0.00000000E+00  0.00000000E+00  0.00000000E+00  0.00000000E+00
  0.00000000E+00  0.00000000E+00  0.00000000E+00  0.00000000E+00  0.00000000E+00
  0.00000000E+00  0.00000000E+00  0.00000000E+00  0.00000000E+00  0.00000000E+00
  0.00000000E+00  0.00000000E+00  0.00000000E+00  0.00000000E+00  0.00000000E+00
  0.00000000E+00  0.00000000E+00  0.00000000E+00  0.00000000E+00  0.00000000E+00
  0.00000000E+00  0.00000000E+00  0.00000000E+00  0.00000000E+00  0.00000000E+00
  0.00000000E+00  0.00000000E+00  0.00000000E+00  0.00000000E+00  0.00000000E+00
  0.00000000E+00  0.00000000E+00  0.00000000E+00  0.00000000E+00  0.00000000E+00
  0.00000000E+00  0.00000000E+00  0.00000000E+00  0.00000000E+00  0.00000000E+00
  0.00000000E+00  0.00000000E+00  0.00000000E+00  0.00000000E+00  0.00000000E+00
  0.00000000E+00  0.00000000E+00  0.00000000E+00  0.00000000E+00  0.00000000E+00
  0.00000000E+00  0.00000000E+00  0.00000000E+00  0.00000000E+00  0.00000000E+00
  0.00000000E+00  0.00000000E+00  0.00000000E+00  0.00000000E+00  0.00000000E+00
  0.00000000E+00  0.00000000E+00  0.00000000E+00  0.00000000E+00  0.00000000E+00
  0.00000000E+00  0.00000000E+00  0.00000000E+00  0.00000000E+00  0.00000000E+00
  0.00000000E+00  0.00000000E+00  0.00000000E+00  0.00000000E+00  0.00000000E+00
  0.00000000E+00  0.00000000E+00  0.00000000E+00  0.00000000E+00  0.00000000E+00
  0.00000000E+00  0.00000000E+00  0.00000000E+00  0.00000000E+00  0.00000000E+00
  0.00000000E+00  0.00000000E+00  0.00000000E+00  0.00000000E+00  0.00000000E+00
  0.00000000E+00  0.00000000E+00  0.00000000E+00  0.00000000E+00  0.00000000E+00
  0.00000000E+00  0.00000000E+00  0.00000000E+00  0.00000000E+00  0.00000000E+00
  0.00000000E+00  0.00000000E+00  0.00000000E+00  0.00000000E+00  0.00000000E+00
  0.00000000E+00  0.00000000E+00  0.00000000E+00  0.00000000E+00  0.00000000E+00
  0.00000000E+00  0.00000000E+00  0.00000000E+00  0.00000000E+00  0.00000000E+00
  0.00000000E+00  0.00000000E+00  0.00000000E+00  0.00000000E+00  0.00000000E+00
  0.00000000E+00  0.00000000E+00  0.00000000E+00  0.00000000E+00  0.00000000E+00
  0.00000000E+00  0.00000000E+00  0.00000000E+00  0.00000000E+00  0.00000000E+00
  0.00000000E+00  0.00000000E+00  0.00000000E+00  0.00000000E+00  0.00000000E+00
  0.00000000E+00  0.00000000E+00  0.00000000E+00  0.00000000E+00  0.00000000E+00
  0.00000000E+00  0.00000000E+00  0.00000000E+00  0.00000000E+00  0.00000000E+00
  0.00000000E+00  0.00000000E+00  0.00000000E+00  0.00000000E+00  0.00000000E+00
  0.00000000E+00  0.00000000E+00  0.00000000E+00  0.00000000E+00  0.00000000E+00
  0.00000000E+00  0.00000000E+00  0.00000000E+00  0.00000000E+00  0.00000000E+00
  0.00000000E+00  0.00000000E+00  0.00000000E+00  0.00000000E+00  0.00000000E+00
  0.00000000E+00  0.00000000E+00  0.00000000E+00  0.00000000E+00  0.00000000E+00
  0.00000000E+00  0.00000000E+00  0.00000000E+00  0.00000000E+00  0.00000000E+00
  0.00000000E+00  0.00000000E+00  0.00000000E+00  0.00000000E+00  0.00000000E+00
  0.00000000E+00  0.00000000E+00  0.00000000E+00  0.00000000E+00  0.00000000E+00
  0.00000000E+00  0.00000000E+00  0.00000000E+00  0.00000000E+00  0.00000000E+00
  0.00000000E+00  0.00000000E+00  0.00000000E+00  0.00000000E+00  0.00000000E+00
  0.00000000E+00  0.00000000E+00  0.00000000E+00  0.00000000E+00  0.00000000E+00
  0.00000000E+00  0.00000000E+00  0.00000000E+00  0.00000000E+00  0.00000000E+00
  0.00000000E+00  0.00000000E+00  0.00000000E+00  0.00000000E+00  0.00000000E+00
  0.00000000E+00  0.00000000E+00  0.00000000E+00  0.00000000E+00  0.00000000E+00
  0.00000000E+00  0.00000000E+00  0.00000000E+00  0.00000000E+00  0.00000000E+00
  0.00000000E+00  0.00000000E+00  0.00000000E+00  0.00000000E+00  0.00000000E+00
  0.00000000E+00  0.00000000E+00  0.00000000E+00  0.00000000E+00  0.00000000E+00
  0.00000000E+00  0.00000000E+00  0.00000000E+00  0.00000000E+00  0.00000000E+00
  0.00000000E+00  0.00000000E+00  0.00000000E+00  0.00000000E+00  0.00000000E+00
  0.00000000E+00  0.00000000E+00  0.00000000E+00  0.00000000E+00  0.00000000E+00
  0.00000000E+00  0.00000000E+00  0.00000000E+00  0.00000000E+00  0.00000000E+00
  0.00000000E+00  0.00000000E+00  0.00000000E+00  0.00000000E+00  0.00000000E+00
  0.00000000E+00  0.00000000E+00  0.00000000E+00  0.00000000E+00  0.00000000E+00
  0.00000000E+00  0.00000000E+00  0.00000000E+00  0.00000000E+00  0.00000000E+00
  0.00000000E+00  0.00000000E+00  0.00000000E+00  0.00000000E+00  0.00000000E+00
  0.00000000E+00  0.00000000E+00  0.00000000E+00  0.00000000E+00  0.00000000E+00
  0.00000000E+00  0.00000000E+00  0.00000000E+00  0.00000000E+00  0.00000000E+00
  0.00000000E+00  0.00000000E+00  0.00000000E+00  0.00000000E+00  0.00000000E+00
  0.00000000E+00  0.00000000E+00  0.00000000E+00  0.00000000E+00  0.00000000E+00
  0.00000000E+00  0.00000000E+00  0.00000000E+00  0.00000000E+00  0.00000000E+00
  0.00000000E+00  0.00000000E+00  0.00000000E+00  0.00000000E+00  0.00000000E+00
  0.00000000E+00  0.00000000E+00  0.00000000E+00  0.00000000E+00  0.00000000E+00
  0.00000000E+00  0.00000000E+00  0.00000000E+00  0.00000000E+00  0.00000000E+00
  0.00000000E+00  0.00000000E+00  0.00000000E+00  0.00000000E+00  0.00000000E+00
  0.00000000E+00  0.00000000E+00  0.00000000E+00  0.00000000E+00  0.00000000E+00
  0.00000000E+00  0.00000000E+00  0.00000000E+00  0.00000000E+00  0.00000000E+00
  0.00000000E+00  0.00000000E+00  0.00000000E+00  0.00000000E+00  0.00000000E+00
  0.00000000E+00  0.00000000E+00  0.00000000E+00  0.00000000E+00  0.00000000E+00
  0.00000000E+00  0.00000000E+00  0.00000000E+00  0.00000000E+00  0.00000000E+00
  0.00000000E+00  0.00000000E+00  0.00000000E+00  0.00000000E+00  0.00000000E+00
  0.00000000E+00  0.00000000E+00  0.00000000E+00  0.00000000E+00  0.00000000E+00
  0.00000000E+00  0.00000000E+00  0.00000000E+00  0.00000000E+00  0.00000000E+00
  0.00000000E+00  0.00000000E+00  0.00000000E+00  0.00000000E+00  0.00000000E+00
Gaussian Version                           C   N=           2
EM64M-G16RevA.03        
