 Entering Gaussian System, Link 0=/applications/g16/g16/g16
 Initial command:
 /applications/g16/g16/l1.exe "/scratch/g98/Gau-45663.inp" -scrdir="/scratch/g98/"
 Entering Link 1 = /applications/g16/g16/l1.exe PID=     45664.
  
 Copyright (c) 1988,1990,1992,1993,1995,1998,2003,2009,2016,
            Gaussian, Inc.  All Rights Reserved.
  
 This is part of the Gaussian(R) 16 program.  It is based on
 the Gaussian(R) 09 system (copyright 2009, Gaussian, Inc.),
 the Gaussian(R) 03 system (copyright 2003, Gaussian, Inc.),
 the Gaussian(R) 98 system (copyright 1998, Gaussian, Inc.),
 the Gaussian(R) 94 system (copyright 1995, Gaussian, Inc.),
 the Gaussian 92(TM) system (copyright 1992, Gaussian, Inc.),
 the Gaussian 90(TM) system (copyright 1990, Gaussian, Inc.),
 the Gaussian 88(TM) system (copyright 1988, Gaussian, Inc.),
 the Gaussian 86(TM) system (copyright 1986, Carnegie Mellon
 University), and the Gaussian 82(TM) system (copyright 1983,
 Carnegie Mellon University). Gaussian is a federally registered
 trademark of Gaussian, Inc.
  
 This software contains proprietary and confidential information,
 including trade secrets, belonging to Gaussian, Inc.
  
 This software is provided under written license and may be
 used, copied, transmitted, or stored only in accord with that
 written license.
  
 The following legend is applicable only to US Government
 contracts under FAR:
  
                    RESTRICTED RIGHTS LEGEND
  
 Use, reproduction and disclosure by the US Government is
 subject to restrictions as set forth in subparagraphs (a)
 and (c) of the Commercial Computer Software - Restricted
 Rights clause in FAR 52.227-19.
  
 Gaussian, Inc.
 340 Quinnipiac St., Bldg. 40, Wallingford CT 06492
  
  
 ---------------------------------------------------------------
 Warning -- This program may not be used in any manner that
 competes with the business of Gaussian, Inc. or will provide
 assistance to any competitor of Gaussian, Inc.  The licensee
 of this program is prohibited from giving any competitor of
 Gaussian, Inc. access to this program.  By using this program,
 the user acknowledges that Gaussian, Inc. is engaged in the
 business of creating and licensing software in the field of
 computational chemistry and represents and warrants to the
 licensee that it is not a competitor of Gaussian, Inc. and that
 it will not use this program in any manner prohibited above.
 ---------------------------------------------------------------
  

 Cite this work as:
 Gaussian 16, Revision A.03,
 M. J. Frisch, G. W. Trucks, H. B. Schlegel, G. E. Scuseria, 
 M. A. Robb, J. R. Cheeseman, G. Scalmani, V. Barone, 
 G. A. Petersson, H. Nakatsuji, X. Li, M. Caricato, A. V. Marenich, 
 J. Bloino, B. G. Janesko, R. Gomperts, B. Mennucci, H. P. Hratchian, 
 J. V. Ortiz, A. F. Izmaylov, J. L. Sonnenberg, D. Williams-Young, 
 F. Ding, F. Lipparini, F. Egidi, J. Goings, B. Peng, A. Petrone, 
 T. Henderson, D. Ranasinghe, V. G. Zakrzewski, J. Gao, N. Rega, 
 G. Zheng, W. Liang, M. Hada, M. Ehara, K. Toyota, R. Fukuda, 
 J. Hasegawa, M. Ishida, T. Nakajima, Y. Honda, O. Kitao, H. Nakai, 
 T. Vreven, K. Throssell, J. A. Montgomery, Jr., J. E. Peralta, 
 F. Ogliaro, M. J. Bearpark, J. J. Heyd, E. N. Brothers, K. N. Kudin, 
 V. N. Staroverov, T. A. Keith, R. Kobayashi, J. Normand, 
 K. Raghavachari, A. P. Rendell, J. C. Burant, S. S. Iyengar, 
 J. Tomasi, M. Cossi, J. M. Millam, M. Klene, C. Adamo, R. Cammi, 
 J. W. Ochterski, R. L. Martin, K. Morokuma, O. Farkas, 
 J. B. Foresman, and D. J. Fox, Gaussian, Inc., Wallingford CT, 2016.
 
 ******************************************
 Gaussian 16:  EM64M-G16RevA.03 25-Dec-2016
                 6-Feb-2021 
 ******************************************
 %mem=24GB
 %nprocshared=8
 Will use up to    8 processors via shared memory.
 %chk=1_butane.chk
 ----------------------------------------------
 # freq wb97xd/6-311+g(2d,2p) geom=connectivity
 ----------------------------------------------
 1/10=4,30=1,38=1,57=2/1,3;
 2/12=2,17=6,18=5,40=1/2;
 3/5=4,6=6,7=212,11=2,25=1,30=1,71=2,74=-58,140=1/1,2,3;
 4//1;
 5/5=2,38=5,98=1/2;
 8/6=4,10=90,11=11/1;
 11/6=1,8=1,9=11,15=111,16=1/1,2,10;
 10/6=1/2;
 6/7=2,8=2,9=2,10=2,28=1/1;
 7/8=1,10=1,25=1/1,2,3,16;
 1/10=4,30=1/3;
 99//99;
 -------------------
 Title Card Required
 -------------------
 Symbolic Z-matrix:
 Charge =  0 Multiplicity = 1
 C                     1.78318  -0.07673  -0.04817 
 F                     2.00413  -0.50017   1.19068 
 F                     1.98072  -1.07778  -0.89208 
 C                     0.33919   0.48449  -0.17737 
 F                     0.28272   1.63146   0.50821 
 F                     0.11347   0.74391  -1.47767 
 C                    -0.78362  -0.46419   0.32909 
 F                    -0.77653  -0.47365   1.67329 
 F                    -0.54042  -1.70163  -0.11101 
 C                    -2.18346  -0.03209  -0.17912 
 O                    -2.81343  -0.67108  -0.95979 
 O                    -2.55044   1.11543   0.38012 
 H                    -3.41976   1.35103   0.03501 
 F                     2.64689   0.89178  -0.32967 
 

 GradGradGradGradGradGradGradGradGradGradGradGradGradGradGradGradGradGrad
 Berny optimization.
 Initialization pass.
 Trust Radius=3.00D-01 FncErr=1.00D-07 GrdErr=1.00D-07 EigMax=2.50D+02 EigMin=1.00D-04
 Number of steps in this run=      2 maximum allowed number of steps=      2.
 GradGradGradGradGradGradGradGradGradGradGradGradGradGradGradGradGradGrad

                          Input orientation:                          
 ---------------------------------------------------------------------
 Center     Atomic      Atomic             Coordinates (Angstroms)
 Number     Number       Type             X           Y           Z
 ---------------------------------------------------------------------
      1          6           0        1.783178   -0.076730   -0.048167
      2          9           0        2.004131   -0.500166    1.190675
      3          9           0        1.980721   -1.077782   -0.892083
      4          6           0        0.339194    0.484486   -0.177369
      5          9           0        0.282719    1.631456    0.508211
      6          9           0        0.113472    0.743911   -1.477667
      7          6           0       -0.783617   -0.464189    0.329085
      8          9           0       -0.776527   -0.473649    1.673290
      9          9           0       -0.540415   -1.701630   -0.111007
     10          6           0       -2.183461   -0.032094   -0.179122
     11          8           0       -2.813425   -0.671078   -0.959788
     12          8           0       -2.550439    1.115434    0.380122
     13          1           0       -3.419758    1.351032    0.035013
     14          9           0        2.646888    0.891780   -0.329666
 ---------------------------------------------------------------------
                    Distance matrix (angstroms):
                    1          2          3          4          5
     1  C    0.000000
     2  F    1.327723   0.000000
     3  F    1.324131   2.161497   0.000000
     4  C    1.554589   2.369198   2.376154   0.000000
     5  F    2.340691   2.823620   3.490559   1.337441   0.000000
     6  F    2.346240   3.498910   2.673592   1.345001   2.181764
     7  C    2.623143   2.918077   3.083717   1.554730   2.358153
     8  F    3.110153   2.822354   3.814254   2.363852   2.628855
     9  F    2.836077   3.100420   2.712083   2.357375   3.488616
    10  C    3.969051   4.430729   4.352262   2.575004   3.053174
    11  O    4.723670   5.278499   4.811842   3.447682   4.128292
    12  O    4.514967   4.900129   5.192313   3.009796   2.882615
    13  H    5.395921   5.846457   5.993648   3.863383   3.743112
    14  F    1.327874   2.159187   2.153896   2.348305   2.615044
                    6          7          8          9         10
     6  F    0.000000
     7  C    2.351303   0.000000
     8  F    3.493291   1.344257   0.000000
     9  F    2.876804   1.335698   2.178853   0.000000
    10  C    2.750328   1.550659   2.367671   2.343414   0.000000
    11  O    3.291978   2.413321   3.334821   2.636103   1.189367
    12  O    3.268919   2.370543   2.710024   3.495319   1.328250
    13  H    3.891081   3.214148   3.605563   4.198891   1.867437
    14  F    2.785313   3.747128   4.194759   4.114910   4.920211
                   11         12         13         14
    11  O    0.000000
    12  O    2.248587   0.000000
    13  H    2.333709   0.964532   0.000000
    14  F    5.714420   5.250336   6.094924   0.000000
 Stoichiometry    C4HF7O2
 Framework group  C1[X(C4HF7O2)]
 Deg. of freedom    36
 Full point group                 C1      NOp   1
 Largest Abelian subgroup         C1      NOp   1
 Largest concise Abelian subgroup C1      NOp   1
                         Standard orientation:                         
 ---------------------------------------------------------------------
 Center     Atomic      Atomic             Coordinates (Angstroms)
 Number     Number       Type             X           Y           Z
 ---------------------------------------------------------------------
      1          6           0        1.783178   -0.076730   -0.048167
      2          9           0        2.004131   -0.500166    1.190675
      3          9           0        1.980721   -1.077782   -0.892083
      4          6           0        0.339194    0.484486   -0.177369
      5          9           0        0.282719    1.631456    0.508211
      6          9           0        0.113472    0.743911   -1.477667
      7          6           0       -0.783617   -0.464189    0.329085
      8          9           0       -0.776527   -0.473649    1.673290
      9          9           0       -0.540415   -1.701630   -0.111007
     10          6           0       -2.183461   -0.032094   -0.179122
     11          8           0       -2.813425   -0.671078   -0.959788
     12          8           0       -2.550439    1.115434    0.380122
     13          1           0       -3.419758    1.351032    0.035013
     14          9           0        2.646888    0.891780   -0.329666
 ---------------------------------------------------------------------
 Rotational constants (GHZ):           1.4050326           0.6223889           0.5976586
 Standard basis: 6-311+G(2d,2p) (5D, 7F)
 There are   386 symmetry adapted cartesian basis functions of A   symmetry.
 There are   360 symmetry adapted basis functions of A   symmetry.
   360 basis functions,   557 primitive gaussians,   386 cartesian basis functions
    52 alpha electrons       52 beta electrons
       nuclear repulsion energy      1004.8445205162 Hartrees.
 NAtoms=   14 NActive=   14 NUniq=   14 SFac= 1.00D+00 NAtFMM=   60 NAOKFM=F Big=F
 Integral buffers will be    131072 words long.
 Raffenetti 2 integral format.
 Two-electron integral symmetry is turned on.
 Nuclear repulsion after empirical dispersion term =     1004.8371584878 Hartrees.
 One-electron integrals computed using PRISM.
 NBasis=   360 RedAO= T EigKep=  1.24D-05  NBF=   360
 NBsUse=   360 1.00D-06 EigRej= -1.00D+00 NBFU=   360
 ExpMin= 4.38D-02 ExpMax= 1.14D+04 ExpMxC= 1.72D+03 IAcc=3 IRadAn=         5 AccDes= 0.00D+00
 Harris functional with IExCor= 4639 and IRadAn=       5 diagonalized for initial guess.
 HarFok:  IExCor= 4639 AccDes= 0.00D+00 IRadAn=         5 IDoV= 1 UseB2=F ITyADJ=14
 ICtDFT=  3500011 ScaDFX=  1.000000  1.000000  1.000000  1.000000
 FoFCou: FMM=F IPFlag=           0 FMFlag=      100000 FMFlg1=           0
         NFxFlg=           0 DoJE=T BraDBF=F KetDBF=T FulRan=T
         wScrn=  0.000000 ICntrl=       500 IOpCl=  0 I1Cent=   200000004 NGrid=           0
         NMat0=    1 NMatS0=      1 NMatT0=    0 NMatD0=    1 NMtDS0=    0 NMtDT0=    0
 Petite list used in FoFCou.
 Requested convergence on RMS density matrix=1.00D-08 within 128 cycles.
 Requested convergence on MAX density matrix=1.00D-06.
 Requested convergence on             energy=1.00D-06.
 No special actions if energy rises.
 SCF Done:  E(RwB97XD) =  -1002.42109620     A.U. after   14 cycles
            NFock= 14  Conv=0.31D-08     -V/T= 2.0026
 DoSCS=F DFT=T ScalE2(SS,OS)=  1.000000  1.000000
 Range of M.O.s used for correlation:     1   360
 NBasis=   360 NAE=    52 NBE=    52 NFC=     0 NFV=     0
 NROrb=    360 NOA=    52 NOB=    52 NVA=   308 NVB=   308

 **** Warning!!: The largest alpha MO coefficient is  0.52718608D+02

 Symmetrizing basis deriv contribution to polar:
 IMax=3 JMax=2 DiffMx= 0.00D+00
 G2DrvN: will do    15 centers at a time, making    1 passes.
 Calling FoFCou, ICntrl=  3107 FMM=F I1Cent=   0 AccDes= 0.00D+00.
 End of G2Drv F.D. properties file   721 does not exist.
 End of G2Drv F.D. properties file   722 does not exist.
 End of G2Drv F.D. properties file   788 does not exist.
          IDoAtm=11111111111111
          Differentiating once with respect to electric field.
                with respect to dipole field.
          Differentiating once with respect to nuclear coordinates.
 CalDSu exits because no D1Ps are significant.
          There are    45 degrees of freedom in the 1st order CPHF.  IDoFFX=6 NUNeed=     3.
     42 vectors produced by pass  0 Test12= 3.56D-14 2.22D-09 XBig12= 1.96D+01 1.63D+00.
 AX will form    42 AO Fock derivatives at one time.
     42 vectors produced by pass  1 Test12= 3.56D-14 2.22D-09 XBig12= 3.17D+00 2.90D-01.
     42 vectors produced by pass  2 Test12= 3.56D-14 2.22D-09 XBig12= 1.24D-01 5.80D-02.
     42 vectors produced by pass  3 Test12= 3.56D-14 2.22D-09 XBig12= 2.75D-03 7.37D-03.
     42 vectors produced by pass  4 Test12= 3.56D-14 2.22D-09 XBig12= 3.50D-05 6.75D-04.
     42 vectors produced by pass  5 Test12= 3.56D-14 2.22D-09 XBig12= 3.21D-07 7.06D-05.
     42 vectors produced by pass  6 Test12= 3.56D-14 2.22D-09 XBig12= 2.37D-09 5.13D-06.
     20 vectors produced by pass  7 Test12= 3.56D-14 2.22D-09 XBig12= 1.60D-11 3.30D-07.
      3 vectors produced by pass  8 Test12= 3.56D-14 2.22D-09 XBig12= 1.03D-13 2.69D-08.
      3 vectors produced by pass  9 Test12= 3.56D-14 2.22D-09 XBig12= 7.55D-16 2.89D-09.
 InvSVY:  IOpt=1 It=  1 EMax= 7.11D-15
 Solved reduced A of dimension   320 with    45 vectors.
 Isotropic polarizability for W=    0.000000       59.06 Bohr**3.
 End of Minotr F.D. properties file   721 does not exist.
 End of Minotr F.D. properties file   722 does not exist.
 End of Minotr F.D. properties file   788 does not exist.

 **********************************************************************

            Population analysis using the SCF density.

 **********************************************************************

 Orbital symmetries:
       Occupied  (A) (A) (A) (A) (A) (A) (A) (A) (A) (A) (A) (A)
                 (A) (A) (A) (A) (A) (A) (A) (A) (A) (A) (A) (A)
                 (A) (A) (A) (A) (A) (A) (A) (A) (A) (A) (A) (A)
                 (A) (A) (A) (A) (A) (A) (A) (A) (A) (A) (A) (A)
                 (A) (A) (A) (A)
       Virtual   (A) (A) (A) (A) (A) (A) (A) (A) (A) (A) (A) (A)
                 (A) (A) (A) (A) (A) (A) (A) (A) (A) (A) (A) (A)
                 (A) (A) (A) (A) (A) (A) (A) (A) (A) (A) (A) (A)
                 (A) (A) (A) (A) (A) (A) (A) (A) (A) (A) (A) (A)
                 (A) (A) (A) (A) (A) (A) (A) (A) (A) (A) (A) (A)
                 (A) (A) (A) (A) (A) (A) (A) (A) (A) (A) (A) (A)
                 (A) (A) (A) (A) (A) (A) (A) (A) (A) (A) (A) (A)
                 (A) (A) (A) (A) (A) (A) (A) (A) (A) (A) (A) (A)
                 (A) (A) (A) (A) (A) (A) (A) (A) (A) (A) (A) (A)
                 (A) (A) (A) (A) (A) (A) (A) (A) (A) (A) (A) (A)
                 (A) (A) (A) (A) (A) (A) (A) (A) (A) (A) (A) (A)
                 (A) (A) (A) (A) (A) (A) (A) (A) (A) (A) (A) (A)
                 (A) (A) (A) (A) (A) (A) (A) (A) (A) (A) (A) (A)
                 (A) (A) (A) (A) (A) (A) (A) (A) (A) (A) (A) (A)
                 (A) (A) (A) (A) (A) (A) (A) (A) (A) (A) (A) (A)
                 (A) (A) (A) (A) (A) (A) (A) (A) (A) (A) (A) (A)
                 (A) (A) (A) (A) (A) (A) (A) (A) (A) (A) (A) (A)
                 (A) (A) (A) (A) (A) (A) (A) (A) (A) (A) (A) (A)
                 (A) (A) (A) (A) (A) (A) (A) (A) (A) (A) (A) (A)
                 (A) (A) (A) (A) (A) (A) (A) (A) (A) (A) (A) (A)
                 (A) (A) (A) (A) (A) (A) (A) (A) (A) (A) (A) (A)
                 (A) (A) (A) (A) (A) (A) (A) (A) (A) (A) (A) (A)
                 (A) (A) (A) (A) (A) (A) (A) (A) (A) (A) (A) (A)
                 (A) (A) (A) (A) (A) (A) (A) (A) (A) (A) (A) (A)
                 (A) (A) (A) (A) (A) (A) (A) (A) (A) (A) (A) (A)
                 (A) (A) (A) (A) (A) (A) (A) (A)
 The electronic state is 1-A.
 Alpha  occ. eigenvalues --  -24.87852 -24.87820 -24.87700 -24.87640 -24.87597
 Alpha  occ. eigenvalues --  -24.86931 -24.86911 -19.34668 -19.28924 -10.58170
 Alpha  occ. eigenvalues --  -10.52432 -10.51945 -10.47180  -1.47164  -1.43497
 Alpha  occ. eigenvalues --   -1.41962  -1.37970  -1.37398  -1.36774  -1.35899
 Alpha  occ. eigenvalues --   -1.27044  -1.18119  -0.94437  -0.88824  -0.81561
 Alpha  occ. eigenvalues --   -0.77816  -0.74973  -0.74146  -0.73871  -0.71474
 Alpha  occ. eigenvalues --   -0.71265  -0.68962  -0.68165  -0.62483  -0.61449
 Alpha  occ. eigenvalues --   -0.60511  -0.60012  -0.59377  -0.58920  -0.57946
 Alpha  occ. eigenvalues --   -0.57614  -0.57037  -0.55670  -0.55631  -0.54630
 Alpha  occ. eigenvalues --   -0.53999  -0.53764  -0.53395  -0.51740  -0.46881
 Alpha  occ. eigenvalues --   -0.45912  -0.41300
 Alpha virt. eigenvalues --    0.01629   0.04999   0.08237   0.08350   0.09185
 Alpha virt. eigenvalues --    0.10615   0.11484   0.11710   0.12807   0.13448
 Alpha virt. eigenvalues --    0.14292   0.14714   0.15008   0.15163   0.16469
 Alpha virt. eigenvalues --    0.18932   0.19401   0.20398   0.21244   0.21353
 Alpha virt. eigenvalues --    0.22967   0.24193   0.25011   0.27173   0.27487
 Alpha virt. eigenvalues --    0.28239   0.29737   0.30438   0.30927   0.31295
 Alpha virt. eigenvalues --    0.31768   0.32113   0.32803   0.33235   0.33709
 Alpha virt. eigenvalues --    0.34271   0.35084   0.36383   0.37073   0.37645
 Alpha virt. eigenvalues --    0.38234   0.38639   0.39862   0.40802   0.41310
 Alpha virt. eigenvalues --    0.42041   0.42965   0.43357   0.43695   0.44414
 Alpha virt. eigenvalues --    0.45030   0.45480   0.45871   0.46547   0.47297
 Alpha virt. eigenvalues --    0.47725   0.49571   0.51748   0.52266   0.52394
 Alpha virt. eigenvalues --    0.53869   0.54367   0.55612   0.56745   0.57633
 Alpha virt. eigenvalues --    0.59529   0.60828   0.64203   0.66513   0.69401
 Alpha virt. eigenvalues --    0.69955   0.71971   0.72452   0.74113   0.74220
 Alpha virt. eigenvalues --    0.77673   0.79726   0.80675   0.83503   0.85205
 Alpha virt. eigenvalues --    0.86307   0.88967   0.91436   0.94400   0.95636
 Alpha virt. eigenvalues --    1.01065   1.01646   1.04548   1.08516   1.09980
 Alpha virt. eigenvalues --    1.11128   1.12147   1.14224   1.14776   1.15418
 Alpha virt. eigenvalues --    1.19624   1.20757   1.22497   1.24951   1.26260
 Alpha virt. eigenvalues --    1.28082   1.30683   1.31937   1.33053   1.36483
 Alpha virt. eigenvalues --    1.37661   1.38451   1.39934   1.41475   1.42493
 Alpha virt. eigenvalues --    1.43250   1.43889   1.45576   1.45684   1.46829
 Alpha virt. eigenvalues --    1.47167   1.48624   1.49766   1.50684   1.51271
 Alpha virt. eigenvalues --    1.52102   1.52646   1.53997   1.55293   1.55625
 Alpha virt. eigenvalues --    1.58030   1.58981   1.59428   1.61493   1.64345
 Alpha virt. eigenvalues --    1.65876   1.68044   1.70735   1.72549   1.73862
 Alpha virt. eigenvalues --    1.81786   1.82920   1.84796   1.91785   1.96722
 Alpha virt. eigenvalues --    1.98818   2.01549   2.02890   2.03928   2.05117
 Alpha virt. eigenvalues --    2.07185   2.08218   2.10639   2.12533   2.13787
 Alpha virt. eigenvalues --    2.14342   2.15873   2.16988   2.19479   2.21301
 Alpha virt. eigenvalues --    2.22880   2.23794   2.24271   2.28209   2.31580
 Alpha virt. eigenvalues --    2.33168   2.36186   2.36756   2.38647   2.40404
 Alpha virt. eigenvalues --    2.44397   2.46709   2.51100   2.54111   2.56397
 Alpha virt. eigenvalues --    2.60687   2.61934   2.64050   2.68310   2.69755
 Alpha virt. eigenvalues --    2.71931   2.73640   2.76286   2.77140   2.79859
 Alpha virt. eigenvalues --    2.82326   2.87368   2.89307   2.92453   2.95770
 Alpha virt. eigenvalues --    3.06478   3.09216   3.16713   3.21474   3.25167
 Alpha virt. eigenvalues --    3.31054   3.39539   3.41591   3.47143   3.48794
 Alpha virt. eigenvalues --    3.49996   3.52356   3.54019   3.55790   3.58638
 Alpha virt. eigenvalues --    3.59466   3.60179   3.65177   3.67394   3.69247
 Alpha virt. eigenvalues --    3.71082   3.73269   3.75671   3.78013   3.83931
 Alpha virt. eigenvalues --    3.86474   3.92347   3.96686   4.01040   4.11289
 Alpha virt. eigenvalues --    4.25583   4.30632   4.32100   4.34991   4.37481
 Alpha virt. eigenvalues --    4.39358   4.40873   4.48602   5.10222   5.15035
 Alpha virt. eigenvalues --    5.31580   5.61996   5.98646   6.31535   6.40694
 Alpha virt. eigenvalues --    6.42494   6.43286   6.44390   6.47208   6.47652
 Alpha virt. eigenvalues --    6.49084   6.50448   6.51143   6.51873   6.52811
 Alpha virt. eigenvalues --    6.53776   6.55863   6.61737   6.62348   6.64207
 Alpha virt. eigenvalues --    6.71139   6.82575   6.87069   6.87707   6.91045
 Alpha virt. eigenvalues --    6.93301   6.93865   6.96542   7.04863   7.15168
 Alpha virt. eigenvalues --    7.18414   7.24667   7.28902   7.44518   7.52749
 Alpha virt. eigenvalues --    9.08731   9.09798   9.10887   9.11451   9.12678
 Alpha virt. eigenvalues --    9.16359   9.18451   9.19246   9.19551   9.21565
 Alpha virt. eigenvalues --    9.22085   9.24329   9.25450   9.26655   9.26878
 Alpha virt. eigenvalues --    9.27757   9.29716   9.34757   9.35570   9.42340
 Alpha virt. eigenvalues --    9.43615   9.45115   9.51442   9.64036   9.66371
 Alpha virt. eigenvalues --    9.68208   9.68648   9.74364   9.76731   9.77695
 Alpha virt. eigenvalues --    9.78711   9.82254   9.86838   9.90228   9.91818
 Alpha virt. eigenvalues --   23.96032  24.00271  24.04493  24.20442  50.05819
 Alpha virt. eigenvalues --   50.13887  66.93994  66.95062  66.95738  66.97432
 Alpha virt. eigenvalues --   67.00652  67.02634  67.04556
          Condensed to atoms (all electrons):
               1          2          3          4          5          6
     1  C    5.371152   0.244343   0.295275  -1.131789  -0.153070  -0.154795
     2  F    0.244343   9.083190   0.008914  -0.083525   0.016636   0.000289
     3  F    0.295275   0.008914   9.048905  -0.073205  -0.001083   0.020835
     4  C   -1.131789  -0.083525  -0.073205   7.771594   0.352935   0.332821
     5  F   -0.153070   0.016636  -0.001083   0.352935   9.088613   0.010241
     6  F   -0.154795   0.000289   0.020835   0.332821   0.010241   9.120903
     7  C    0.633505  -0.016198  -0.006229  -1.773185  -0.068848  -0.155678
     8  F   -0.018998   0.003171  -0.003126  -0.069542   0.017565  -0.001052
     9  F    0.008804   0.007696   0.004945  -0.123674  -0.000263   0.011371
    10  C   -0.417173   0.022362  -0.011812   0.593253  -0.025690   0.061660
    11  O    0.002823   0.000089  -0.000125  -0.050072   0.001149   0.001024
    12  O    0.012482  -0.000134   0.000048  -0.011163   0.002194   0.001752
    13  H   -0.002126   0.000005   0.000000   0.010336   0.000090  -0.000345
    14  F    0.231713   0.002192  -0.009243  -0.115050   0.020595   0.018909
               7          8          9         10         11         12
     1  C    0.633505  -0.018998   0.008804  -0.417173   0.002823   0.012482
     2  F   -0.016198   0.003171   0.007696   0.022362   0.000089  -0.000134
     3  F   -0.006229  -0.003126   0.004945  -0.011812  -0.000125   0.000048
     4  C   -1.773185  -0.069542  -0.123674   0.593253  -0.050072  -0.011163
     5  F   -0.068848   0.017565  -0.000263  -0.025690   0.001149   0.002194
     6  F   -0.155678  -0.001052   0.011371   0.061660   0.001024   0.001752
     7  C    7.719891   0.289647   0.332601  -1.227934   0.063909  -0.104682
     8  F    0.289647   9.107501   0.000777  -0.079692  -0.005638   0.009968
     9  F    0.332601   0.000777   9.138700  -0.116563   0.002467   0.003980
    10  C   -1.227934  -0.079692  -0.116563   5.879235   0.384592   0.354788
    11  O    0.063909  -0.005638   0.002467   0.384592   8.049547  -0.093959
    12  O   -0.104682   0.009968   0.003980   0.354788  -0.093959   7.924739
    13  H   -0.033529  -0.000805  -0.000222   0.018128   0.017768   0.239983
    14  F    0.027056  -0.000829   0.000076   0.005781   0.000016   0.000116
              13         14
     1  C   -0.002126   0.231713
     2  F    0.000005   0.002192
     3  F    0.000000  -0.009243
     4  C    0.010336  -0.115050
     5  F    0.000090   0.020595
     6  F   -0.000345   0.018909
     7  C   -0.033529   0.027056
     8  F   -0.000805  -0.000829
     9  F   -0.000222   0.000076
    10  C    0.018128   0.005781
    11  O    0.017768   0.000016
    12  O    0.239983   0.000116
    13  H    0.461661  -0.000002
    14  F   -0.000002   9.109112
 Mulliken charges:
               1
     1  C    1.077855
     2  F   -0.289031
     3  F   -0.274100
     4  C    0.370267
     5  F   -0.261064
     6  F   -0.267934
     7  C    0.319673
     8  F   -0.248948
     9  F   -0.270695
    10  C    0.559066
    11  O   -0.373590
    12  O   -0.340114
    13  H    0.289056
    14  F   -0.290441
 Sum of Mulliken charges =  -0.00000
 Mulliken charges with hydrogens summed into heavy atoms:
               1
     1  C    1.077855
     2  F   -0.289031
     3  F   -0.274100
     4  C    0.370267
     5  F   -0.261064
     6  F   -0.267934
     7  C    0.319673
     8  F   -0.248948
     9  F   -0.270695
    10  C    0.559066
    11  O   -0.373590
    12  O   -0.051058
    14  F   -0.290441
 APT charges:
               1
     1  C    1.561850
     2  F   -0.506096
     3  F   -0.500970
     4  C    0.901464
     5  F   -0.466136
     6  F   -0.476915
     7  C    0.952374
     8  F   -0.477402
     9  F   -0.458550
    10  C    1.064222
    11  O   -0.687440
    12  O   -0.679055
    13  H    0.317673
    14  F   -0.545018
 Sum of APT charges =  -0.00000
 APT charges with hydrogens summed into heavy atoms:
               1
     1  C    1.561850
     2  F   -0.506096
     3  F   -0.500970
     4  C    0.901464
     5  F   -0.466136
     6  F   -0.476915
     7  C    0.952374
     8  F   -0.477402
     9  F   -0.458550
    10  C    1.064222
    11  O   -0.687440
    12  O   -0.361382
    14  F   -0.545018
 Electronic spatial extent (au):  <R**2>=           1920.8733
 Charge=             -0.0000 electrons
 Dipole moment (field-independent basis, Debye):
    X=             -1.4723    Y=              1.6493    Z=              0.4427  Tot=              2.2548
 Quadrupole moment (field-independent basis, Debye-Ang):
   XX=            -62.7070   YY=            -69.9454   ZZ=            -72.0751
   XY=             -6.9219   XZ=             -2.2366   YZ=             -2.1229
 Traceless Quadrupole moment (field-independent basis, Debye-Ang):
   XX=              5.5355   YY=             -1.7029   ZZ=             -3.8326
   XY=             -6.9219   XZ=             -2.2366   YZ=             -2.1229
 Octapole moment (field-independent basis, Debye-Ang**2):
  XXX=            -13.4193  YYY=              2.2091  ZZZ=              1.9937  XYY=              1.1812
  XXY=             25.2241  XXZ=              9.8211  XZZ=             11.4424  YZZ=              0.7585
  YYZ=              0.9816  XYZ=              5.8916
 Hexadecapole moment (field-independent basis, Debye-Ang**3):
 XXXX=          -1180.6402 YYYY=           -377.0994 ZZZZ=           -317.4068 XXXY=           -104.2848
 XXXZ=            -34.4709 YYYX=            -14.3581 YYYZ=             -4.4015 ZZZX=             -7.5549
 ZZZY=             -1.6611 XXYY=           -258.2785 XXZZ=           -287.6986 YYZZ=           -116.5808
 XXYZ=            -16.5242 YYXZ=             -1.8441 ZZXY=             -1.7295
 N-N= 1.004837158488D+03 E-N=-4.387890703934D+03  KE= 9.998033624849D+02
  Exact polarizability:  64.827  -0.583  57.281   3.019   4.068  55.067
 Approx polarizability:  61.158   1.128  66.534   3.751   7.181  66.626
 Calling FoFJK, ICntrl=    100127 FMM=F ISym2X=0 I1Cent= 0 IOpClX= 0 NMat=1 NMatS=1 NMatT=0.
 Full mass-weighted force constant matrix:
 Low frequencies ---   -7.3482   -4.7528   -0.0011   -0.0009   -0.0009    5.3957
 Low frequencies ---   27.7783   50.7549   65.3341
 Diagonal vibrational polarizability:
       23.8810677      27.6723000      60.3527452
 Harmonic frequencies (cm**-1), IR intensities (KM/Mole), Raman scattering
 activities (A**4/AMU), depolarization ratios for plane and unpolarized
 incident light, reduced masses (AMU), force constants (mDyne/A),
 and normal coordinates:
                      1                      2                      3
                      A                      A                      A
 Frequencies --     27.6749                50.7491                65.3289
 Red. masses --     13.1224                14.7574                16.9577
 Frc consts  --      0.0059                 0.0224                 0.0426
 IR Inten    --      1.2778                 1.0153                 0.0836
  Atom  AN      X      Y      Z        X      Y      Z        X      Y      Z
     1   6     0.02   0.02   0.06     0.02   0.04   0.06    -0.00   0.00   0.04
     2   9     0.01   0.27   0.15     0.00   0.15   0.10    -0.25  -0.31  -0.03
     3   9     0.07  -0.13   0.26     0.08  -0.02   0.15     0.19   0.22  -0.17
     4   6    -0.00  -0.05  -0.08     0.00  -0.01  -0.01    -0.00  -0.01  -0.15
     5   9    -0.09   0.00  -0.17    -0.05  -0.03   0.02    -0.07   0.11  -0.36
     6   9     0.07  -0.16  -0.11     0.06   0.01  -0.02     0.05  -0.25  -0.20
     7   6    -0.00  -0.04  -0.07    -0.00  -0.06  -0.12     0.02   0.04  -0.02
     8   9     0.10  -0.16  -0.07     0.04  -0.26  -0.11     0.14   0.08  -0.02
     9   9    -0.10  -0.01  -0.21    -0.04   0.01  -0.31    -0.01   0.03  -0.01
    10   6    -0.02   0.08   0.07    -0.05   0.02   0.06    -0.03   0.02   0.12
    11   8     0.02   0.32  -0.16    -0.36  -0.17   0.46    -0.11   0.01   0.19
    12   8    -0.07  -0.12   0.44     0.28   0.27  -0.25    -0.00   0.00   0.18
    13   1    -0.07  -0.04   0.50     0.21   0.27  -0.08    -0.05  -0.02   0.28
    14   9    -0.02   0.01  -0.11    -0.01   0.05   0.00     0.04   0.09   0.48
                      4                      5                      6
                      A                      A                      A
 Frequencies --    122.5005               179.7318               214.6187
 Red. masses --     11.4473                12.6435                16.5446
 Frc consts  --      0.1012                 0.2406                 0.4490
 IR Inten    --      0.8235                 0.8898                 1.7323
  Atom  AN      X      Y      Z        X      Y      Z        X      Y      Z
     1   6    -0.03  -0.04   0.01     0.15  -0.04   0.01    -0.01  -0.02  -0.12
     2   9    -0.18   0.00   0.06     0.35  -0.06  -0.04    -0.33   0.13  -0.01
     3   9    -0.15  -0.13   0.09     0.26   0.02  -0.04     0.35  -0.08   0.04
     4   6     0.04   0.16  -0.06     0.08  -0.08   0.03    -0.01  -0.10  -0.20
     5   9     0.11   0.12   0.00     0.12  -0.10   0.06     0.04  -0.31   0.18
     6   9     0.12   0.27  -0.05     0.26  -0.04   0.00    -0.05   0.34  -0.10
     7   6     0.04   0.13  -0.10    -0.12   0.08  -0.07     0.01  -0.10  -0.13
     8   9     0.10   0.10  -0.10    -0.22   0.15  -0.06     0.12   0.29  -0.12
     9   9     0.13   0.15  -0.14    -0.22   0.03   0.00    -0.09  -0.24   0.22
    10   6    -0.07  -0.10   0.03    -0.19   0.03  -0.02    -0.00  -0.06  -0.03
    11   8    -0.05  -0.25   0.14    -0.22  -0.07   0.08    -0.16   0.06  -0.01
    12   8    -0.25  -0.19   0.10    -0.33  -0.05   0.05     0.19  -0.06   0.10
    13   1    -0.37  -0.40   0.25    -0.44  -0.24   0.19     0.18   0.09   0.21
    14   9     0.16  -0.22   0.00    -0.02   0.11  -0.03    -0.06   0.05   0.01
                      7                      8                      9
                      A                      A                      A
 Frequencies --    234.9513               251.4606               290.9404
 Red. masses --     18.2794                12.2526                17.9161
 Frc consts  --      0.5945                 0.4565                 0.8935
 IR Inten    --      0.1056                 1.4931                 2.2915
  Atom  AN      X      Y      Z        X      Y      Z        X      Y      Z
     1   6     0.04  -0.05  -0.10    -0.01  -0.03   0.00     0.23   0.17  -0.07
     2   9    -0.22   0.08  -0.00    -0.02  -0.02   0.01     0.00   0.21  -0.02
     3   9     0.40  -0.07   0.03     0.09  -0.03   0.03     0.03   0.15  -0.10
     4   6     0.01  -0.01   0.00    -0.02  -0.05  -0.02     0.06   0.04  -0.03
     5   9     0.53   0.05  -0.05     0.03  -0.08   0.06    -0.20   0.01  -0.01
     6   9    -0.49  -0.10   0.07    -0.07   0.02   0.02    -0.21   0.03   0.01
     7   6    -0.03   0.08   0.09    -0.00   0.05   0.08    -0.01  -0.08   0.02
     8   9    -0.27  -0.17   0.08     0.50  -0.04   0.08    -0.11  -0.12   0.02
     9   9     0.12   0.17  -0.13    -0.35   0.04  -0.09    -0.32  -0.16   0.09
    10   6    -0.02   0.04   0.02    -0.02   0.08   0.08    -0.01   0.02  -0.01
    11   8     0.04  -0.02   0.01     0.26  -0.08  -0.02    -0.01  -0.02   0.02
    12   8    -0.13   0.02  -0.00    -0.30   0.13  -0.22    -0.08   0.00  -0.02
    13   1    -0.14  -0.06  -0.03    -0.24  -0.07  -0.51    -0.11  -0.09  -0.02
    14   9     0.01   0.01  -0.01    -0.08   0.04   0.03     0.71  -0.21   0.06
                     10                     11                     12
                      A                      A                      A
 Frequencies --    334.0317               348.5699               372.6012
 Red. masses --     18.1483                16.9989                14.0089
 Frc consts  --      1.1931                 1.2169                 1.1459
 IR Inten    --      0.0643                 0.1022                 0.8501
  Atom  AN      X      Y      Z        X      Y      Z        X      Y      Z
     1   6    -0.09   0.11  -0.03     0.01   0.04   0.14    -0.01   0.04   0.02
     2   9    -0.27   0.20   0.02     0.32   0.02   0.10    -0.02   0.08   0.03
     3   9    -0.25   0.18  -0.13    -0.27   0.06   0.09    -0.17   0.06  -0.03
     4   6     0.11   0.01  -0.01    -0.02   0.02   0.01     0.03  -0.09   0.02
     5   9     0.46   0.07  -0.07     0.38   0.10  -0.09     0.00  -0.22   0.22
     6   9     0.39   0.01  -0.06    -0.32   0.01   0.05    -0.14  -0.29   0.01
     7   6    -0.02  -0.08   0.05    -0.03  -0.08  -0.11     0.08   0.09  -0.12
     8   9    -0.15  -0.24   0.06     0.26   0.12  -0.13    -0.11   0.37  -0.14
     9   9    -0.35  -0.17   0.11    -0.11  -0.15   0.00    -0.15   0.11  -0.29
    10   6     0.08  -0.06   0.03    -0.13  -0.17  -0.17     0.21   0.05  -0.03
    11   8     0.16  -0.13   0.04    -0.33   0.04  -0.19     0.27  -0.18   0.12
    12   8     0.10  -0.07   0.05     0.12  -0.17  -0.04     0.17  -0.05   0.12
    13   1     0.09  -0.03   0.08     0.16   0.08   0.06     0.02  -0.16   0.44
    14   9    -0.10   0.13  -0.02     0.02   0.06   0.25     0.02   0.03   0.06
                     13                     14                     15
                      A                      A                      A
 Frequencies --    377.2006               452.3317               509.6712
 Red. masses --     15.8813                13.5707                 4.7205
 Frc consts  --      1.3313                 1.6359                 0.7225
 IR Inten    --      0.6612                 2.9406                 6.9035
  Atom  AN      X      Y      Z        X      Y      Z        X      Y      Z
     1   6     0.02  -0.07   0.03    -0.00  -0.02  -0.02    -0.04  -0.07  -0.03
     2   9     0.20  -0.21  -0.04     0.18   0.10  -0.02     0.09   0.16   0.03
     3   9     0.14  -0.17   0.16    -0.22  -0.11   0.03     0.01  -0.02  -0.12
     4   6    -0.04   0.09  -0.05     0.03  -0.10  -0.23    -0.08  -0.06  -0.06
     5   9    -0.12   0.23  -0.27     0.05  -0.25  -0.08     0.00  -0.10  -0.05
     6   9    -0.14   0.37   0.01    -0.11   0.15  -0.22     0.05   0.08  -0.07
     7   6    -0.02   0.01  -0.02     0.08  -0.02  -0.10    -0.11  -0.01   0.11
     8   9    -0.19   0.00  -0.01    -0.13  -0.14  -0.13    -0.03   0.05   0.15
     9   9    -0.32  -0.03  -0.05     0.19  -0.11   0.14     0.02   0.11  -0.10
    10   6     0.17  -0.04   0.03     0.10   0.22   0.09    -0.11  -0.12   0.12
    11   8     0.29  -0.20   0.07     0.19   0.06   0.18     0.02  -0.03  -0.06
    12   8     0.25  -0.07   0.11    -0.24   0.20   0.01     0.06  -0.04   0.03
    13   1     0.22   0.04   0.26    -0.37  -0.28   0.02     0.44   0.52  -0.55
    14   9    -0.12   0.04   0.03    -0.04   0.09   0.28    -0.01  -0.09   0.13
                     16                     17                     18
                      A                      A                      A
 Frequencies --    545.3048               567.3142               594.7831
 Red. masses --     13.0351                 2.7452                 7.6900
 Frc consts  --      2.2837                 0.5206                 1.6028
 IR Inten    --      9.3591                31.1522                30.7785
  Atom  AN      X      Y      Z        X      Y      Z        X      Y      Z
     1   6    -0.06  -0.18   0.16    -0.02  -0.06  -0.04     0.05  -0.03  -0.13
     2   9     0.04   0.13   0.35     0.03   0.09  -0.01    -0.07   0.12  -0.14
     3   9     0.11   0.22  -0.31     0.03  -0.06  -0.07    -0.05  -0.21  -0.06
     4   6    -0.01  -0.12   0.10    -0.02   0.02  -0.01     0.10  -0.08   0.10
     5   9    -0.01   0.04  -0.19    -0.03   0.01   0.04    -0.04   0.03  -0.13
     6   9    -0.03   0.10   0.22     0.01  -0.02  -0.03     0.06   0.04   0.24
     7   6     0.03  -0.07  -0.09    -0.01   0.10   0.01     0.11  -0.12   0.09
     8   9     0.02   0.06  -0.13     0.04  -0.09   0.02    -0.02   0.13   0.15
     9   9     0.05  -0.15  -0.02    -0.04   0.12   0.09     0.01  -0.11  -0.18
    10   6     0.08   0.11  -0.02     0.01   0.03  -0.12     0.10  -0.01  -0.01
    11   8     0.07   0.02   0.08    -0.03  -0.05  -0.04    -0.08   0.12   0.03
    12   8    -0.07   0.08  -0.01     0.09  -0.01  -0.03    -0.04  -0.03  -0.11
    13   1    -0.30  -0.33   0.29    -0.33  -0.35   0.81    -0.35  -0.64   0.25
    14   9    -0.18  -0.30  -0.09    -0.04  -0.04   0.08     0.00   0.12   0.13
                     19                     20                     21
                      A                      A                      A
 Frequencies --    615.7807               672.6859               686.5870
 Red. masses --      4.5909                 6.3889                 4.7300
 Frc consts  --      1.0257                 1.7033                 1.3137
 IR Inten    --     31.8026                38.6732               110.0127
  Atom  AN      X      Y      Z        X      Y      Z        X      Y      Z
     1   6     0.03   0.06   0.08     0.12  -0.02   0.00     0.02  -0.04   0.02
     2   9    -0.01  -0.12   0.09    -0.07  -0.02   0.06     0.02  -0.01   0.09
     3   9    -0.05   0.14   0.09    -0.08  -0.04  -0.04     0.01  -0.00  -0.05
     4   6     0.01  -0.09  -0.07     0.13  -0.15   0.04     0.08   0.07  -0.05
     5   9     0.02  -0.17  -0.10    -0.05  -0.17  -0.18    -0.03   0.02   0.07
     6   9    -0.02   0.09  -0.08    -0.02   0.05   0.20    -0.04  -0.00  -0.12
     7   6    -0.00  -0.02   0.10     0.05   0.14  -0.03     0.16   0.05   0.02
     8   9    -0.01   0.02   0.19     0.03  -0.07  -0.06    -0.03  -0.03   0.04
     9   9     0.01   0.06  -0.07    -0.02   0.19   0.11    -0.08   0.06   0.02
    10   6     0.00  -0.03  -0.01     0.01   0.08  -0.18     0.25  -0.02  -0.03
    11   8    -0.03   0.04  -0.03    -0.06  -0.08   0.00    -0.10   0.17   0.11
    12   8     0.04  -0.00  -0.08    -0.00  -0.07   0.09    -0.03  -0.22  -0.07
    13   1    -0.37  -0.50   0.63     0.38   0.55  -0.45     0.19  -0.38  -0.74
    14   9     0.04   0.03  -0.12     0.04   0.13  -0.04    -0.07  -0.03  -0.00
                     22                     23                     24
                      A                      A                      A
 Frequencies --    765.7948               786.8771               939.5677
 Red. masses --     13.5460                 8.0072                10.9201
 Frc consts  --      4.6804                 2.9211                 5.6798
 IR Inten    --      6.6596                28.3545                97.3840
  Atom  AN      X      Y      Z        X      Y      Z        X      Y      Z
     1   6     0.31  -0.14   0.03     0.05  -0.02   0.00     0.10   0.00  -0.01
     2   9    -0.05  -0.08   0.41    -0.02  -0.01   0.05    -0.01   0.04  -0.10
     3   9    -0.07  -0.27  -0.30    -0.02  -0.05  -0.04    -0.02   0.11   0.08
     4   6     0.15   0.11  -0.06    -0.04  -0.02   0.00     0.51   0.08  -0.08
     5   9    -0.05   0.15   0.14    -0.00  -0.03  -0.04    -0.07  -0.03  -0.00
     6   9    -0.07  -0.00  -0.18     0.01  -0.02   0.10    -0.06  -0.01   0.02
     7   6     0.03  -0.03   0.02    -0.10   0.05  -0.06     0.47   0.12  -0.03
     8   9    -0.02   0.02   0.09    -0.02  -0.02  -0.25    -0.07  -0.01   0.03
     9   9     0.02  -0.11  -0.06    -0.03   0.15   0.10    -0.06  -0.02  -0.00
    10   6    -0.18  -0.03   0.03    -0.08  -0.29   0.46    -0.23  -0.20   0.19
    11   8     0.01  -0.09  -0.09     0.08   0.18  -0.02    -0.05  -0.05  -0.16
    12   8    -0.00   0.13   0.04     0.09  -0.05  -0.17    -0.01   0.13   0.00
    13   1    -0.07   0.31   0.35    -0.18  -0.66   0.08    -0.04   0.36   0.24
    14   9     0.05   0.30  -0.08     0.06   0.09  -0.02    -0.20  -0.17   0.05
                     25                     26                     27
                      A                      A                      A
 Frequencies --   1141.2516              1167.9857              1193.0855
 Red. masses --     13.1245                 9.5517                 4.2490
 Frc consts  --     10.0716                 7.6772                 3.5635
 IR Inten    --     56.7576               180.4265               165.3096
  Atom  AN      X      Y      Z        X      Y      Z        X      Y      Z
     1   6    -0.45   0.16  -0.07     0.08   0.11  -0.12    -0.06  -0.04  -0.16
     2   9     0.08  -0.07   0.15    -0.01  -0.01   0.03     0.02  -0.02   0.06
     3   9     0.07  -0.12  -0.08    -0.00  -0.00   0.01    -0.00   0.03   0.03
     4   6    -0.36   0.37  -0.14    -0.04  -0.18   0.28    -0.02  -0.02   0.01
     5   9     0.04  -0.17  -0.07     0.01   0.05   0.00    -0.01  -0.01  -0.00
     6   9     0.07  -0.06   0.16    -0.00   0.06  -0.17     0.01   0.01  -0.02
     7   6     0.46   0.08  -0.00     0.14  -0.32   0.37     0.07   0.16   0.35
     8   9    -0.04  -0.01   0.02    -0.00   0.03  -0.22    -0.01  -0.00  -0.14
     9   9    -0.06  -0.03  -0.00    -0.04   0.16   0.02     0.01  -0.09  -0.04
    10   6     0.07  -0.16  -0.02     0.14  -0.16  -0.08    -0.06   0.07   0.00
    11   8    -0.07  -0.05  -0.09    -0.09  -0.08  -0.09     0.02   0.05   0.05
    12   8    -0.05   0.17   0.08    -0.04   0.23   0.14    -0.01  -0.14  -0.10
    13   1    -0.04  -0.06  -0.11    -0.08  -0.48  -0.31     0.02   0.71   0.48
    14   9     0.12   0.08  -0.02    -0.03  -0.04   0.02     0.02   0.01   0.01
                     28                     29                     30
                      A                      A                      A
 Frequencies --   1209.8264              1221.9476              1237.3867
 Red. masses --     12.7768                 5.2649                 7.5120
 Frc consts  --     11.0184                 4.6317                 6.7767
 IR Inten    --    111.4595               162.4572               206.2942
  Atom  AN      X      Y      Z        X      Y      Z        X      Y      Z
     1   6    -0.07  -0.22   0.01     0.04   0.40  -0.04    -0.15  -0.22   0.43
     2   9    -0.02   0.04  -0.05     0.01  -0.04   0.05    -0.02   0.06  -0.15
     3   9     0.02   0.01   0.01     0.02  -0.10  -0.06     0.01  -0.01  -0.05
     4   6     0.03   0.32   0.79    -0.03  -0.02   0.10    -0.13  -0.28   0.00
     5   9     0.01  -0.21  -0.14     0.02  -0.01  -0.01     0.01   0.11   0.04
     6   9    -0.04   0.03  -0.24     0.00   0.00  -0.02    -0.01   0.04  -0.06
     7   6     0.03   0.11  -0.19     0.09  -0.22  -0.15     0.30  -0.10  -0.03
     8   9     0.01   0.00   0.04    -0.00   0.01   0.03    -0.03   0.01  -0.01
     9   9    -0.01  -0.07   0.00    -0.01   0.09   0.03    -0.03   0.07   0.02
    10   6    -0.05  -0.00   0.05    -0.08   0.09   0.04    -0.04  -0.00   0.03
    11   8     0.03   0.03   0.02     0.05   0.05   0.06     0.00   0.03   0.01
    12   8     0.00  -0.04  -0.03    -0.03  -0.12  -0.10    -0.04  -0.04  -0.06
    13   1     0.00   0.12   0.09     0.00   0.67   0.45    -0.02   0.57   0.36
    14   9     0.05   0.06  -0.01    -0.07  -0.09   0.02     0.10   0.10  -0.05
                     31                     32                     33
                      A                      A                      A
 Frequencies --   1257.6535              1303.9583              1354.5383
 Red. masses --     12.6042                 8.8675                 5.7289
 Frc consts  --     11.7459                 8.8834                 6.1931
 IR Inten    --    407.2634                42.5800               103.9173
  Atom  AN      X      Y      Z        X      Y      Z        X      Y      Z
     1   6     0.12   0.37   0.63     0.25   0.18  -0.07     0.41  -0.16   0.01
     2   9    -0.04   0.03  -0.17    -0.02  -0.01   0.01    -0.04   0.03  -0.05
     3   9     0.04  -0.18  -0.16    -0.02  -0.02   0.00    -0.04   0.06   0.04
     4   6     0.07   0.22  -0.01    -0.35  -0.35   0.13    -0.28   0.22  -0.07
     5   9     0.01  -0.13  -0.05     0.02   0.07   0.02     0.02  -0.06  -0.02
     6   9    -0.02  -0.00  -0.01     0.02   0.03  -0.05     0.03  -0.02   0.05
     7   6    -0.17   0.22   0.34     0.19   0.46  -0.13     0.04  -0.08  -0.00
     8   9     0.01  -0.01  -0.12    -0.01  -0.03   0.07    -0.00   0.00  -0.00
     9   9     0.03  -0.12  -0.05     0.01  -0.14  -0.03    -0.02   0.03   0.01
    10   6     0.05  -0.03  -0.04    -0.06  -0.03   0.04     0.15  -0.12  -0.03
    11   8    -0.02  -0.01  -0.00    -0.02  -0.02  -0.04    -0.01   0.03   0.02
    12   8     0.01   0.02   0.03     0.05   0.03   0.03    -0.08   0.03  -0.02
    13   1     0.00  -0.19  -0.10     0.04  -0.45  -0.33    -0.05   0.65   0.41
    14   9    -0.07  -0.07  -0.02    -0.04  -0.06   0.02    -0.07  -0.03   0.01
                     34                     35                     36
                      A                      A                      A
 Frequencies --   1429.2080              1895.9315              3833.6945
 Red. masses --      4.1861                11.5047                 1.0644
 Frc consts  --      5.0379                24.3652                 9.2173
 IR Inten    --     26.5985               335.1982               116.2570
  Atom  AN      X      Y      Z        X      Y      Z        X      Y      Z
     1   6     0.11  -0.07   0.03    -0.00   0.01   0.00    -0.00   0.00  -0.00
     2   9    -0.01   0.01  -0.02     0.00  -0.00   0.00     0.00  -0.00   0.00
     3   9    -0.01   0.02   0.01     0.00  -0.00  -0.00     0.00  -0.00  -0.00
     4   6    -0.11   0.13  -0.03    -0.01  -0.00   0.01    -0.00  -0.00  -0.00
     5   9     0.01  -0.03  -0.01     0.00  -0.00  -0.00     0.00  -0.00  -0.00
     6   9     0.01  -0.01   0.02    -0.00   0.00  -0.00     0.00   0.00   0.00
     7   6     0.15  -0.13   0.09    -0.04   0.01  -0.02     0.00  -0.00   0.00
     8   9    -0.01   0.01  -0.04    -0.00   0.00  -0.00     0.00  -0.00   0.00
     9   9    -0.01   0.03   0.00     0.01  -0.01  -0.00     0.00  -0.00   0.00
    10   6    -0.27   0.29   0.03     0.42   0.41   0.51    -0.00   0.00  -0.00
    11   8     0.03  -0.05  -0.02    -0.27  -0.26  -0.33    -0.00  -0.00  -0.00
    12   8     0.11  -0.09   0.00    -0.02  -0.06  -0.05    -0.06   0.02  -0.02
    13   1     0.07  -0.72  -0.45    -0.01   0.31   0.20     0.90  -0.27   0.34
    14   9    -0.02  -0.00   0.00     0.00  -0.00  -0.00     0.00   0.00  -0.00

 -------------------
 - Thermochemistry -
 -------------------
 Temperature   298.150 Kelvin.  Pressure   1.00000 Atm.
 Atom     1 has atomic number  6 and mass  12.00000
 Atom     2 has atomic number  9 and mass  18.99840
 Atom     3 has atomic number  9 and mass  18.99840
 Atom     4 has atomic number  6 and mass  12.00000
 Atom     5 has atomic number  9 and mass  18.99840
 Atom     6 has atomic number  9 and mass  18.99840
 Atom     7 has atomic number  6 and mass  12.00000
 Atom     8 has atomic number  9 and mass  18.99840
 Atom     9 has atomic number  9 and mass  18.99840
 Atom    10 has atomic number  6 and mass  12.00000
 Atom    11 has atomic number  8 and mass  15.99491
 Atom    12 has atomic number  8 and mass  15.99491
 Atom    13 has atomic number  1 and mass   1.00783
 Atom    14 has atomic number  9 and mass  18.99840
 Molecular mass:   213.98648 amu.
 Principal axes and moments of inertia in atomic units:
                           1         2         3
     Eigenvalues --  1284.483502899.700073019.68565
           X            0.99992  -0.01272   0.00264
           Y            0.01266   0.99961   0.02475
           Z           -0.00296  -0.02472   0.99969
 This molecule is an asymmetric top.
 Rotational symmetry number  1.
 Warning -- assumption of classical behavior for rotation
           may cause significant error
 Rotational temperatures (Kelvin)      0.06743     0.02987     0.02868
 Rotational constants (GHZ):           1.40503     0.62239     0.59766
 Zero-point vibrational energy     168993.6 (Joules/Mol)
                                   40.39044 (Kcal/Mol)
 Warning -- explicit consideration of  19 degrees of freedom as
           vibrations may cause significant error
 Vibrational temperatures:     39.82    73.02    93.99   176.25   258.59
          (Kelvin)            308.79   338.04   361.80   418.60   480.60
                              501.51   536.09   542.71   650.80   733.30
                              784.57   816.24   855.76   885.97   967.84
                              987.85  1101.81  1132.14  1351.83  1642.01
                             1680.47  1716.58  1740.67  1758.11  1780.32
                             1809.48  1876.11  1948.88  2056.31  2727.82
                             5515.83
 
 Zero-point correction=                           0.064366 (Hartree/Particle)
 Thermal correction to Energy=                    0.076146
 Thermal correction to Enthalpy=                  0.077090
 Thermal correction to Gibbs Free Energy=         0.024935
 Sum of electronic and zero-point Energies=          -1002.356730
 Sum of electronic and thermal Energies=             -1002.344950
 Sum of electronic and thermal Enthalpies=           -1002.344006
 Sum of electronic and thermal Free Energies=        -1002.396161
 
                     E (Thermal)             CV                S
                      KCal/Mol        Cal/Mol-Kelvin    Cal/Mol-Kelvin
 Total                   47.782             41.233            109.769
 Electronic               0.000              0.000              0.000
 Translational            0.889              2.981             41.986
 Rotational               0.889              2.981             30.798
 Vibrational             46.005             35.271             36.985
 Vibration     1          0.593              1.984              5.989
 Vibration     2          0.595              1.977              4.788
 Vibration     3          0.597              1.971              4.289
 Vibration     4          0.610              1.930              3.061
 Vibration     5          0.629              1.867              2.331
 Vibration     6          0.645              1.819              2.004
 Vibration     7          0.655              1.787              1.841
 Vibration     8          0.663              1.760              1.720
 Vibration     9          0.687              1.691              1.468
 Vibration    10          0.716              1.608              1.241
 Vibration    11          0.726              1.578              1.173
 Vibration    12          0.744              1.528              1.069
 Vibration    13          0.748              1.519              1.050
 Vibration    14          0.811              1.356              0.789
 Vibration    15          0.865              1.229              0.634
 Vibration    16          0.900              1.150              0.554
 Vibration    17          0.923              1.102              0.509
 Vibration    18          0.952              1.043              0.459
 Vibration    19          0.975              0.999              0.423
                       Q            Log10(Q)             Ln(Q)
 Total Bot       0.339290D-11        -11.469429        -26.409337
 Total V=0       0.137079D+19         18.136972         41.761921
 Vib (Bot)       0.229705D-25        -25.638830        -59.035588
 Vib (Bot)    1  0.748226D+01          0.874033          2.012535
 Vib (Bot)    2  0.407313D+01          0.609929          1.404412
 Vib (Bot)    3  0.315892D+01          0.499539          1.150230
 Vib (Bot)    4  0.166724D+01          0.221998          0.511170
 Vib (Bot)    5  0.111760D+01          0.048288          0.111188
 Vib (Bot)    6  0.923707D+00         -0.034466         -0.079360
 Vib (Bot)    7  0.836461D+00         -0.077554         -0.178575
 Vib (Bot)    8  0.775613D+00         -0.110355         -0.254102
 Vib (Bot)    9  0.656955D+00         -0.182464         -0.420139
 Vib (Bot)   10  0.557973D+00         -0.253387         -0.583444
 Vib (Bot)   11  0.529794D+00         -0.275893         -0.635267
 Vib (Bot)   12  0.487746D+00         -0.311806         -0.717960
 Vib (Bot)   13  0.480271D+00         -0.318514         -0.733405
 Vib (Bot)   14  0.378400D+00         -0.422049         -0.971805
 Vib (Bot)   15  0.319690D+00         -0.495271         -1.140403
 Vib (Bot)   16  0.289084D+00         -0.538977         -1.241039
 Vib (Bot)   17  0.272007D+00         -0.565421         -1.301929
 Vib (Bot)   18  0.252395D+00         -0.597920         -1.376761
 Vib (Bot)   19  0.238545D+00         -0.622430         -1.433199
 Vib (V=0)       0.928050D+04          3.967571          9.135670
 Vib (V=0)    1  0.799895D+01          0.903033          2.079310
 Vib (V=0)    2  0.460371D+01          0.663108          1.526862
 Vib (V=0)    3  0.369825D+01          0.567996          1.307859
 Vib (V=0)    4  0.224060D+01          0.350364          0.806744
 Vib (V=0)    5  0.172435D+01          0.236626          0.544852
 Vib (V=0)    6  0.155035D+01          0.190430          0.438481
 Vib (V=0)    7  0.147451D+01          0.168647          0.388325
 Vib (V=0)    8  0.142281D+01          0.153146          0.352633
 Vib (V=0)    9  0.132558D+01          0.122408          0.281854
 Vib (V=0)   10  0.124922D+01          0.096640          0.222521
 Vib (V=0)   11  0.122848D+01          0.089368          0.205777
 Vib (V=0)   12  0.119850D+01          0.078636          0.181067
 Vib (V=0)   13  0.119330D+01          0.076748          0.176720
 Vib (V=0)   14  0.112705D+01          0.051941          0.119600
 Vib (V=0)   15  0.109347D+01          0.038805          0.089352
 Vib (V=0)   16  0.107755D+01          0.032439          0.074694
 Vib (V=0)   17  0.106920D+01          0.029059          0.066910
 Vib (V=0)   18  0.106009D+01          0.025344          0.058356
 Vib (V=0)   19  0.105399D+01          0.022836          0.052582
 Electronic      0.100000D+01          0.000000          0.000000
 Translational   0.123036D+09          8.090033         18.627990
 Rotational      0.120051D+07          6.079367         13.998260
 ***** Axes restored to original set *****
 -------------------------------------------------------------------
 Center     Atomic                   Forces (Hartrees/Bohr)
 Number     Number              X              Y              Z
 -------------------------------------------------------------------
      1        6           0.000006740   -0.000000880    0.000012318
      2        9          -0.000001034    0.000001927   -0.000005974
      3        9          -0.000001711   -0.000005113   -0.000005520
      4        6          -0.000005384   -0.000001114   -0.000029986
      5        9           0.000002243    0.000004767    0.000000916
      6        9           0.000003969   -0.000005856    0.000015566
      7        6          -0.000007063   -0.000006187    0.000017240
      8        9           0.000005038    0.000004512   -0.000008083
      9        9          -0.000005200    0.000000989    0.000003863
     10        6           0.000003363    0.000013005    0.000009404
     11        8          -0.000004733   -0.000003253   -0.000001481
     12        8           0.000000397   -0.000005302   -0.000002462
     13        1           0.000001574    0.000003163    0.000000734
     14        9           0.000001803   -0.000000659   -0.000006534
 -------------------------------------------------------------------
 Cartesian Forces:  Max     0.000029986 RMS     0.000007693

 GradGradGradGradGradGradGradGradGradGradGradGradGradGradGradGradGradGrad
 Berny optimization.
 Search for a local minimum.
 Step number   1 out of a maximum of    2
 All quantities printed in internal units (Hartrees-Bohrs-Radians)
 Second derivative matrix not updated -- analytic derivatives used.
 ITU=  0
     Eigenvalues ---    0.00039   0.00147   0.00282   0.00643   0.01732
     Eigenvalues ---    0.02271   0.03207   0.03724   0.04049   0.05737
     Eigenvalues ---    0.06183   0.07647   0.08088   0.08864   0.09944
     Eigenvalues ---    0.12960   0.17488   0.19983   0.22464   0.23918
     Eigenvalues ---    0.26390   0.33112   0.34914   0.42004   0.49992
     Eigenvalues ---    0.67319   0.73300   0.73902   0.75949   0.78176
     Eigenvalues ---    0.79260   0.82594   0.84626   0.93229   1.14349
     Eigenvalues ---    1.81880
 Angle between quadratic step and forces=  86.50 degrees.
 Linear search not attempted -- first point.
 B after Tr=     0.000013    0.000003   -0.000051
         Rot=    1.000000    0.000016    0.000013    0.000002 Ang=   0.00 deg.
 Variable       Old X    -DE/DX   Delta X   Delta X   Delta X     New X
                                 (Linear)    (Quad)   (Total)
    X1        3.36972   0.00001   0.00000   0.00008   0.00009   3.36981
    Y1       -0.14500  -0.00000   0.00000   0.00007   0.00005  -0.14494
    Z1       -0.09102   0.00001   0.00000   0.00021   0.00025  -0.09077
    X2        3.78726  -0.00000   0.00000  -0.00004  -0.00009   3.78717
    Y2       -0.94518   0.00000   0.00000   0.00075   0.00081  -0.94436
    Z2        2.25005  -0.00001   0.00000   0.00044   0.00052   2.25056
    X3        3.74302  -0.00000   0.00000   0.00036   0.00041   3.74343
    Y3       -2.03671  -0.00001   0.00000  -0.00035  -0.00041  -2.03712
    Z3       -1.68579  -0.00001   0.00000   0.00074   0.00085  -1.68495
    X4        0.64098  -0.00001   0.00000  -0.00001   0.00002   0.64100
    Y4        0.91555  -0.00000   0.00000  -0.00024  -0.00025   0.91529
    Z4       -0.33518  -0.00003   0.00000  -0.00039  -0.00045  -0.33563
    X5        0.53426   0.00000   0.00000  -0.00033  -0.00033   0.53393
    Y5        3.08301   0.00000   0.00000   0.00004   0.00007   3.08308
    Z5        0.96038   0.00000   0.00000  -0.00080  -0.00093   0.95945
    X6        0.21443   0.00000   0.00000   0.00028   0.00037   0.21480
    Y6        1.40579  -0.00001   0.00000  -0.00077  -0.00085   1.40494
    Z6       -2.79239   0.00002   0.00000  -0.00047  -0.00055  -2.79294
    X7       -1.48082  -0.00001   0.00000  -0.00005  -0.00006  -1.48088
    Y7       -0.87719  -0.00001   0.00000  -0.00011  -0.00008  -0.87727
    Z7        0.62188   0.00002   0.00000  -0.00015  -0.00021   0.62167
    X8       -1.46742   0.00001   0.00000   0.00037   0.00030  -1.46712
    Y8       -0.89507   0.00000   0.00000  -0.00022  -0.00012  -0.89518
    Z8        3.16206  -0.00001   0.00000  -0.00019  -0.00025   3.16181
    X9       -1.02124  -0.00001   0.00000  -0.00042  -0.00041  -1.02165
    Y9       -3.21561   0.00000   0.00000  -0.00011  -0.00011  -3.21573
    Z9       -0.20977   0.00000   0.00000  -0.00036  -0.00033  -0.21011
   X10       -4.12614   0.00000   0.00000  -0.00003  -0.00001  -4.12615
   Y10       -0.06065   0.00001   0.00000   0.00029   0.00030  -0.06035
   Z10       -0.33849   0.00001   0.00000   0.00012  -0.00004  -0.33853
   X11       -5.31660  -0.00000   0.00000   0.00036   0.00041  -5.31619
   Y11       -1.26815  -0.00000   0.00000   0.00122   0.00119  -1.26696
   Z11       -1.81374  -0.00000   0.00000  -0.00098  -0.00113  -1.81487
   X12       -4.81963   0.00000   0.00000  -0.00042  -0.00042  -4.82005
   Y12        2.10786  -0.00001   0.00000  -0.00055  -0.00051   2.10736
   Z12        0.71833  -0.00000   0.00000   0.00152   0.00128   0.71961
   X13       -6.46241   0.00000   0.00000  -0.00029  -0.00027  -6.46268
   Y13        2.55308   0.00000   0.00000  -0.00016  -0.00013   2.55295
   Z13        0.06616   0.00000   0.00000   0.00147   0.00117   0.06733
   X14        5.00189   0.00000   0.00000  -0.00005  -0.00001   5.00188
   Y14        1.68522  -0.00000   0.00000   0.00007   0.00004   1.68526
   Z14       -0.62298  -0.00001   0.00000  -0.00019  -0.00016  -0.62314
         Item               Value     Threshold  Converged?
 Maximum Force            0.000030     0.000450     YES
 RMS     Force            0.000008     0.000300     YES
 Maximum Displacement     0.001283     0.001800     YES
 RMS     Displacement     0.000524     0.001200     YES
 Predicted change in Energy=-4.929192D-09
 Optimization completed.
    -- Stationary point found.
 GradGradGradGradGradGradGradGradGradGradGradGradGradGradGradGradGradGrad


 ----------------------------------------------------------------------

 Electric dipole moment (input orientation):
 (Debye = 10**-18 statcoulomb cm , SI units = C m)
                  (au)            (Debye)         (10**-30 SI)
   Tot        0.887095D+00      0.225477D+01      0.752111D+01
   x         -0.579267D+00     -0.147235D+01     -0.491123D+01
   y          0.648890D+00      0.164931D+01      0.550152D+01
   z          0.174154D+00      0.442655D+00      0.147654D+01

 Dipole polarizability, Alpha (input orientation).
 (esu units = cm**3 , SI units = C**2 m**2 J**-1)
 Alpha(0;0):
               (au)            (10**-24 esu)      (10**-40 SI)
   iso        0.590584D+02      0.875155D+01      0.973742D+01
   aniso      0.125112D+02      0.185397D+01      0.206282D+01
   xx         0.648266D+02      0.960631D+01      0.106885D+02
   yx        -0.583448D+00     -0.864581D-01     -0.961976D-01
   yy         0.572813D+02      0.848821D+01      0.944441D+01
   zx         0.301868D+01      0.447322D+00      0.497713D+00
   zy         0.406750D+01      0.602742D+00      0.670641D+00
   zz         0.550673D+02      0.816014D+01      0.907938D+01

 ----------------------------------------------------------------------

 Dipole orientation:
     6          2.05133162          1.33184721         -2.32433454
     9          3.52926927         -0.65617906         -2.72270059
     9          0.49490848          1.60179588         -4.26492807
     6          0.55919715          1.00716255          0.18534124
     9          2.20189660          1.21493356          2.09482031
     9         -1.12412263          2.90522508          0.34008153
     6         -0.89716627         -1.53099600          0.44740822
     9          0.76303779         -3.39361155          0.92426855
     9         -2.07810642         -2.03171729         -1.72647170
     6         -2.90072457         -1.43335308          2.58352650
     8         -5.11231283         -1.49699753          2.18800686
     8         -1.79112680         -1.28464154          4.83006135
     1         -3.09647068         -1.21741329          6.10041504
     9          3.48513716          3.38427813         -2.15580301

 Electric dipole moment (dipole orientation):
 (Debye = 10**-18 statcoulomb cm , SI units = C m)
                  (au)            (Debye)         (10**-30 SI)
   Tot        0.887095D+00      0.225477D+01      0.752111D+01
   x          0.000000D+00      0.000000D+00      0.000000D+00
   y          0.000000D+00      0.000000D+00      0.000000D+00
   z          0.887095D+00      0.225477D+01      0.752111D+01

 Dipole polarizability, Alpha (dipole orientation).
 (esu units = cm**3 , SI units = C**2 m**2 J**-1)
 Alpha(0;0):
               (au)            (10**-24 esu)      (10**-40 SI)
   iso        0.590584D+02      0.875155D+01      0.973742D+01
   aniso      0.125112D+02      0.185397D+01      0.206282D+01
   xx         0.638207D+02      0.945726D+01      0.105226D+02
   yx         0.234190D+01      0.347034D+00      0.386128D+00
   yy         0.519896D+02      0.770407D+01      0.857193D+01
   zx        -0.222137D+01     -0.329174D+00     -0.366255D+00
   zy        -0.166556D+01     -0.246810D+00     -0.274613D+00
   zz         0.613649D+02      0.909334D+01      0.101177D+02

 ----------------------------------------------------------------------
 1\1\GINC-CCLEARMN\Freq\RwB97XD\6-311+G(2d,2p)\C4H1F7O2\RAPPE\06-Feb-20
 21\0\\# freq wb97xd/6-311+g(2d,2p) geom=connectivity\\Title Card Requi
 red\\0,1\C,1.783178,-0.07673,-0.048167\F,2.004131,-0.500166,1.190675\F
 ,1.980721,-1.077782,-0.892083\C,0.339194,0.484486,-0.177369\F,0.282719
 ,1.631456,0.508211\F,0.113472,0.743911,-1.477667\C,-0.783617,-0.464189
 ,0.329085\F,-0.776527,-0.473649,1.67329\F,-0.540415,-1.70163,-0.111007
 \C,-2.183461,-0.032094,-0.179122\O,-2.813425,-0.671078,-0.959788\O,-2.
 550439,1.115434,0.380122\H,-3.419758,1.351032,0.035013\F,2.646888,0.89
 178,-0.329666\\Version=EM64M-G16RevA.03\State=1-A\HF=-1002.4210962\RMS
 D=3.118e-09\RMSF=7.693e-06\ZeroPoint=0.0643663\Thermal=0.0761458\Dipol
 e=-0.5792668,0.6488901,0.1741537\DipoleDeriv=1.5434739,0.1800809,-0.05
 98301,-0.0017939,1.5441044,0.0039967,0.002296,-0.0001325,1.5979731,-0.
 3920273,0.0664667,-0.1714428,0.0588888,-0.3314119,0.2078185,-0.0899665
 ,0.1819573,-0.794848,-0.3849994,0.142308,0.1041031,0.1048757,-0.617820
 3,-0.3021628,0.054984,-0.2826536,-0.5000912,0.6125274,-0.0715041,0.075
 4965,0.1177116,0.9596613,0.1303511,-0.0038621,0.1042108,1.1322025,-0.3
 110474,0.0194586,0.018551,-0.0072967,-0.7067421,-0.2977527,0.0043747,-
 0.2019235,-0.3806198,-0.3523934,0.0159732,-0.0929824,0.0174222,-0.2795
 445,0.1893716,-0.070051,0.0923173,-0.7988083,0.6165168,-0.1033765,-0.0
 364277,-0.0663164,1.0593882,0.038202,-0.1056565,0.0813019,1.1812169,-0
 .3196191,-0.0069364,-0.0043396,0.0074119,-0.2556088,0.0859851,-0.00613
 56,0.0102931,-0.8569787,-0.3241065,0.0936447,0.0442999,0.1220418,-0.76
 52498,-0.1791377,0.0425181,-0.1001835,-0.2862926,1.0720481,-0.0961757,
 0.2149689,-0.2725599,1.3258859,0.6449456,0.3597008,0.6703075,0.7947319
 ,-0.7667326,-0.2121374,-0.3124945,0.005298,-0.6647679,-0.2298987,-0.26
 57755,-0.355386,-0.6308206,-0.5509212,0.377196,0.1764564,0.2572493,-1.
 0261268,-0.3694312,0.0588375,-0.2753631,-0.4601179,0.3126354,-0.054732
 3,-0.0620273,-0.057714,0.3494333,-0.0224756,-0.0679049,-0.0247791,0.29
 09514,-0.7553547,-0.3502658,0.1056687,-0.2852183,-0.591201,0.1001881,0
 .0866409,0.1000333,-0.2884987\Polar=64.826611,-0.5834481,57.2813112,3.
 01868,4.0675034,55.0673329\Quadrupole=4.1155203,-1.2660653,-2.849455,-
 5.1462743,-1.6628493,-1.5783273\PG=C01 [X(C4H1F7O2)]\NImag=0\\0.592228
 33,-0.01826169,0.55775017,0.00270489,0.00463654,0.55642110,-0.10393342
 ,0.02524704,-0.05279264,0.08299792,0.02682876,-0.10139152,0.06523681,-
 0.01461632,0.11342357,-0.06184980,0.06848976,-0.24450555,0.05305672,-0
 .10174726,0.37702605,-0.10171513,0.04524593,0.02991093,0.01553493,-0.0
 0607501,-0.00344708,0.08307335,0.05158932,-0.20238904,-0.09703171,-0.0
 0353398,0.01465737,-0.02025657,-0.03335845,0.27999731,0.03853658,-0.10
 137019,-0.15198462,0.00411881,-0.03432018,-0.07667261,-0.03420009,0.16
 664109,0.22134256,-0.17378309,0.02076181,0.00175853,0.00561873,0.00181
 023,0.00054069,0.00573144,0.00224897,-0.00317838,0.53466614,0.05213612
 ,-0.06760756,0.00997190,0.00710995,0.00110060,0.00458167,0.02230840,-0
 .01697198,-0.01142606,-0.00622019,0.56397564,-0.01199686,0.01280635,-0
 .04108129,-0.03260974,0.01862951,-0.02690535,0.02172541,-0.02486658,-0
 .01100643,0.00390530,-0.00883163,0.52378178,0.00317976,0.02837488,0.01
 683778,-0.00088387,-0.00037924,-0.00183851,-0.00783860,0.00663808,0.00
 343462,-0.08059049,0.00970948,0.00660506,0.07071547,-0.00743569,-0.034
 73383,-0.02452875,0.00235014,0.00150296,0.00393672,0.00855771,-0.00446
 455,-0.00145176,0.01590941,-0.26170501,-0.07774485,-0.01373244,0.32584
 194,0.00073667,-0.01243090,-0.00716321,0.00219777,-0.00031458,0.005137
 26,0.00220394,-0.00111051,0.00070290,0.00809955,-0.09265226,-0.1065111
 8,-0.00911323,0.15110205,0.16309366,0.00105062,0.00928688,-0.03677223,
 -0.00931490,0.00509795,-0.00677724,-0.00084399,0.00023907,0.00044199,-
 0.08644269,0.01175408,-0.03152091,0.01071874,-0.00513985,-0.00441858,0
 .07574288,-0.00221707,-0.00301992,0.01864034,0.00474232,-0.00142019,0.
 00232390,0.00081473,0.00124772,0.00150339,0.00957188,-0.09126337,0.058
 46549,-0.00623562,0.00962020,-0.04524294,-0.01222142,0.08380757,0.0009
 7372,0.00458419,-0.03603755,-0.00658160,0.00318150,-0.00149682,-0.0011
 2235,0.00225515,0.00673352,-0.03550494,0.07324702,-0.25673971,-0.00606
 888,-0.03223247,-0.06024066,0.05233814,-0.06254913,0.38214516,-0.02133
 798,-0.02577507,0.01358106,0.00223248,0.00163567,-0.00105985,0.0012711
 1,0.00267803,-0.00013798,-0.16198930,-0.03097676,0.01539151,0.00980860
 ,0.00414987,-0.00096138,0.01097844,0.00878009,-0.00981086,0.49495928,-
 0.00664343,0.03031026,-0.00319777,0.00134269,-0.00426513,0.00228782,0.
 00042582,-0.00899212,-0.00331252,-0.03372166,-0.09348754,0.02660735,-0
 .01983610,-0.03428097,-0.00418294,-0.00492852,0.00126718,0.00223115,-0
 .02250647,0.55970808,0.00696968,-0.00456802,0.01925373,0.00021449,0.00
 191928,-0.00734643,-0.00214181,-0.00093584,-0.00267225,0.01938621,0.03
 103137,-0.05468620,-0.01077524,-0.02695589,-0.00365362,0.01990052,0.02
 433272,-0.03674914,0.01286505,-0.00009794,0.51863547,0.00155529,0.0023
 5667,-0.00434966,-0.00409010,-0.00036980,0.00214302,-0.00007004,0.0000
 4662,0.00056066,0.00943434,-0.00188951,0.02413553,-0.00005177,-0.00031
 038,0.00091586,-0.00344548,-0.00520679,0.00697279,-0.07392208,0.002086
 15,-0.00965292,0.06151959,0.00117894,-0.00310987,0.00037930,-0.0004890
 1,0.00121439,-0.00085700,-0.00014550,0.00094483,0.00030008,0.00253341,
 0.00145318,0.01785494,-0.00106204,0.00184007,0.00353636,-0.00376760,-0
 .00314547,0.00534176,-0.00005500,-0.07211664,0.01972962,-0.00261316,0.
 07355920,-0.00448152,0.00331218,-0.00807453,0.00116411,-0.00179296,0.0
 0533724,0.00075174,0.00077339,0.00162596,0.00028575,-0.00619678,-0.038
 41974,-0.00026984,0.00291605,0.00560986,0.00558496,0.00563929,-0.00516
 875,-0.00631317,0.03834728,-0.28473596,0.00138622,-0.00124840,0.401895
 74,0.00113095,0.00639050,0.00055718,-0.00078005,-0.00096534,-0.0005170
 5,-0.00643825,-0.00403357,0.00096362,0.01237854,-0.01933580,-0.0058874
 9,-0.00345609,-0.00682290,-0.00013149,-0.00042108,-0.00060358,0.001452
 91,-0.08229344,0.03344577,0.00477921,0.00876267,0.00387476,0.00843456,
 0.08493488,0.00339318,-0.00815470,-0.00173246,-0.00118722,0.00157322,-
 0.00033434,-0.00220361,0.00481629,0.00252347,0.01336947,-0.03764665,-0
 .02134804,-0.00842746,-0.00994961,0.00102376,-0.00163258,0.00068123,0.
 00565998,0.03815995,-0.28622020,-0.04035386,0.00412700,-0.00726612,-0.
 04170192,-0.05762503,0.37225778,0.00013581,-0.00232605,-0.00383004,-0.
 00034390,-0.00040614,0.00134375,0.00248939,0.00226805,0.00130230,-0.00
 304393,-0.00042628,0.00242680,0.00076840,0.00167669,0.00126601,-0.0001
 6513,-0.00076533,0.00352830,0.01193902,-0.05733665,-0.08069732,0.01064
 390,-0.05545195,-0.04381172,-0.01886110,0.10826649,0.11210637,-0.00459
 612,0.00189354,0.00003317,0.00119797,-0.00027397,0.00021472,0.00115655
 ,-0.00089197,-0.00052977,-0.02519854,-0.01054798,0.00077448,0.00137522
 ,0.00400763,0.00103926,0.00075921,0.00192000,-0.00359822,-0.15558262,0
 .03255767,-0.02511002,0.00951861,-0.00244219,0.00751592,-0.00574665,0.
 00358883,-0.00310277,0.66190953,0.00329102,-0.00432077,0.00335488,-0.0
 0025049,0.00019256,-0.00081438,-0.00029728,0.00018105,-0.00032069,-0.0
 2441051,0.02714198,-0.00489459,0.00409500,-0.00731848,-0.00267358,0.00
 162380,-0.00253609,-0.00047183,0.01225389,-0.07833885,0.02865784,0.004
 12211,0.00419073,-0.00539273,0.03898672,-0.03555130,-0.00157812,0.0473
 2507,0.65928651,-0.00321108,0.00571489,-0.00094726,0.00016572,-0.00042
 572,-0.00003001,0.00083771,-0.00193352,-0.00110922,0.00990914,-0.00789
 522,0.01909200,0.00101121,0.00028405,-0.00155599,-0.00242978,-0.000107
 21,-0.00492666,0.00058526,0.02656896,-0.06856137,-0.03427729,0.0072238
 1,-0.03885965,0.00668339,-0.01823259,0.00232822,0.27010055,0.31801859,
 0.58972190,0.00324744,-0.00250845,0.00021675,-0.00062526,0.00023986,-0
 .00008792,-0.00074082,0.00085200,0.00051501,-0.00157319,0.00774414,-0.
 00415008,-0.00013321,-0.00128529,-0.00010228,-0.00029560,-0.00135497,0
 .00239659,-0.01539487,-0.02460663,-0.02627625,-0.00732264,0.00318795,-
 0.01187474,0.00047985,0.00006218,0.00015432,-0.32376666,-0.18354668,-0
 .26090019,0.31185990,-0.00022655,-0.00066165,-0.00073748,-0.00003341,0
 .00016502,0.00015792,-0.00006768,0.00057186,0.00035775,0.00260855,-0.0
 0422306,-0.00061871,-0.00094711,0.00224508,0.00090106,-0.00032538,0.00
 050825,0.00055092,-0.00012934,0.00317607,-0.01199484,-0.00197346,0.001
 26467,0.00099337,0.00218198,0.00682906,0.00465527,-0.19364004,-0.29128
 668,-0.25344858,0.22034970,0.33219934,0.00224706,-0.00341830,-0.000009
 44,-0.00021625,0.00025634,0.00016003,-0.00059225,0.00124590,0.00078565
 ,-0.00367029,0.00574891,-0.00907004,-0.00053694,0.00028258,0.00088667,
 0.00217551,-0.00005449,0.00370476,-0.02824232,-0.02440422,-0.00320349,
 0.00042492,0.00204231,-0.00142198,0.00338041,0.00282323,0.00224279,-0.
 26689198,-0.24870343,-0.38896210,0.30527783,0.32484726,0.41758978,0.00
 227756,-0.00023534,0.00035270,-0.00047015,0.00002024,-0.00019197,-0.00
 052676,0.00006785,0.00007240,0.00123971,0.00298964,-0.00210282,-0.0043
 8206,-0.00223367,-0.00025305,-0.00066555,-0.00058867,0.00124572,-0.005
 27327,0.02968449,0.01520047,-0.00238899,0.00102060,-0.00448193,-0.0090
 7966,0.00902926,-0.00062388,-0.14628530,0.08608653,0.01132458,0.037221
 54,-0.02024630,-0.00911855,0.54538971,-0.00178119,-0.00022691,-0.00098
 944,0.00026467,0.00015747,0.00020325,0.00020729,0.00050856,0.00032688,
 0.00180279,-0.00939747,0.00090521,-0.00134267,0.00473391,0.00123812,-0
 .00029235,0.00166470,-0.00005657,0.00897113,-0.01328983,-0.01501175,0.
 00119407,0.00013499,0.00459122,0.00428867,-0.00147598,0.00110241,0.063
 93416,-0.25383628,-0.09140295,-0.01132283,-0.05513949,-0.06301765,-0.1
 8414945,0.38589836,0.00004482,-0.00053763,-0.00051395,0.00008293,-0.00
 001447,0.00028675,-0.00005646,0.00029986,0.00028098,-0.00053374,-0.000
 25601,-0.00293208,-0.00035382,0.00080280,0.00105842,0.00087357,-0.0002
 3580,0.00114329,-0.00510794,0.00124498,0.00491767,0.00018579,0.0007734
 1,0.00446415,-0.00207622,0.00417274,0.00127823,-0.00249511,-0.07870818
 ,-0.11908982,-0.00375977,-0.06794721,-0.01739910,0.16666009,0.12387229
 ,0.21985346,-0.00050887,0.00028319,-0.00011201,0.00015558,-0.00008933,
 0.00012943,0.00012315,-0.00011339,-0.00002510,0.00002427,-0.00013004,-
 0.00050038,-0.00007412,-0.00013422,0.00007834,0.00039231,-0.00017837,0
 .00032143,0.00207876,0.00289641,0.00008334,0.00026564,-0.00076292,-0.0
 0018948,-0.00023772,0.00009276,0.00017303,-0.01782721,0.01504466,-0.00
 291985,-0.00057138,-0.00797712,-0.00230619,-0.41570533,0.11661891,-0.1
 5337961,0.43164504,0.00036649,0.00008929,-0.00007239,-0.00009151,0.000
 00101,0.00000661,-0.00008636,0.00001312,0.00001629,0.00087076,-0.00042
 859,-0.00015083,-0.00054884,0.00021679,0.00021114,-0.00019701,-0.00014
 504,0.00017305,0.00208949,-0.00255965,-0.00484086,-0.00113363,0.000516
 92,-0.00034591,0.00103403,-0.00133122,-0.00004407,0.05155360,-0.016332
 62,0.01535360,-0.00719726,0.00392285,0.00257891,0.07907415,-0.06064143
 ,0.01646117,-0.12558185,0.07675985,0.00012476,-0.00023378,0.00020796,-
 0.00005913,0.00006684,-0.00013493,-0.00002862,0.00006483,-0.00001736,-
 0.00051629,0.00007449,0.00032671,-0.00003039,-0.00005510,-0.00009278,-
 0.00013942,0.00021182,-0.00042869,-0.00217230,-0.00436610,0.00089522,0
 .00048257,0.00050872,0.00071118,0.00124040,-0.00090707,0.00012984,0.02
 242466,-0.00659652,0.01313081,-0.00169036,0.00226104,-0.00555878,-0.17
 821252,0.03833849,-0.09344693,0.15864774,-0.02939039,0.08432072,-0.198
 79535,-0.09305989,0.02807356,0.01236013,-0.01286370,0.01968485,0.01128
 306,-0.02242859,-0.01057236,-0.03951588,-0.04465154,0.01623098,0.00161
 243,0.00211967,-0.00029138,0.00178711,0.00277747,-0.00301443,-0.005535
 10,0.00980382,-0.00544275,0.00023495,-0.00045825,0.00248743,0.00076605
 ,-0.00074674,-0.00016316,0.00308600,-0.00432385,0.00312065,-0.00238508
 ,0.00042615,-0.00193097,-0.00135145,0.00160679,-0.00008453,0.00023987,
 -0.00015206,-0.00007109,0.21621324,-0.10221821,-0.16253395,0.02607023,
 -0.02085487,-0.02691133,0.04202190,-0.03532598,-0.07012042,-0.01946755
 ,-0.00713492,-0.01094016,0.00318639,0.00369406,0.00645149,0.00059522,0
 .00050292,0.00273324,-0.00191472,0.00072452,-0.00091066,-0.00091182,-0
 .00043589,0.00051912,0.00010592,-0.00081622,0.00143820,0.00036566,0.00
 101564,-0.00147177,0.00028189,-0.00061373,0.00042869,-0.00022735,-0.00
 051934,0.00090941,0.00007205,0.00003132,-0.00008130,0.00002273,0.16195
 070,0.26048944,0.02906528,0.02534095,-0.08173536,0.03160271,0.04973104
 ,-0.03219938,-0.01633047,-0.02741353,0.01068864,0.00256242,0.00302887,
 0.00172474,0.00032978,0.00196788,0.00146269,0.00090862,-0.00216207,0.0
 0453296,-0.00055610,-0.00038941,-0.00139630,0.00042861,-0.00013294,0.0
 0084821,-0.00001834,0.00014061,0.00038647,-0.00037488,0.00012276,-0.00
 023083,0.00028110,0.00002224,0.00025526,0.00012876,-0.00009951,0.00009
 894,-0.00000068,0.00004367,-0.00004297,-0.04802680,-0.05020056,0.09560
 693\\-0.00000674,0.00000088,-0.00001232,0.00000103,-0.00000193,0.00000
 597,0.00000171,0.00000511,0.00000552,0.00000538,0.00000111,0.00002999,
 -0.00000224,-0.00000477,-0.00000092,-0.00000397,0.00000586,-0.00001557
 ,0.00000706,0.00000619,-0.00001724,-0.00000504,-0.00000451,0.00000808,
 0.00000520,-0.00000099,-0.00000386,-0.00000336,-0.00001301,-0.00000940
 ,0.00000473,0.00000325,0.00000148,-0.00000040,0.00000530,0.00000246,-0
 .00000157,-0.00000316,-0.00000073,-0.00000180,0.00000066,0.00000653\\\
 @


 A COMPUTER IS LIKE A HORSE, IT WILL SENSE WEAKNESS.
     -- GREG WETTSTEIN
 Job cpu time:       0 days  3 hours 47 minutes 51.8 seconds.
 Elapsed time:       0 days  0 hours 29 minutes 25.5 seconds.
 File lengths (MBytes):  RWF=    199 Int=      0 D2E=      0 Chk=     11 Scr=      1
 Normal termination of Gaussian 16 at Sat Feb  6 14:48:58 2021.
