 Entering Gaussian System, Link 0=/applications/g16/g16/g16
 Initial command:
 /applications/g16/g16/l1.exe "/scratch/g98/Gau-45427.inp" -scrdir="/scratch/g98/"
 Entering Link 1 = /applications/g16/g16/l1.exe PID=     45428.
  
 Copyright (c) 1988,1990,1992,1993,1995,1998,2003,2009,2016,
            Gaussian, Inc.  All Rights Reserved.
  
 This is part of the Gaussian(R) 16 program.  It is based on
 the Gaussian(R) 09 system (copyright 2009, Gaussian, Inc.),
 the Gaussian(R) 03 system (copyright 2003, Gaussian, Inc.),
 the Gaussian(R) 98 system (copyright 1998, Gaussian, Inc.),
 the Gaussian(R) 94 system (copyright 1995, Gaussian, Inc.),
 the Gaussian 92(TM) system (copyright 1992, Gaussian, Inc.),
 the Gaussian 90(TM) system (copyright 1990, Gaussian, Inc.),
 the Gaussian 88(TM) system (copyright 1988, Gaussian, Inc.),
 the Gaussian 86(TM) system (copyright 1986, Carnegie Mellon
 University), and the Gaussian 82(TM) system (copyright 1983,
 Carnegie Mellon University). Gaussian is a federally registered
 trademark of Gaussian, Inc.
  
 This software contains proprietary and confidential information,
 including trade secrets, belonging to Gaussian, Inc.
  
 This software is provided under written license and may be
 used, copied, transmitted, or stored only in accord with that
 written license.
  
 The following legend is applicable only to US Government
 contracts under FAR:
  
                    RESTRICTED RIGHTS LEGEND
  
 Use, reproduction and disclosure by the US Government is
 subject to restrictions as set forth in subparagraphs (a)
 and (c) of the Commercial Computer Software - Restricted
 Rights clause in FAR 52.227-19.
  
 Gaussian, Inc.
 340 Quinnipiac St., Bldg. 40, Wallingford CT 06492
  
  
 ---------------------------------------------------------------
 Warning -- This program may not be used in any manner that
 competes with the business of Gaussian, Inc. or will provide
 assistance to any competitor of Gaussian, Inc.  The licensee
 of this program is prohibited from giving any competitor of
 Gaussian, Inc. access to this program.  By using this program,
 the user acknowledges that Gaussian, Inc. is engaged in the
 business of creating and licensing software in the field of
 computational chemistry and represents and warrants to the
 licensee that it is not a competitor of Gaussian, Inc. and that
 it will not use this program in any manner prohibited above.
 ---------------------------------------------------------------
  

 Cite this work as:
 Gaussian 16, Revision A.03,
 M. J. Frisch, G. W. Trucks, H. B. Schlegel, G. E. Scuseria, 
 M. A. Robb, J. R. Cheeseman, G. Scalmani, V. Barone, 
 G. A. Petersson, H. Nakatsuji, X. Li, M. Caricato, A. V. Marenich, 
 J. Bloino, B. G. Janesko, R. Gomperts, B. Mennucci, H. P. Hratchian, 
 J. V. Ortiz, A. F. Izmaylov, J. L. Sonnenberg, D. Williams-Young, 
 F. Ding, F. Lipparini, F. Egidi, J. Goings, B. Peng, A. Petrone, 
 T. Henderson, D. Ranasinghe, V. G. Zakrzewski, J. Gao, N. Rega, 
 G. Zheng, W. Liang, M. Hada, M. Ehara, K. Toyota, R. Fukuda, 
 J. Hasegawa, M. Ishida, T. Nakajima, Y. Honda, O. Kitao, H. Nakai, 
 T. Vreven, K. Throssell, J. A. Montgomery, Jr., J. E. Peralta, 
 F. Ogliaro, M. J. Bearpark, J. J. Heyd, E. N. Brothers, K. N. Kudin, 
 V. N. Staroverov, T. A. Keith, R. Kobayashi, J. Normand, 
 K. Raghavachari, A. P. Rendell, J. C. Burant, S. S. Iyengar, 
 J. Tomasi, M. Cossi, J. M. Millam, M. Klene, C. Adamo, R. Cammi, 
 J. W. Ochterski, R. L. Martin, K. Morokuma, O. Farkas, 
 J. B. Foresman, and D. J. Fox, Gaussian, Inc., Wallingford CT, 2016.
 
 ******************************************
 Gaussian 16:  EM64M-G16RevA.03 25-Dec-2016
                 6-Feb-2021 
 ******************************************
 %mem=24GB
 %nprocshared=8
 Will use up to    8 processors via shared memory.
 %chk=1_propane.chk
 ----------------------------------------------
 # freq wb97xd/6-311+g(2d,2p) geom=connectivity
 ----------------------------------------------
 1/10=4,30=1,38=1,57=2/1,3;
 2/12=2,17=6,18=5,40=1/2;
 3/5=4,6=6,7=212,11=2,25=1,30=1,71=2,74=-58,140=1/1,2,3;
 4//1;
 5/5=2,38=5,98=1/2;
 8/6=4,10=90,11=11/1;
 11/6=1,8=1,9=11,15=111,16=1/1,2,10;
 10/6=1/2;
 6/7=2,8=2,9=2,10=2,28=1/1;
 7/8=1,10=1,25=1/1,2,3,16;
 1/10=4,30=1/3;
 99//99;
 -------------------
 Title Card Required
 -------------------
 Symbolic Z-matrix:
 Charge =  0 Multiplicity = 1
 C                    -1.08061  -0.27436  -0.20088 
 F                    -1.11233  -1.49558   0.318 
 F                    -1.01795  -0.3746   -1.52636 
 C                     0.15118   0.51046   0.32023 
 F                     0.10053   0.52257   1.66382 
 F                     0.05653   1.76375  -0.12855 
 C                     1.49678  -0.0878   -0.15808 
 O                     2.15535   0.40933  -1.01551 
 O                     1.78169  -1.20125   0.50797 
 H                     2.61757  -1.54392   0.17057 
 F                    -2.19545   0.36046   0.1311 
 

 GradGradGradGradGradGradGradGradGradGradGradGradGradGradGradGradGradGrad
 Berny optimization.
 Initialization pass.
 Trust Radius=3.00D-01 FncErr=1.00D-07 GrdErr=1.00D-07 EigMax=2.50D+02 EigMin=1.00D-04
 Number of steps in this run=      2 maximum allowed number of steps=      2.
 GradGradGradGradGradGradGradGradGradGradGradGradGradGradGradGradGradGrad

                          Input orientation:                          
 ---------------------------------------------------------------------
 Center     Atomic      Atomic             Coordinates (Angstroms)
 Number     Number       Type             X           Y           Z
 ---------------------------------------------------------------------
      1          6           0       -1.080608   -0.274363   -0.200880
      2          9           0       -1.112329   -1.495580    0.317996
      3          9           0       -1.017954   -0.374598   -1.526363
      4          6           0        0.151183    0.510464    0.320231
      5          9           0        0.100530    0.522574    1.663818
      6          9           0        0.056534    1.763749   -0.128551
      7          6           0        1.496782   -0.087795   -0.158076
      8          8           0        2.155349    0.409329   -1.015505
      9          8           0        1.781691   -1.201249    0.507973
     10          1           0        2.617574   -1.543924    0.170568
     11          9           0       -2.195452    0.360461    0.131103
 ---------------------------------------------------------------------
                    Distance matrix (angstroms):
                    1          2          3          4          5
     1  C    0.000000
     2  F    1.327256   0.000000
     3  F    1.330743   2.160363   0.000000
     4  C    1.550748   2.370797   2.357992   0.000000
     5  F    2.346762   2.712049   3.497596   1.344596   0.000000
     6  F    2.335000   3.491256   2.771449   1.334574   2.180605
     7  C    2.584488   3.002659   2.877214   1.548331   2.375156
     8  O    3.406239   4.010564   3.308379   2.410622   3.378443
     9  O    3.091010   2.915146   3.558073   2.371448   2.670926
    10  H    3.927634   3.733129   4.178991   3.213408   3.582697
    11  F    1.325176   2.157075   2.161945   2.359018   2.765326
                    6          7          8          9         10
     6  F    0.000000
     7  C    2.345933   0.000000
     8  O    2.650691   1.189969   0.000000
     9  O    3.488917   1.328373   2.248236   0.000000
    10  H    4.193936   1.866680   2.331441   0.964349   0.000000
    11  F    2.666098   3.730570   4.499619   4.289363   5.176240
                   11
    11  F    0.000000
 Stoichiometry    C3HF5O2
 Framework group  C1[X(C3HF5O2)]
 Deg. of freedom    27
 Full point group                 C1      NOp   1
 Largest Abelian subgroup         C1      NOp   1
 Largest concise Abelian subgroup C1      NOp   1
                         Standard orientation:                         
 ---------------------------------------------------------------------
 Center     Atomic      Atomic             Coordinates (Angstroms)
 Number     Number       Type             X           Y           Z
 ---------------------------------------------------------------------
      1          6           0       -1.080608   -0.274363   -0.200880
      2          9           0       -1.112329   -1.495580    0.317996
      3          9           0       -1.017954   -0.374598   -1.526363
      4          6           0        0.151183    0.510464    0.320231
      5          9           0        0.100530    0.522574    1.663818
      6          9           0        0.056534    1.763749   -0.128551
      7          6           0        1.496782   -0.087795   -0.158076
      8          8           0        2.155349    0.409329   -1.015505
      9          8           0        1.781691   -1.201249    0.507973
     10          1           0        2.617574   -1.543924    0.170568
     11          9           0       -2.195452    0.360461    0.131103
 ---------------------------------------------------------------------
 Rotational constants (GHZ):           1.8994549           1.1749885           1.1178105
 Standard basis: 6-311+G(2d,2p) (5D, 7F)
 There are   299 symmetry adapted cartesian basis functions of A   symmetry.
 There are   279 symmetry adapted basis functions of A   symmetry.
   279 basis functions,   431 primitive gaussians,   299 cartesian basis functions
    40 alpha electrons       40 beta electrons
       nuclear repulsion energy       638.7244510917 Hartrees.
 NAtoms=   11 NActive=   11 NUniq=   11 SFac= 1.00D+00 NAtFMM=   60 NAOKFM=F Big=F
 Integral buffers will be    131072 words long.
 Raffenetti 2 integral format.
 Two-electron integral symmetry is turned on.
 Nuclear repulsion after empirical dispersion term =      638.7200849716 Hartrees.
 One-electron integrals computed using PRISM.
 NBasis=   279 RedAO= T EigKep=  5.62D-05  NBF=   279
 NBsUse=   279 1.00D-06 EigRej= -1.00D+00 NBFU=   279
 ExpMin= 4.38D-02 ExpMax= 1.14D+04 ExpMxC= 1.72D+03 IAcc=3 IRadAn=         5 AccDes= 0.00D+00
 Harris functional with IExCor= 4639 and IRadAn=       5 diagonalized for initial guess.
 HarFok:  IExCor= 4639 AccDes= 0.00D+00 IRadAn=         5 IDoV= 1 UseB2=F ITyADJ=14
 ICtDFT=  3500011 ScaDFX=  1.000000  1.000000  1.000000  1.000000
 FoFCou: FMM=F IPFlag=           0 FMFlag=      100000 FMFlg1=           0
         NFxFlg=           0 DoJE=T BraDBF=F KetDBF=T FulRan=T
         wScrn=  0.000000 ICntrl=       500 IOpCl=  0 I1Cent=   200000004 NGrid=           0
         NMat0=    1 NMatS0=      1 NMatT0=    0 NMatD0=    1 NMtDS0=    0 NMtDT0=    0
 Petite list used in FoFCou.
 Keep R1 ints in memory in canonical form, NReq=1539223880.
 Requested convergence on RMS density matrix=1.00D-08 within 128 cycles.
 Requested convergence on MAX density matrix=1.00D-06.
 Requested convergence on             energy=1.00D-06.
 No special actions if energy rises.
 SCF Done:  E(RwB97XD) =  -764.622974165     A.U. after   13 cycles
            NFock= 13  Conv=0.95D-08     -V/T= 2.0026
 DoSCS=F DFT=T ScalE2(SS,OS)=  1.000000  1.000000
 Range of M.O.s used for correlation:     1   279
 NBasis=   279 NAE=    40 NBE=    40 NFC=     0 NFV=     0
 NROrb=    279 NOA=    40 NOB=    40 NVA=   239 NVB=   239

 **** Warning!!: The largest alpha MO coefficient is  0.47054886D+02

 Symmetrizing basis deriv contribution to polar:
 IMax=3 JMax=2 DiffMx= 0.00D+00
 G2DrvN: will do    12 centers at a time, making    1 passes.
 Calling FoFCou, ICntrl=  3107 FMM=F I1Cent=   0 AccDes= 0.00D+00.
 End of G2Drv F.D. properties file   721 does not exist.
 End of G2Drv F.D. properties file   722 does not exist.
 End of G2Drv F.D. properties file   788 does not exist.
          IDoAtm=11111111111
          Differentiating once with respect to electric field.
                with respect to dipole field.
          Differentiating once with respect to nuclear coordinates.
 Keep R1 ints in memory in canonical form, NReq=1539229134.
          There are    36 degrees of freedom in the 1st order CPHF.  IDoFFX=6 NUNeed=     3.
     33 vectors produced by pass  0 Test12= 2.66D-14 2.78D-09 XBig12= 1.51D+01 1.46D+00.
 AX will form    33 AO Fock derivatives at one time.
     33 vectors produced by pass  1 Test12= 2.66D-14 2.78D-09 XBig12= 2.40D+00 2.83D-01.
     33 vectors produced by pass  2 Test12= 2.66D-14 2.78D-09 XBig12= 9.23D-02 6.06D-02.
     33 vectors produced by pass  3 Test12= 2.66D-14 2.78D-09 XBig12= 2.16D-03 9.05D-03.
     33 vectors produced by pass  4 Test12= 2.66D-14 2.78D-09 XBig12= 3.30D-05 7.11D-04.
     33 vectors produced by pass  5 Test12= 2.66D-14 2.78D-09 XBig12= 2.84D-07 6.27D-05.
     32 vectors produced by pass  6 Test12= 2.66D-14 2.78D-09 XBig12= 1.89D-09 5.76D-06.
     14 vectors produced by pass  7 Test12= 2.66D-14 2.78D-09 XBig12= 1.26D-11 4.70D-07.
      3 vectors produced by pass  8 Test12= 2.66D-14 2.78D-09 XBig12= 8.38D-14 4.62D-08.
      2 vectors produced by pass  9 Test12= 2.66D-14 2.78D-09 XBig12= 5.54D-16 3.59D-09.
 InvSVY:  IOpt=1 It=  1 EMax= 2.22D-15
 Solved reduced A of dimension   249 with    36 vectors.
 Isotropic polarizability for W=    0.000000       46.26 Bohr**3.
 End of Minotr F.D. properties file   721 does not exist.
 End of Minotr F.D. properties file   722 does not exist.
 End of Minotr F.D. properties file   788 does not exist.

 **********************************************************************

            Population analysis using the SCF density.

 **********************************************************************

 Orbital symmetries:
       Occupied  (A) (A) (A) (A) (A) (A) (A) (A) (A) (A) (A) (A)
                 (A) (A) (A) (A) (A) (A) (A) (A) (A) (A) (A) (A)
                 (A) (A) (A) (A) (A) (A) (A) (A) (A) (A) (A) (A)
                 (A) (A) (A) (A)
       Virtual   (A) (A) (A) (A) (A) (A) (A) (A) (A) (A) (A) (A)
                 (A) (A) (A) (A) (A) (A) (A) (A) (A) (A) (A) (A)
                 (A) (A) (A) (A) (A) (A) (A) (A) (A) (A) (A) (A)
                 (A) (A) (A) (A) (A) (A) (A) (A) (A) (A) (A) (A)
                 (A) (A) (A) (A) (A) (A) (A) (A) (A) (A) (A) (A)
                 (A) (A) (A) (A) (A) (A) (A) (A) (A) (A) (A) (A)
                 (A) (A) (A) (A) (A) (A) (A) (A) (A) (A) (A) (A)
                 (A) (A) (A) (A) (A) (A) (A) (A) (A) (A) (A) (A)
                 (A) (A) (A) (A) (A) (A) (A) (A) (A) (A) (A) (A)
                 (A) (A) (A) (A) (A) (A) (A) (A) (A) (A) (A) (A)
                 (A) (A) (A) (A) (A) (A) (A) (A) (A) (A) (A) (A)
                 (A) (A) (A) (A) (A) (A) (A) (A) (A) (A) (A) (A)
                 (A) (A) (A) (A) (A) (A) (A) (A) (A) (A) (A) (A)
                 (A) (A) (A) (A) (A) (A) (A) (A) (A) (A) (A) (A)
                 (A) (A) (A) (A) (A) (A) (A) (A) (A) (A) (A) (A)
                 (A) (A) (A) (A) (A) (A) (A) (A) (A) (A) (A) (A)
                 (A) (A) (A) (A) (A) (A) (A) (A) (A) (A) (A) (A)
                 (A) (A) (A) (A) (A) (A) (A) (A) (A) (A) (A) (A)
                 (A) (A) (A) (A) (A) (A) (A) (A) (A) (A) (A) (A)
                 (A) (A) (A) (A) (A) (A) (A) (A) (A) (A) (A)
 The electronic state is 1-A.
 Alpha  occ. eigenvalues --  -24.87704 -24.87637 -24.87554 -24.86783 -24.86617
 Alpha  occ. eigenvalues --  -19.34643 -19.28893 -10.57805 -10.51641 -10.47160
 Alpha  occ. eigenvalues --   -1.46880  -1.42026  -1.37535  -1.37332  -1.35754
 Alpha  occ. eigenvalues --   -1.27019  -1.18074  -0.92695  -0.83848  -0.78192
 Alpha  occ. eigenvalues --   -0.74153  -0.73551  -0.72963  -0.69766  -0.68130
 Alpha  occ. eigenvalues --   -0.62431  -0.60426  -0.59970  -0.59773  -0.58970
 Alpha  occ. eigenvalues --   -0.57553  -0.56882  -0.55606  -0.55382  -0.53903
 Alpha  occ. eigenvalues --   -0.53595  -0.53135  -0.48206  -0.45878  -0.41374
 Alpha virt. eigenvalues --    0.01726   0.04995   0.08535   0.09292   0.09822
 Alpha virt. eigenvalues --    0.11778   0.12277   0.12671   0.13879   0.14710
 Alpha virt. eigenvalues --    0.15554   0.16761   0.17922   0.18530   0.19714
 Alpha virt. eigenvalues --    0.20668   0.23929   0.26168   0.26596   0.27919
 Alpha virt. eigenvalues --    0.28451   0.28817   0.30463   0.31273   0.32145
 Alpha virt. eigenvalues --    0.33341   0.33824   0.34454   0.34977   0.35891
 Alpha virt. eigenvalues --    0.36634   0.36850   0.38039   0.39311   0.39960
 Alpha virt. eigenvalues --    0.40739   0.41097   0.41574   0.42286   0.44244
 Alpha virt. eigenvalues --    0.44707   0.45078   0.45133   0.47474   0.49337
 Alpha virt. eigenvalues --    0.49812   0.51953   0.52876   0.53817   0.54416
 Alpha virt. eigenvalues --    0.56257   0.59450   0.61684   0.65712   0.67431
 Alpha virt. eigenvalues --    0.70381   0.72663   0.74440   0.75540   0.78437
 Alpha virt. eigenvalues --    0.81227   0.83305   0.85098   0.86827   0.91143
 Alpha virt. eigenvalues --    0.94838   0.97451   1.01487   1.03690   1.06981
 Alpha virt. eigenvalues --    1.08922   1.10344   1.13736   1.14937   1.16151
 Alpha virt. eigenvalues --    1.19352   1.22495   1.23436   1.25496   1.28298
 Alpha virt. eigenvalues --    1.29799   1.32744   1.35599   1.36172   1.38500
 Alpha virt. eigenvalues --    1.40781   1.43106   1.43211   1.44389   1.45310
 Alpha virt. eigenvalues --    1.46227   1.48415   1.49610   1.50510   1.51174
 Alpha virt. eigenvalues --    1.51993   1.53416   1.55164   1.57553   1.61064
 Alpha virt. eigenvalues --    1.62533   1.63053   1.64672   1.67092   1.69964
 Alpha virt. eigenvalues --    1.80061   1.80677   1.82118   1.94758   1.97207
 Alpha virt. eigenvalues --    1.99603   2.01697   2.04061   2.04753   2.06044
 Alpha virt. eigenvalues --    2.08884   2.11204   2.13154   2.14163   2.14758
 Alpha virt. eigenvalues --    2.18822   2.20615   2.21419   2.25264   2.29661
 Alpha virt. eigenvalues --    2.34403   2.36140   2.38968   2.42129   2.43378
 Alpha virt. eigenvalues --    2.52504   2.54348   2.59549   2.63786   2.66789
 Alpha virt. eigenvalues --    2.68446   2.70355   2.74431   2.75277   2.78914
 Alpha virt. eigenvalues --    2.83549   2.85347   2.92128   2.98697   3.02209
 Alpha virt. eigenvalues --    3.10706   3.23108   3.25296   3.39168   3.41159
 Alpha virt. eigenvalues --    3.44062   3.49184   3.50417   3.53328   3.54984
 Alpha virt. eigenvalues --    3.56933   3.60516   3.62931   3.65116   3.65891
 Alpha virt. eigenvalues --    3.69798   3.76059   3.76264   3.86859   3.91598
 Alpha virt. eigenvalues --    3.96024   4.10940   4.25018   4.31121   4.31352
 Alpha virt. eigenvalues --    4.35235   4.36673   4.43415   5.07997   5.14453
 Alpha virt. eigenvalues --    5.31154   5.60892   5.98407   6.31148   6.41078
 Alpha virt. eigenvalues --    6.41895   6.42827   6.46146   6.46621   6.48320
 Alpha virt. eigenvalues --    6.50260   6.51093   6.52775   6.54366   6.56511
 Alpha virt. eigenvalues --    6.66694   6.82325   6.86586   6.88833   6.89908
 Alpha virt. eigenvalues --    6.92726   6.93753   7.04834   7.14727   7.18550
 Alpha virt. eigenvalues --    7.24322   7.28649   7.43957   7.52478   9.08443
 Alpha virt. eigenvalues --    9.10757   9.11082   9.12040   9.17235   9.18605
 Alpha virt. eigenvalues --    9.21565   9.22631   9.23979   9.24205   9.27497
 Alpha virt. eigenvalues --    9.27793   9.34499   9.35716   9.43139   9.50920
 Alpha virt. eigenvalues --    9.55965   9.65643   9.69274   9.74114   9.76348
 Alpha virt. eigenvalues --    9.76983   9.83449   9.89521   9.90934  23.96926
 Alpha virt. eigenvalues --   24.04067  24.19177  50.05683  50.12760  66.94749
 Alpha virt. eigenvalues --   66.95044  66.96582  66.99308  67.02564
          Condensed to atoms (all electrons):
               1          2          3          4          5          6
     1  C    4.528818   0.241703   0.222564   0.141232  -0.124194  -0.117937
     2  F    0.241703   9.079537   0.012566  -0.043905   0.016824  -0.001169
     3  F    0.222564   0.012566   9.089024  -0.088835  -0.000081   0.015477
     4  C    0.141232  -0.043905  -0.088835   5.288071   0.280285   0.313847
     5  F   -0.124194   0.016824  -0.000081   0.280285   9.126771  -0.005680
     6  F   -0.117937  -0.001169   0.015477   0.313847  -0.005680   9.124317
     7  C   -0.115036  -0.011503   0.035390  -0.014912  -0.049792  -0.078142
     8  O   -0.033250  -0.000405   0.000014   0.009325  -0.003602   0.002037
     9  O   -0.009744   0.000612  -0.003242  -0.086076   0.007475   0.002480
    10  H    0.004702  -0.000097  -0.000031  -0.004288  -0.000076  -0.000311
    11  F    0.227663  -0.005617  -0.001919  -0.118428   0.020035   0.020966
               7          8          9         10         11
     1  C   -0.115036  -0.033250  -0.009744   0.004702   0.227663
     2  F   -0.011503  -0.000405   0.000612  -0.000097  -0.005617
     3  F    0.035390   0.000014  -0.003242  -0.000031  -0.001919
     4  C   -0.014912   0.009325  -0.086076  -0.004288  -0.118428
     5  F   -0.049792  -0.003602   0.007475  -0.000076   0.020035
     6  F   -0.078142   0.002037   0.002480  -0.000311   0.020966
     7  C    4.948665   0.431506   0.359764  -0.011583   0.033695
     8  O    0.431506   8.039173  -0.094296   0.020825  -0.000781
     9  O    0.359764  -0.094296   7.912843   0.246877  -0.001404
    10  H   -0.011583   0.020825   0.246877   0.457695  -0.000049
    11  F    0.033695  -0.000781  -0.001404  -0.000049   9.122130
 Mulliken charges:
               1
     1  C    1.033480
     2  F   -0.288546
     3  F   -0.280928
     4  C    0.323683
     5  F   -0.267965
     6  F   -0.275885
     7  C    0.471948
     8  O   -0.370546
     9  O   -0.335288
    10  H    0.286337
    11  F   -0.296291
 Sum of Mulliken charges =  -0.00000
 Mulliken charges with hydrogens summed into heavy atoms:
               1
     1  C    1.033480
     2  F   -0.288546
     3  F   -0.280928
     4  C    0.323683
     5  F   -0.267965
     6  F   -0.275885
     7  C    0.471948
     8  O   -0.370546
     9  O   -0.048951
    11  F   -0.296291
 APT charges:
               1
     1  C    1.544400
     2  F   -0.507410
     3  F   -0.510356
     4  C    0.958942
     5  F   -0.490558
     6  F   -0.469825
     7  C    1.055826
     8  O   -0.680706
     9  O   -0.678241
    10  H    0.316944
    11  F   -0.539016
 Sum of APT charges =  -0.00000
 APT charges with hydrogens summed into heavy atoms:
               1
     1  C    1.544400
     2  F   -0.507410
     3  F   -0.510356
     4  C    0.958942
     5  F   -0.490558
     6  F   -0.469825
     7  C    1.055826
     8  O   -0.680706
     9  O   -0.361297
    11  F   -0.539016
 Electronic spatial extent (au):  <R**2>=           1127.1536
 Charge=             -0.0000 electrons
 Dipole moment (field-independent basis, Debye):
    X=              1.3129    Y=             -1.8401    Z=              0.5573  Tot=              2.3282
 Quadrupole moment (field-independent basis, Debye-Ang):
   XX=            -49.2577   YY=            -52.4265   ZZ=            -56.2568
   XY=             -5.5630   XZ=              2.6931   YZ=              1.7476
 Traceless Quadrupole moment (field-independent basis, Debye-Ang):
   XX=              3.3893   YY=              0.2205   ZZ=             -3.6098
   XY=             -5.5630   XZ=              2.6931   YZ=              1.7476
 Octapole moment (field-independent basis, Debye-Ang**2):
  XXX=              1.8262  YYY=             -3.8612  ZZZ=              2.1962  XYY=              3.2116
  XXY=            -17.1485  XXZ=              8.3973  XZZ=             -9.2691  YZZ=              0.0164
  YYZ=              0.0023  XYZ=              2.9970
 Hexadecapole moment (field-independent basis, Debye-Ang**3):
 XXXX=           -588.5130 YYYY=           -278.7577 ZZZZ=           -246.3286 XXXY=            -48.1769
 XXXZ=             26.3383 YYYX=            -15.1673 YYYZ=              3.1225 ZZZX=              5.4285
 ZZZY=              1.7536 XXYY=           -127.0515 XXZZ=           -156.3992 YYZZ=            -88.3533
 XXYZ=              5.6387 YYXZ=              2.1426 ZZXY=             -0.4097
 N-N= 6.387200849716D+02 E-N=-3.090990504551D+03  KE= 7.626238505840D+02
  Exact polarizability:  48.946  -2.047  45.443  -3.594  -4.003  44.402
 Approx polarizability:  48.422  -0.967  51.147  -5.023  -6.615  52.518
 Calling FoFJK, ICntrl=    100127 FMM=F ISym2X=0 I1Cent= 0 IOpClX= 0 NMat=1 NMatS=1 NMatT=0.
 Full mass-weighted force constant matrix:
 Low frequencies ---   -5.4958   -2.3557   -0.0006    0.0008    0.0009    6.1985
 Low frequencies ---   24.2048   62.1197  143.7361
 Diagonal vibrational polarizability:
       28.5729600      38.3646107      54.8881195
 Harmonic frequencies (cm**-1), IR intensities (KM/Mole), Raman scattering
 activities (A**4/AMU), depolarization ratios for plane and unpolarized
 incident light, reduced masses (AMU), force constants (mDyne/A),
 and normal coordinates:
                      1                      2                      3
                      A                      A                      A
 Frequencies --     23.9581                62.0807               143.7346
 Red. masses --     13.0143                16.3691                10.1759
 Frc consts  --      0.0044                 0.0372                 0.1239
 IR Inten    --      1.5485                 0.4143                 1.0276
  Atom  AN      X      Y      Z        X      Y      Z        X      Y      Z
     1   6     0.00   0.03  -0.05    -0.01  -0.02   0.02    -0.10  -0.03  -0.04
     2   9     0.11  -0.06  -0.26     0.22  -0.12  -0.21    -0.27  -0.01  -0.01
     3   9    -0.09   0.27  -0.07    -0.27   0.24  -0.02    -0.29  -0.07  -0.04
     4   6     0.00  -0.01   0.01    -0.00   0.04  -0.10     0.02  -0.14  -0.10
     5   9    -0.07  -0.02   0.01    -0.02   0.26  -0.10    -0.01  -0.18  -0.10
     6   9     0.06   0.00   0.02     0.01  -0.04  -0.32     0.01  -0.14  -0.09
     7   6    -0.01  -0.06   0.04     0.04  -0.04   0.09     0.15   0.03   0.02
     8   8    -0.22  -0.35  -0.28     0.31   0.04   0.34     0.19   0.18   0.14
     9   8     0.22   0.24   0.44    -0.24  -0.17  -0.02     0.33   0.13   0.11
    10   1     0.18   0.18   0.42    -0.17  -0.19   0.15     0.48   0.35   0.27
    11   9    -0.00  -0.08   0.14    -0.01  -0.20   0.37     0.06   0.19   0.08
                      4                      5                      6
                      A                      A                      A
 Frequencies --    214.2085               249.2699               285.9604
 Red. masses --     17.4475                12.2635                14.7472
 Frc consts  --      0.4717                 0.4490                 0.7105
 IR Inten    --      1.2171                 1.3544                 1.1492
  Atom  AN      X      Y      Z        X      Y      Z        X      Y      Z
     1   6     0.01   0.08  -0.13    -0.02  -0.01  -0.02     0.22  -0.08  -0.02
     2   9     0.42   0.20   0.19    -0.05  -0.01  -0.04     0.03  -0.09  -0.09
     3   9    -0.37  -0.25  -0.11    -0.01  -0.00  -0.03     0.09  -0.12  -0.02
     4   6     0.00   0.11  -0.15     0.00   0.05  -0.10     0.04   0.01   0.00
     5   9    -0.26  -0.31  -0.15     0.47  -0.16  -0.08    -0.30  -0.04  -0.01
     6   9     0.23   0.26   0.23    -0.35   0.09   0.11    -0.33  -0.02  -0.01
     7   6     0.01   0.04  -0.04     0.01   0.07  -0.09     0.02   0.10   0.02
     8   8     0.14  -0.07  -0.01     0.28  -0.14  -0.00    -0.02  -0.07  -0.10
     9   8    -0.16   0.05   0.05    -0.29   0.17   0.21    -0.19   0.02  -0.02
    10   1    -0.16  -0.05   0.15    -0.26  -0.04   0.50    -0.35  -0.25  -0.14
    11   9    -0.01  -0.02  -0.01    -0.03  -0.01  -0.04     0.53   0.31   0.24
                      7                      8                      9
                      A                      A                      A
 Frequencies --    355.1401               375.1542               380.3132
 Red. masses --     16.7189                15.5415                13.4750
 Frc consts  --      1.2424                 1.2887                 1.1483
 IR Inten    --      0.2899                 0.6809                 0.6446
  Atom  AN      X      Y      Z        X      Y      Z        X      Y      Z
     1   6     0.00   0.15   0.06    -0.05  -0.04   0.07     0.01  -0.02   0.09
     2   9     0.26   0.28   0.32    -0.31  -0.06   0.04    -0.16  -0.02   0.09
     3   9     0.15   0.38   0.06     0.12   0.04   0.09     0.32   0.09   0.11
     4   6    -0.08  -0.09  -0.06     0.03   0.10  -0.01    -0.01  -0.02  -0.12
     5   9    -0.15  -0.29  -0.07    -0.33   0.13  -0.04    -0.09  -0.32  -0.14
     6   9    -0.38  -0.18  -0.22    -0.04   0.19   0.18     0.32  -0.03  -0.22
     7   6     0.04  -0.13  -0.03     0.27   0.08  -0.16    -0.10   0.12  -0.13
     8   8     0.11  -0.12   0.03     0.50  -0.27  -0.21    -0.04   0.18  -0.05
     9   8     0.19  -0.12  -0.04     0.13   0.05  -0.16    -0.30   0.23   0.08
    10   1     0.28   0.10  -0.04     0.04  -0.09  -0.26    -0.23   0.08   0.44
    11   9    -0.11   0.04  -0.06    -0.14  -0.20   0.12    -0.01  -0.11   0.21
                     10                     11                     12
                      A                      A                      A
 Frequencies --    500.3033               542.7026               548.4907
 Red. masses --      8.2394                 7.3382                 2.7260
 Frc consts  --      1.2151                 1.2734                 0.4832
 IR Inten    --      5.4554                12.6945                16.7251
  Atom  AN      X      Y      Z        X      Y      Z        X      Y      Z
     1   6    -0.05   0.08  -0.06    -0.12   0.07   0.14     0.01  -0.06   0.00
     2   9    -0.04   0.11  -0.08     0.19  -0.09  -0.23     0.01  -0.06   0.09
     3   9     0.21  -0.15  -0.06     0.06  -0.15   0.24    -0.02   0.10  -0.01
     4   6    -0.10   0.06  -0.16    -0.10  -0.01   0.05    -0.02  -0.09  -0.04
     5   9     0.05   0.02  -0.22    -0.04  -0.03   0.08    -0.03   0.11  -0.07
     6   9    -0.07   0.20   0.09     0.03  -0.04  -0.05     0.02  -0.06   0.13
     7   6    -0.15  -0.19   0.01    -0.06  -0.03  -0.14    -0.05  -0.07  -0.12
     8   8    -0.12  -0.02   0.16     0.13  -0.05  -0.02     0.01   0.04  -0.01
     9   8     0.16  -0.16   0.01    -0.02   0.06  -0.07    -0.06  -0.00  -0.01
    10   1     0.51   0.46   0.25     0.38   0.50   0.47     0.42   0.44   0.72
    11   9    -0.02  -0.01   0.26    -0.17   0.25  -0.02     0.07   0.01  -0.05
                     13                     14                     15
                      A                      A                      A
 Frequencies --    608.4193               633.2699               688.5711
 Red. masses --      8.2823                 2.8083                 4.5080
 Frc consts  --      1.8064                 0.6635                 1.2593
 IR Inten    --     10.5067                79.3221               102.5913
  Atom  AN      X      Y      Z        X      Y      Z        X      Y      Z
     1   6    -0.00   0.12  -0.15     0.06  -0.02   0.00     0.07   0.07   0.05
     2   9    -0.02   0.31  -0.05    -0.06  -0.02   0.01    -0.03   0.05  -0.08
     3   9     0.05  -0.14  -0.24    -0.05   0.02  -0.00    -0.03  -0.03   0.13
     4   6     0.02  -0.09   0.13     0.01   0.12   0.06     0.15   0.02  -0.01
     5   9    -0.00   0.06   0.24     0.01  -0.08   0.11    -0.04  -0.02  -0.05
     6   9    -0.01  -0.24   0.01    -0.00   0.13  -0.12    -0.06   0.05  -0.01
     7   6     0.06   0.03  -0.07    -0.03   0.04   0.07     0.26  -0.05   0.01
     8   8     0.07   0.02  -0.09    -0.02  -0.08   0.01    -0.08   0.17  -0.14
     9   8    -0.10   0.04  -0.05    -0.01  -0.04  -0.09    -0.05  -0.19   0.10
    10   1     0.27   0.28   0.64     0.50   0.64   0.47     0.14  -0.38   0.76
    11   9    -0.05  -0.09   0.18     0.07  -0.06  -0.04    -0.04  -0.04  -0.04
                     16                     17                     18
                      A                      A                      A
 Frequencies --    776.5574               789.2036              1043.0830
 Red. masses --     12.3820                 8.2145                11.9383
 Frc consts  --      4.3993                 3.0145                 7.6530
 IR Inten    --      2.0041                24.0186               125.9401
  Atom  AN      X      Y      Z        X      Y      Z        X      Y      Z
     1   6     0.25   0.16   0.11     0.00   0.00  -0.01     0.28   0.14   0.09
     2   9    -0.10   0.32  -0.21     0.02   0.04  -0.03    -0.03  -0.15   0.04
     3   9    -0.13  -0.04   0.35     0.01  -0.00   0.08    -0.02  -0.03  -0.15
     4   6     0.04  -0.04  -0.02     0.08  -0.07  -0.05     0.70   0.14   0.09
     5   9    -0.03   0.02  -0.09     0.03   0.02  -0.25    -0.08  -0.01  -0.07
     6   9    -0.02  -0.13   0.06     0.02  -0.17   0.10    -0.08  -0.06   0.01
     7   6    -0.26  -0.11  -0.14     0.15   0.35   0.45    -0.13  -0.21  -0.09
     8   8     0.02  -0.06   0.13    -0.10  -0.17  -0.01    -0.07  -0.03   0.15
     9   8     0.02   0.15  -0.03    -0.09   0.03  -0.17    -0.03   0.17  -0.06
    10   1    -0.12   0.22  -0.47     0.25   0.62   0.05    -0.01   0.30  -0.15
    11   9     0.23  -0.27  -0.15    -0.08   0.02   0.01    -0.24   0.08   0.04
                     19                     20                     21
                      A                      A                      A
 Frequencies --   1174.8426              1199.0314              1228.8929
 Red. masses --      6.8583                 4.3546                 8.5989
 Frc consts  --      5.5773                 3.6886                 7.6510
 IR Inten    --    243.7835               192.2571               143.6150
  Atom  AN      X      Y      Z        X      Y      Z        X      Y      Z
     1   6     0.12   0.05   0.15    -0.00   0.16  -0.00    -0.15   0.11   0.62
     2   9    -0.02  -0.03  -0.00    -0.00  -0.05   0.02     0.00   0.01  -0.05
     3   9    -0.02  -0.02  -0.10    -0.01  -0.02  -0.03     0.01  -0.02  -0.23
     4   6    -0.12   0.29   0.26    -0.12  -0.08   0.39    -0.08   0.20  -0.23
     5   9     0.01  -0.02  -0.15     0.02  -0.01  -0.17    -0.01  -0.02   0.03
     6   9     0.03  -0.15   0.02     0.00   0.05  -0.04     0.01  -0.09   0.04
     7   6    -0.15   0.19  -0.09     0.04  -0.05   0.01     0.09  -0.05   0.06
     8   8     0.10   0.07  -0.11    -0.01  -0.03   0.04    -0.05  -0.04   0.04
     9   8     0.02  -0.24   0.18     0.03   0.11  -0.10     0.02   0.08  -0.09
    10   1     0.11   0.56  -0.47    -0.05  -0.65   0.55    -0.03  -0.46   0.39
    11   9    -0.01   0.00  -0.00     0.03  -0.02  -0.00     0.10  -0.05  -0.06
                     22                     23                     24
                      A                      A                      A
 Frequencies --   1238.0862              1257.3391              1347.0779
 Red. masses --     13.2795                 4.2273                 8.5880
 Frc consts  --     11.9931                 3.9375                 9.1818
 IR Inten    --    366.3447                84.9786                99.6483
  Atom  AN      X      Y      Z        X      Y      Z        X      Y      Z
     1   6    -0.11   0.71  -0.38     0.27  -0.19  -0.11     0.53   0.24   0.15
     2   9    -0.03  -0.30   0.12    -0.02   0.02  -0.00    -0.04  -0.09   0.02
     3   9     0.01  -0.03   0.12    -0.02   0.02   0.04    -0.04  -0.02  -0.08
     4   6    -0.08   0.30  -0.24    -0.16   0.27  -0.07    -0.30  -0.33  -0.15
     5   9     0.01  -0.01   0.09     0.02  -0.01   0.01     0.02   0.02   0.06
     6   9    -0.00  -0.19   0.06     0.02  -0.10   0.03     0.01   0.10  -0.01
     7   6     0.05  -0.04   0.04    -0.00  -0.03   0.00     0.11  -0.03   0.05
     8   8    -0.00   0.01  -0.01    -0.02  -0.03   0.04     0.00   0.01  -0.03
     9   8     0.00  -0.00  -0.01     0.06   0.05  -0.07    -0.05   0.00   0.02
    10   1     0.00  -0.03   0.02    -0.02  -0.67   0.53    -0.01   0.44  -0.39
    11   9     0.10  -0.09   0.00    -0.09   0.06   0.03    -0.13   0.03   0.01
                     25                     26                     27
                      A                      A                      A
 Frequencies --   1425.1491              1893.3531              3837.4119
 Red. masses --      3.6402                11.4744                 1.0645
 Frc consts  --      4.3561                24.2350                 9.2354
 IR Inten    --     49.4748               330.3873               113.2579
  Atom  AN      X      Y      Z        X      Y      Z        X      Y      Z
     1   6     0.04   0.08   0.02     0.02  -0.00   0.02    -0.00   0.00  -0.00
     2   9    -0.00  -0.02   0.01    -0.00   0.00  -0.00     0.00  -0.00   0.00
     3   9    -0.00  -0.01  -0.01    -0.00  -0.00  -0.01     0.00   0.00   0.00
     4   6     0.10  -0.14  -0.09     0.04  -0.02  -0.02     0.00  -0.00  -0.00
     5   9    -0.01   0.01   0.04     0.00  -0.00  -0.00     0.00  -0.00  -0.00
     6   9    -0.00   0.03  -0.00    -0.01   0.02  -0.00     0.00  -0.00  -0.00
     7   6    -0.25   0.31  -0.06    -0.44  -0.31   0.56    -0.00   0.00   0.00
     8   8     0.02  -0.05   0.02     0.28   0.20  -0.36    -0.00  -0.00   0.00
     9   8     0.10  -0.10   0.00     0.02   0.05  -0.05    -0.05   0.02   0.02
    10   1     0.03  -0.70   0.53    -0.01  -0.29   0.24     0.86  -0.38  -0.33
    11   9    -0.02  -0.00  -0.00    -0.01   0.00  -0.00     0.00  -0.00  -0.00

 -------------------
 - Thermochemistry -
 -------------------
 Temperature   298.150 Kelvin.  Pressure   1.00000 Atm.
 Atom     1 has atomic number  6 and mass  12.00000
 Atom     2 has atomic number  9 and mass  18.99840
 Atom     3 has atomic number  9 and mass  18.99840
 Atom     4 has atomic number  6 and mass  12.00000
 Atom     5 has atomic number  9 and mass  18.99840
 Atom     6 has atomic number  9 and mass  18.99840
 Atom     7 has atomic number  6 and mass  12.00000
 Atom     8 has atomic number  8 and mass  15.99491
 Atom     9 has atomic number  8 and mass  15.99491
 Atom    10 has atomic number  1 and mass   1.00783
 Atom    11 has atomic number  9 and mass  18.99840
 Molecular mass:   163.98967 amu.
 Principal axes and moments of inertia in atomic units:
                           1         2         3
     Eigenvalues --   950.136391535.964931614.53241
           X            0.99943  -0.03379  -0.00209
           Y            0.03365   0.99834  -0.04673
           Z            0.00366   0.04664   0.99891
 This molecule is an asymmetric top.
 Rotational symmetry number  1.
 Warning -- assumption of classical behavior for rotation
           may cause significant error
 Rotational temperatures (Kelvin)      0.09116     0.05639     0.05365
 Rotational constants (GHZ):           1.89945     1.17499     1.11781
 Zero-point vibrational energy     136503.5 (Joules/Mol)
                                   32.62512 (Kcal/Mol)
 Warning -- explicit consideration of  13 degrees of freedom as
           vibrations may cause significant error
 Vibrational temperatures:     34.47    89.32   206.80   308.20   358.64
          (Kelvin)            411.43   510.97   539.76   547.19   719.82
                              780.83   789.16   875.38   911.13   990.70
                             1117.29  1135.49  1500.76  1690.34  1725.14
                             1768.10  1781.33  1809.03  1938.14  2050.47
                             2724.11  5521.18
 
 Zero-point correction=                           0.051991 (Hartree/Particle)
 Thermal correction to Energy=                    0.060979
 Thermal correction to Enthalpy=                  0.061923
 Thermal correction to Gibbs Free Energy=         0.016307
 Sum of electronic and zero-point Energies=           -764.570983
 Sum of electronic and thermal Energies=              -764.561995
 Sum of electronic and thermal Enthalpies=            -764.561051
 Sum of electronic and thermal Free Energies=         -764.606667
 
                     E (Thermal)             CV                S
                      KCal/Mol        Cal/Mol-Kelvin    Cal/Mol-Kelvin
 Total                   38.265             30.985             96.008
 Electronic               0.000              0.000              0.000
 Translational            0.889              2.981             41.192
 Rotational               0.889              2.981             29.245
 Vibrational             36.488             25.024             25.570
 Vibration     1          0.593              1.985              6.276
 Vibration     2          0.597              1.972              4.390
 Vibration     3          0.616              1.909              2.754
 Vibration     4          0.644              1.819              2.008
 Vibration     5          0.662              1.764              1.736
 Vibration     6          0.684              1.700              1.498
 Vibration     7          0.731              1.565              1.143
 Vibration     8          0.746              1.523              1.059
 Vibration     9          0.750              1.512              1.038
 Vibration    10          0.856              1.249              0.657
 Vibration    11          0.898              1.156              0.560
 Vibration    12          0.904              1.143              0.547
 Vibration    13          0.967              1.014              0.435
                       Q            Log10(Q)             Ln(Q)
 Total Bot       0.315732D-07         -7.500681        -17.270956
 Total V=0       0.259239D+17         16.413701         37.793942
 Vib (Bot)       0.696126D-21        -21.157312        -48.716512
 Vib (Bot)    1  0.864463D+01          0.936746          2.156938
 Vib (Bot)    2  0.332554D+01          0.521862          1.201632
 Vib (Bot)    3  0.141322D+01          0.150209          0.345868
 Vib (Bot)    4  0.925632D+00         -0.033562         -0.077279
 Vib (Bot)    5  0.783243D+00         -0.106103         -0.244312
 Vib (Bot)    6  0.670205D+00         -0.173793         -0.400172
 Vib (Bot)    7  0.517770D+00         -0.285863         -0.658225
 Vib (Bot)    8  0.483576D+00         -0.315536         -0.726548
 Vib (Bot)    9  0.475308D+00         -0.323025         -0.743793
 Vib (Bot)   10  0.328418D+00         -0.483573         -1.113468
 Vib (Bot)   11  0.291190D+00         -0.535824         -1.233780
 Vib (Bot)   12  0.286531D+00         -0.542829         -1.249909
 Vib (Bot)   13  0.243294D+00         -0.613868         -1.413483
 Vib (V=0)       0.571570D+03          2.757069          6.348387
 Vib (V=0)    1  0.915908D+01          0.961852          2.214746
 Vib (V=0)    2  0.386292D+01          0.586916          1.351423
 Vib (V=0)    3  0.199906D+01          0.300826          0.692677
 Vib (V=0)    4  0.155204D+01          0.190904          0.439572
 Vib (V=0)    5  0.142923D+01          0.155102          0.357136
 Vib (V=0)    6  0.133617D+01          0.125861          0.289805
 Vib (V=0)    7  0.121978D+01          0.086282          0.198672
 Vib (V=0)    8  0.119559D+01          0.077582          0.178640
 Vib (V=0)    9  0.118987D+01          0.075499          0.173842
 Vib (V=0)   10  0.109821D+01          0.040686          0.093684
 Vib (V=0)   11  0.107861D+01          0.032865          0.075675
 Vib (V=0)   12  0.107628D+01          0.031926          0.073512
 Vib (V=0)   13  0.105605D+01          0.023685          0.054536
 Electronic      0.100000D+01          0.000000          0.000000
 Translational   0.825427D+08          7.916679         18.228826
 Rotational      0.549481D+06          5.739953         13.216729
 ***** Axes restored to original set *****
 -------------------------------------------------------------------
 Center     Atomic                   Forces (Hartrees/Bohr)
 Number     Number              X              Y              Z
 -------------------------------------------------------------------
      1        6          -0.000013082    0.000026911   -0.000025181
      2        9           0.000008007   -0.000021430    0.000015257
      3        9          -0.000004219   -0.000002287    0.000012839
      4        6           0.000068737   -0.000008749    0.000099167
      5        9          -0.000026617   -0.000001077   -0.000000785
      6        9           0.000002116    0.000011138   -0.000012208
      7        6          -0.000046086   -0.000109742   -0.000268058
      8        8          -0.000002182    0.000022061    0.000116601
      9        8          -0.000158246    0.000135025    0.000134417
     10        1           0.000142373   -0.000040757   -0.000071231
     11        9           0.000029199   -0.000011093   -0.000000816
 -------------------------------------------------------------------
 Cartesian Forces:  Max     0.000268058 RMS     0.000079302

 GradGradGradGradGradGradGradGradGradGradGradGradGradGradGradGradGradGrad
 Berny optimization.
 Search for a local minimum.
 Step number   1 out of a maximum of    2
 All quantities printed in internal units (Hartrees-Bohrs-Radians)
 Second derivative matrix not updated -- analytic derivatives used.
 ITU=  0
     Eigenvalues ---    0.00030   0.00246   0.00789   0.02344   0.03030
     Eigenvalues ---    0.03527   0.05796   0.06135   0.08056   0.09106
     Eigenvalues ---    0.09495   0.16041   0.20063   0.21254   0.24809
     Eigenvalues ---    0.32277   0.35528   0.44424   0.58447   0.73090
     Eigenvalues ---    0.74644   0.78446   0.80652   0.82905   0.91264
     Eigenvalues ---    1.13777   1.81334
 Angle between quadratic step and forces=  86.06 degrees.
 Linear search not attempted -- first point.
 B after Tr=    -0.000183   -0.000115   -0.000264
         Rot=    1.000000   -0.000107   -0.000074    0.000067 Ang=  -0.02 deg.
 Variable       Old X    -DE/DX   Delta X   Delta X   Delta X     New X
                                 (Linear)    (Quad)   (Total)
    X1       -2.04205  -0.00001   0.00000  -0.00032  -0.00063  -2.04268
    Y1       -0.51847   0.00003   0.00000   0.00083   0.00107  -0.51740
    Z1       -0.37961  -0.00003   0.00000  -0.00106  -0.00113  -0.38074
    X2       -2.10200   0.00001   0.00000   0.00127   0.00080  -2.10120
    Y2       -2.82624  -0.00002   0.00000  -0.00099  -0.00095  -2.82719
    Z2        0.60093   0.00002   0.00000  -0.00476  -0.00532   0.59561
    X3       -1.92365  -0.00000   0.00000  -0.00230  -0.00301  -1.92666
    Y3       -0.70789  -0.00000   0.00000   0.00494   0.00571  -0.70218
    Z3       -2.88441   0.00001   0.00000  -0.00132  -0.00145  -2.88586
    X4        0.28569   0.00007   0.00000   0.00006   0.00010   0.28579
    Y4        0.96464  -0.00001   0.00000  -0.00063  -0.00091   0.96372
    Z4        0.60515   0.00010   0.00000   0.00004  -0.00006   0.60509
    X5        0.18997  -0.00003   0.00000  -0.00083  -0.00042   0.18955
    Y5        0.98752  -0.00000   0.00000  -0.00161  -0.00242   0.98510
    Z5        3.14416  -0.00000   0.00000  -0.00013  -0.00021   3.14395
    X6        0.10683   0.00000   0.00000   0.00140   0.00163   0.10846
    Y6        3.33300   0.00001   0.00000  -0.00009  -0.00017   3.33283
    Z6       -0.24293  -0.00001   0.00000   0.00085   0.00128  -0.24164
    X7        2.82851  -0.00005   0.00000  -0.00073  -0.00098   2.82753
    Y7       -0.16591  -0.00011   0.00000  -0.00171  -0.00214  -0.16805
    Z7       -0.29872  -0.00027   0.00000  -0.00070  -0.00141  -0.30013
    X8        4.07302  -0.00000   0.00000  -0.00371  -0.00408   4.06894
    Y8        0.77352   0.00002   0.00000  -0.00564  -0.00588   0.76763
    Z8       -1.91903   0.00012   0.00000  -0.00515  -0.00586  -1.92488
    X9        3.36691  -0.00016   0.00000   0.00376   0.00342   3.37032
    Y9       -2.27003   0.00014   0.00000   0.00416   0.00339  -2.26664
    Z9        0.95993   0.00013   0.00000   0.00705   0.00580   0.96573
   X10        4.94650   0.00014   0.00000   0.00379   0.00326   4.94976
   Y10       -2.91759  -0.00004   0.00000   0.00361   0.00276  -2.91483
   Z10        0.32233  -0.00007   0.00000   0.00676   0.00514   0.32747
   X11       -4.14880   0.00003   0.00000  -0.00004  -0.00010  -4.14890
   Y11        0.68117  -0.00001   0.00000  -0.00083  -0.00044   0.68073
   Z11        0.24775  -0.00000   0.00000   0.00271   0.00321   0.25096
         Item               Value     Threshold  Converged?
 Maximum Force            0.000268     0.000450     YES
 RMS     Force            0.000079     0.000300     YES
 Maximum Displacement     0.005885     0.001800     NO 
 RMS     Displacement     0.002978     0.001200     NO 
 Predicted change in Energy=-2.656954D-07
 GradGradGradGradGradGradGradGradGradGradGradGradGradGradGradGradGradGrad


 ----------------------------------------------------------------------

 Electric dipole moment (input orientation):
 (Debye = 10**-18 statcoulomb cm , SI units = C m)
                  (au)            (Debye)         (10**-30 SI)
   Tot        0.915988D+00      0.232821D+01      0.776607D+01
   x          0.516546D+00      0.131293D+01      0.437946D+01
   y         -0.723970D+00     -0.184015D+01     -0.613807D+01
   z          0.219277D+00      0.557347D+00      0.185911D+01

 Dipole polarizability, Alpha (input orientation).
 (esu units = cm**3 , SI units = C**2 m**2 J**-1)
 Alpha(0;0):
               (au)            (10**-24 esu)      (10**-40 SI)
   iso        0.462636D+02      0.685556D+01      0.762784D+01
   aniso      0.107890D+02      0.159876D+01      0.177886D+01
   xx         0.489461D+02      0.725306D+01      0.807012D+01
   yx        -0.204701D+01     -0.303335D+00     -0.337506D+00
   yy         0.454427D+02      0.673392D+01      0.749250D+01
   zx        -0.359426D+01     -0.532615D+00     -0.592614D+00
   zy        -0.400304D+01     -0.593190D+00     -0.660013D+00
   zz         0.444021D+02      0.657971D+01      0.732092D+01

 ----------------------------------------------------------------------

 Dipole orientation:
     6         -1.49047695         -1.29153864         -0.83264759
     9         -2.91789950         -1.68269972          1.19226711
     9         -0.05806434         -3.32262570         -1.21579082
     6          0.21803458          1.05946661         -0.45644581
     9         -1.27669909          3.04315377          0.07929831
     9          1.41502256          1.49949619         -2.63221485
     6          2.21154851          0.69879792          1.65467577
     8          4.38829908          0.33163588          1.22610356
     8          1.14534194          0.84362877          3.92263443
     1          2.44631688          0.58656279          5.17257832
     9         -2.97903411         -0.95832988         -2.81867016

 Electric dipole moment (dipole orientation):
 (Debye = 10**-18 statcoulomb cm , SI units = C m)
                  (au)            (Debye)         (10**-30 SI)
   Tot        0.915988D+00      0.232821D+01      0.776607D+01
   x          0.000000D+00      0.000000D+00      0.000000D+00
   y          0.000000D+00      0.000000D+00      0.000000D+00
   z          0.915988D+00      0.232821D+01      0.776607D+01

 Dipole polarizability, Alpha (dipole orientation).
 (esu units = cm**3 , SI units = C**2 m**2 J**-1)
 Alpha(0;0):
               (au)            (10**-24 esu)      (10**-40 SI)
   iso        0.462636D+02      0.685556D+01      0.762784D+01
   aniso      0.107890D+02      0.159876D+01      0.177886D+01
   xx         0.505907D+02      0.749677D+01      0.834128D+01
   yx        -0.102025D+01     -0.151185D+00     -0.168216D+00
   yy         0.393339D+02      0.582869D+01      0.648529D+01
   zx         0.771367D+00      0.114305D+00      0.127181D+00
   zy         0.636817D+00      0.943666D-01      0.104997D+00
   zz         0.488663D+02      0.724124D+01      0.805696D+01

 ----------------------------------------------------------------------
 1\1\GINC-CCLEARMN\Freq\RwB97XD\6-311+G(2d,2p)\C3H1F5O2\RAPPE\06-Feb-20
 21\0\\# freq wb97xd/6-311+g(2d,2p) geom=connectivity\\Title Card Requi
 red\\0,1\C,-1.080608,-0.274363,-0.20088\F,-1.112329,-1.49558,0.317996\
 F,-1.017954,-0.374598,-1.526363\C,0.151183,0.510464,0.320231\F,0.10053
 ,0.522574,1.663818\F,0.056534,1.763749,-0.128551\C,1.496782,-0.087795,
 -0.158076\O,2.155349,0.409329,-1.015505\O,1.781691,-1.201249,0.507973\
 H,2.617574,-1.543924,0.170568\F,-2.195452,0.360461,0.131103\\Version=E
 M64M-G16RevA.03\State=1-A\HF=-764.6229742\RMSD=9.463e-09\RMSF=7.930e-0
 5\ZeroPoint=0.0519914\Thermal=0.0609792\Dipole=0.5165456,-0.7239702,0.
 2192771\DipoleDeriv=1.5842716,-0.1868348,-0.132195,-0.0230304,1.501798
 2,-0.0737551,-0.0038216,-0.0601568,1.5471291,-0.3479993,-0.0992996,0.0
 238176,-0.0452684,-0.8206241,0.2354702,-0.0225156,0.1795746,-0.3536051
 ,-0.3496694,-0.0205347,-0.0549728,-0.0294173,-0.2810858,-0.0986205,0.0
 053559,-0.0486892,-0.9003118,0.5548585,-0.014665,0.0205406,-0.1148406,
 1.1105983,-0.0634494,-0.0024355,-0.0956139,1.2113691,-0.3134523,-0.001
 2393,0.0226187,0.0194586,-0.2676815,-0.092875,0.0446871,-0.0052032,-0.
 89054,-0.2871732,0.0392935,-0.0263315,0.0629176,-0.819688,0.1975547,-0
 .024816,0.115029,-0.3026153,0.9753725,-0.1285485,-0.2570289,-0.2707523
 ,1.2414407,-0.6692837,-0.3665293,-0.6781704,0.9506647,-0.7290905,-0.15
 50389,0.3537935,0.0472091,-0.6005379,0.1975064,0.2670721,0.3318821,-0.
 7124897,-0.482686,0.3289103,-0.1810807,0.2023342,-1.0196901,0.4404391,
 -0.0550165,0.3262337,-0.5323478,0.3030869,-0.0428533,0.0695962,-0.0424
 836,0.3629337,0.0110468,0.0721093,0.0144054,0.2848124,-0.9075187,0.280
 8102,0.1612423,0.1938733,-0.4074635,-0.0840335,0.0859103,-0.0792914,-0
 .3020656\Polar=48.9460687,-2.0470076,45.4427377,-3.5942614,-4.0030425,
 44.4021093\Quadrupole=2.5198733,0.1639221,-2.6837954,-4.1359306,2.0022
 172,1.2993345\PG=C01 [X(C3H1F5O2)]\NImag=0\\0.59133133,0.01838966,0.56
 518628,0.01127063,0.00591121,0.55042528,-0.08692769,-0.02859229,0.0044
 1193,0.07601507,-0.03645510,-0.26533970,0.05961091,0.00361312,0.366611
 15,0.00856182,0.06734806,-0.09821106,-0.00625774,-0.12520454,0.1323777
 2,-0.08391720,-0.00655194,-0.01556922,0.01340721,-0.00139415,0.0066469
 0,0.07517778,-0.00741038,-0.08097876,-0.02753048,0.00025913,-0.0049286
 5,0.05599896,-0.00462106,0.07925716,-0.02431782,-0.03433392,-0.2783325
 6,0.00293651,0.04056817,-0.05483204,-0.01484084,0.02275764,0.41240195,
 -0.14828799,-0.03021048,-0.01988657,0.00855808,0.00231565,-0.00231185,
 0.00909639,0.00062089,0.00651262,0.50275495,-0.06251412,-0.07859812,-0
 .02915502,-0.02124990,-0.03139868,0.00206061,0.00080561,0.00481870,0.0
 0515598,-0.01750057,0.56823468,-0.04208332,-0.02864389,-0.05459966,0.0
 1242384,0.02413319,0.00025210,-0.02303202,-0.01617962,-0.03748405,-0.0
 1259276,0.00233670,0.52452878,0.00559691,-0.00221772,-0.02627055,-0.00
 019621,-0.00011804,0.00010391,-0.00455195,-0.00354428,-0.00755094,-0.0
 7397746,0.00474320,0.01366066,0.06069849,0.00584355,0.00065884,-0.0170
 1455,-0.00034020,0.00245930,-0.00171967,-0.00406073,-0.00158504,-0.004
 55025,-0.00025262,-0.07320370,-0.02173517,-0.00222597,0.07290236,0.009
 35322,0.00428486,-0.04457774,-0.00184079,-0.00405038,0.00508939,-0.007
 10812,-0.00506017,-0.00600036,0.00687806,-0.04011810,-0.28398900,-0.01
 064111,0.00268187,0.40224486,0.00433975,-0.02426517,0.00738082,-0.0046
 3757,-0.00739721,0.00011381,-0.00018202,0.00026465,-0.00106852,-0.0765
 7532,0.01330461,-0.00034516,0.00957107,0.00033942,-0.00152695,0.071176
 55,0.01158274,-0.04508298,0.02124658,-0.00865967,-0.00860547,-0.001669
 68,-0.00202174,0.00233036,-0.00478361,0.01268068,-0.29258940,0.0415118
 3,0.00111675,-0.00736617,0.04231820,-0.02174363,0.38285535,0.00279794,
 0.00044815,0.00040098,-0.00116294,-0.00167883,0.00120463,0.00038434,-0
 .00067825,0.00436727,-0.00558103,0.06076182,-0.08181224,-0.00267432,0.
 05584883,-0.04408799,0.00437768,-0.11099645,0.11326305,-0.03241238,-0.
 00306618,-0.00152600,0.00241095,0.00341820,-0.00027392,0.00187146,0.00
 130602,0.00405851,-0.15388105,0.04118559,0.02085142,0.00898397,-0.0025
 0783,-0.00613638,-0.00029427,-0.00042433,0.00307508,0.65411213,-0.0052
 2064,0.03209090,0.00592523,0.00158673,-0.00933177,0.00203394,-0.000802
 08,-0.00336798,-0.00056843,0.01997097,-0.08939335,-0.03348277,0.003421
 24,0.00394538,0.00680362,0.03502309,-0.03870379,0.00218927,0.00451220,
 0.59033099,-0.00126664,0.00724533,0.02249291,-0.00138987,0.00031320,-0
 .00251151,0.00120030,-0.00040740,-0.00655371,-0.00553809,-0.02833226,-
 0.06724474,0.03358976,-0.01097806,-0.03748912,-0.00511827,0.01928107,0
 .00128180,-0.29969980,-0.29130737,0.66635779,0.00484486,0.00658315,0.0
 0455813,-0.00078483,-0.00143902,-0.00021586,-0.00137026,-0.00120837,-0
 .00274246,-0.01433553,-0.01994904,0.02946511,-0.00822792,0.00416468,0.
 01145689,0.00046128,0.00113715,-0.00082238,-0.33838536,-0.14041883,0.2
 9559450,0.32889553,0.00062285,-0.00636450,-0.00034602,-0.00034816,0.00
 258680,-0.00071557,0.00009558,0.00082985,-0.00018250,0.00417924,0.0080
 2906,0.00861188,-0.00084968,0.00083584,-0.00297949,0.00198393,0.006285
 35,-0.00453878,-0.14986918,-0.21280695,0.21473044,0.17444328,0.2332308
 1,-0.00215046,-0.00511703,-0.01126253,0.00086357,-0.00036657,0.0013981
 4,-0.00103140,0.00052881,0.00490084,0.03002218,0.02137927,-0.00640903,
 0.00056161,-0.00223767,-0.00178092,-0.00371482,-0.00250746,0.00276966,
 0.30167285,0.20865620,-0.45098169,-0.34846366,-0.28195564,0.49692156,0
 .00349297,0.00211834,0.00262071,-0.00368989,-0.00133011,-0.00033993,-0
 .00062754,-0.00040032,-0.00119782,-0.00274121,0.02698875,-0.01651863,-
 0.00244277,0.00170841,0.00369527,-0.00739171,0.00940177,0.00025935,-0.
 13424835,0.07735255,-0.01067943,0.03481653,-0.02426209,0.01524244,0.50
 279600,-0.00271938,-0.01130940,-0.00090982,-0.00001383,0.00564990,-0.0
 0103113,0.00077986,0.00160911,-0.00006752,0.00923919,-0.01438397,0.018
 81338,0.00156054,-0.00054488,-0.00474120,0.00468032,-0.00324361,-0.001
 01854,0.05726920,-0.24723049,0.10290920,-0.01632278,-0.03823552,0.0649
 5778,-0.21601327,0.39504563,0.00051310,0.00101242,-0.00303586,-0.00004
 950,-0.00100229,0.00099121,-0.00044163,-0.00004514,0.00130268,0.004649
 77,0.00024000,0.00356433,-0.00015522,-0.00096847,0.00506647,0.00123829
 ,-0.00423084,0.00147562,0.00390246,0.08893050,-0.13731125,0.00966111,0
 .07042111,-0.03173581,-0.16473830,-0.12028821,0.25363971,-0.00042830,0
 .00008816,0.00031153,-0.00004849,-0.00022130,-0.00009345,0.00019098,-0
 .00011368,-0.00019419,0.00256190,0.00269947,0.00031694,0.00021973,-0.0
 0075193,0.00010699,-0.00024447,0.00005441,-0.00022226,-0.01273285,0.01
 493553,0.00089775,-0.00172726,-0.00732505,0.00279383,-0.38783976,0.158
 80986,0.14541039,0.39956108,0.00098406,-0.00061207,-0.00008076,-0.0005
 4153,0.00016378,-0.00019596,-0.00022605,-0.00009601,-0.00015340,0.0021
 4893,-0.00196575,0.00512171,-0.00117346,0.00072955,0.00044311,0.000683
 90,-0.00126907,0.00010644,0.04832231,-0.02259598,-0.01326625,-0.006639
 45,0.00464562,-0.00362098,0.12449246,-0.08876624,-0.03395639,-0.168021
 86,0.10967013,0.00015150,-0.00009239,0.00027851,-0.00007739,-0.0000612
 8,-0.00003206,0.00005602,-0.00013369,-0.00032608,0.00251611,0.00448443
 ,-0.00016155,-0.00025833,-0.00059833,0.00065809,-0.00126891,0.00118176
 ,0.00014833,-0.02607375,0.01179225,0.01414551,0.00206743,-0.00321404,-
 0.00506463,0.17183715,-0.05886048,-0.09432460,-0.14925310,0.04555347,0
 .08474174,-0.25763226,0.06772447,0.03269860,-0.00410665,0.03900797,-0.
 00593367,-0.00909486,0.01484740,0.03840495,-0.05317276,0.03148640,0.01
 785393,0.00432613,-0.00191678,-0.00423708,0.00377671,-0.00312412,-0.00
 043145,0.00457575,-0.01036075,-0.00759020,-0.00418703,0.00132928,0.004
 20385,-0.00212426,0.00273030,0.00000953,0.00048745,-0.00002930,0.00030
 329,0.31715179,0.07689678,-0.10965050,-0.01765728,0.05428661,-0.057866
 68,0.00309498,0.01799671,0.00211125,-0.02384216,-0.00319187,0.00045053
 ,-0.00048725,-0.00071259,0.00116852,0.00041768,-0.00287392,0.00538943,
 -0.00044366,-0.00014599,-0.00293696,-0.00018790,-0.00035076,0.00096364
 ,0.00028329,-0.00005649,0.00140947,-0.00011269,-0.00015361,0.00009603,
 -0.00005172,-0.14169487,0.15886526,0.03717005,-0.01806280,-0.08357827,
 -0.00985761,0.00773841,0.01427347,0.05373569,-0.02925065,-0.03944394,-
 0.00466844,0.00118656,0.00335506,-0.00036548,0.00127147,0.00486631,-0.
 00006795,-0.00135141,0.00098889,0.00014954,-0.00097243,-0.00218600,-0.
 00055880,0.00016860,0.00124442,-0.00018081,0.00023655,0.00036748,-0.00
 007443,0.00004901,-0.00006326,-0.07528176,0.03898670,0.10017583\\0.000
 01308,-0.00002691,0.00002518,-0.00000801,0.00002143,-0.00001526,0.0000
 0422,0.00000229,-0.00001284,-0.00006874,0.00000875,-0.00009917,0.00002
 662,0.00000108,0.00000078,-0.00000212,-0.00001114,0.00001221,0.0000460
 9,0.00010974,0.00026806,0.00000218,-0.00002206,-0.00011660,0.00015825,
 -0.00013502,-0.00013442,-0.00014237,0.00004076,0.00007123,-0.00002920,
 0.00001109,0.00000082\\\@


 SOME THINGS ARE EASY, THEY ARE ONLY HARD TO DO.
            -- A. EINSTEIN TO J. O. HIRSCHFELDER
 THE ONLY TROUBLE WITH A SURE THING IS THE UNCERTAINTY.
     -- FROM A TEABAG (BELONGING TO W.H.?)
 Job cpu time:       0 days  1 hours 15 minutes  2.1 seconds.
 Elapsed time:       0 days  0 hours  9 minutes 50.7 seconds.
 File lengths (MBytes):  RWF=     94 Int=      0 D2E=      0 Chk=      7 Scr=      1
 Normal termination of Gaussian 16 at Sat Feb  6 14:14:11 2021.
