 Entering Gaussian System, Link 0=/applications/g16/g16/g16
 Initial command:
 /applications/g16/g16/l1.exe "/scratch/g98/Gau-28592.inp" -scrdir="/scratch/g98/"
 Entering Link 1 = /applications/g16/g16/l1.exe PID=     28593.
  
 Copyright (c) 1988,1990,1992,1993,1995,1998,2003,2009,2016,
            Gaussian, Inc.  All Rights Reserved.
  
 This is part of the Gaussian(R) 16 program.  It is based on
 the Gaussian(R) 09 system (copyright 2009, Gaussian, Inc.),
 the Gaussian(R) 03 system (copyright 2003, Gaussian, Inc.),
 the Gaussian(R) 98 system (copyright 1998, Gaussian, Inc.),
 the Gaussian(R) 94 system (copyright 1995, Gaussian, Inc.),
 the Gaussian 92(TM) system (copyright 1992, Gaussian, Inc.),
 the Gaussian 90(TM) system (copyright 1990, Gaussian, Inc.),
 the Gaussian 88(TM) system (copyright 1988, Gaussian, Inc.),
 the Gaussian 86(TM) system (copyright 1986, Carnegie Mellon
 University), and the Gaussian 82(TM) system (copyright 1983,
 Carnegie Mellon University). Gaussian is a federally registered
 trademark of Gaussian, Inc.
  
 This software contains proprietary and confidential information,
 including trade secrets, belonging to Gaussian, Inc.
  
 This software is provided under written license and may be
 used, copied, transmitted, or stored only in accord with that
 written license.
  
 The following legend is applicable only to US Government
 contracts under FAR:
  
                    RESTRICTED RIGHTS LEGEND
  
 Use, reproduction and disclosure by the US Government is
 subject to restrictions as set forth in subparagraphs (a)
 and (c) of the Commercial Computer Software - Restricted
 Rights clause in FAR 52.227-19.
  
 Gaussian, Inc.
 340 Quinnipiac St., Bldg. 40, Wallingford CT 06492
  
  
 ---------------------------------------------------------------
 Warning -- This program may not be used in any manner that
 competes with the business of Gaussian, Inc. or will provide
 assistance to any competitor of Gaussian, Inc.  The licensee
 of this program is prohibited from giving any competitor of
 Gaussian, Inc. access to this program.  By using this program,
 the user acknowledges that Gaussian, Inc. is engaged in the
 business of creating and licensing software in the field of
 computational chemistry and represents and warrants to the
 licensee that it is not a competitor of Gaussian, Inc. and that
 it will not use this program in any manner prohibited above.
 ---------------------------------------------------------------
  

 Cite this work as:
 Gaussian 16, Revision A.03,
 M. J. Frisch, G. W. Trucks, H. B. Schlegel, G. E. Scuseria, 
 M. A. Robb, J. R. Cheeseman, G. Scalmani, V. Barone, 
 G. A. Petersson, H. Nakatsuji, X. Li, M. Caricato, A. V. Marenich, 
 J. Bloino, B. G. Janesko, R. Gomperts, B. Mennucci, H. P. Hratchian, 
 J. V. Ortiz, A. F. Izmaylov, J. L. Sonnenberg, D. Williams-Young, 
 F. Ding, F. Lipparini, F. Egidi, J. Goings, B. Peng, A. Petrone, 
 T. Henderson, D. Ranasinghe, V. G. Zakrzewski, J. Gao, N. Rega, 
 G. Zheng, W. Liang, M. Hada, M. Ehara, K. Toyota, R. Fukuda, 
 J. Hasegawa, M. Ishida, T. Nakajima, Y. Honda, O. Kitao, H. Nakai, 
 T. Vreven, K. Throssell, J. A. Montgomery, Jr., J. E. Peralta, 
 F. Ogliaro, M. J. Bearpark, J. J. Heyd, E. N. Brothers, K. N. Kudin, 
 V. N. Staroverov, T. A. Keith, R. Kobayashi, J. Normand, 
 K. Raghavachari, A. P. Rendell, J. C. Burant, S. S. Iyengar, 
 J. Tomasi, M. Cossi, J. M. Millam, M. Klene, C. Adamo, R. Cammi, 
 J. W. Ochterski, R. L. Martin, K. Morokuma, O. Farkas, 
 J. B. Foresman, and D. J. Fox, Gaussian, Inc., Wallingford CT, 2016.
 
 ******************************************
 Gaussian 16:  EM64M-G16RevA.03 25-Dec-2016
                 2-Jun-2024 
 ******************************************
 %mem=48GB
 %nprocshared=24
 Will use up to   24 processors via shared memory.
 %chk=c2f5h.chk
 ----------------------------------------------------------------------
 # opt wb97xd/6-311+g(2d,2p) freq geom=connectivity integral=grid=super
 finegrid scf=(xqc,tight)
 ----------------------------------------------------------------------
 1/18=20,19=15,26=5,38=1,57=2/1,3;
 2/9=110,12=2,17=6,18=5,40=1/2;
 3/5=4,6=6,7=212,11=2,25=1,30=1,71=1,74=-58,75=-7/1,2,3;
 4//1;
 5/5=2,8=3,13=1,32=2,38=5/2,8;
 6/7=2,8=2,9=2,10=2,28=1/1;
 7//1,2,3,16;
 1/18=20,19=15,26=5/3(2);
 2/9=110/2;
 99//99;
 2/9=110/2;
 3/5=4,6=6,7=212,11=2,25=1,30=1,71=1,74=-58,75=-7/1,2,3;
 4/5=5,16=3,69=1/1;
 5/5=2,8=3,13=1,32=2,38=5/2,8;
 7//1,2,3,16;
 1/18=20,19=15,26=5/3(-5);
 2/9=110/2;
 6/7=2,8=2,9=2,10=2,19=2,28=1/1;
 99/9=1/99;
 -------------------
 Title Card Required
 -------------------
 Symbolic Z-matrix:
 Charge =  0 Multiplicity = 1
 C                     0.9746   -0.00003   0.33644 
 F                     1.43212  -1.08805  -0.24565 
 F                    -0.8133    1.08115  -0.5798 
 F                    -0.81477  -1.08553  -0.5723 
 F                     1.43197   1.08804  -0.24569 
 C                    -0.50751  -0.00003   0.10551 
 F                    -1.11514   0.00443   1.27662 
 H                     1.04994  -0.00001   1.41944 
 
 Add virtual bond connecting atoms C6         and C1         Dist= 2.83D+00.

 GradGradGradGradGradGradGradGradGradGradGradGradGradGradGradGradGradGrad
 Berny optimization.
 Initialization pass.
                           ----------------------------
                           !    Initial Parameters    !
                           ! (Angstroms and Degrees)  !
 --------------------------                            --------------------------
 ! Name  Definition              Value          Derivative Info.                !
 --------------------------------------------------------------------------------
 ! R1    R(1,2)                  1.316          estimate D2E/DX2                !
 ! R2    R(1,5)                  1.316          estimate D2E/DX2                !
 ! R3    R(1,6)                  1.5            estimate D2E/DX2                !
 ! R4    R(1,8)                  1.0856         estimate D2E/DX2                !
 ! R5    R(3,6)                  1.3161         estimate D2E/DX2                !
 ! R6    R(4,6)                  1.3161         estimate D2E/DX2                !
 ! R7    R(6,7)                  1.3194         estimate D2E/DX2                !
 ! A1    A(2,1,5)              111.5348         estimate D2E/DX2                !
 ! A2    A(2,1,6)              105.9863         estimate D2E/DX2                !
 ! A3    A(2,1,8)              114.6535         estimate D2E/DX2                !
 ! A4    A(5,1,6)              105.9797         estimate D2E/DX2                !
 ! A5    A(5,1,8)              114.6538         estimate D2E/DX2                !
 ! A6    A(6,1,8)              102.8352         estimate D2E/DX2                !
 ! A7    A(1,6,3)              108.0435         estimate D2E/DX2                !
 ! A8    A(1,6,4)              108.0572         estimate D2E/DX2                !
 ! A9    A(1,6,7)              108.5662         estimate D2E/DX2                !
 ! A10   A(3,6,4)              110.8026         estimate D2E/DX2                !
 ! A11   A(3,6,7)              110.635          estimate D2E/DX2                !
 ! A12   A(4,6,7)              110.6347         estimate D2E/DX2                !
 ! D1    D(2,1,6,3)           -119.0857         estimate D2E/DX2                !
 ! D2    D(2,1,6,4)              0.8531         estimate D2E/DX2                !
 ! D3    D(2,1,6,7)            120.8875         estimate D2E/DX2                !
 ! D4    D(5,1,6,3)             -0.4513         estimate D2E/DX2                !
 ! D5    D(5,1,6,4)            119.4874         estimate D2E/DX2                !
 ! D6    D(5,1,6,7)           -120.4781         estimate D2E/DX2                !
 ! D7    D(8,1,6,3)            120.2302         estimate D2E/DX2                !
 ! D8    D(8,1,6,4)           -119.831          estimate D2E/DX2                !
 ! D9    D(8,1,6,7)              0.2034         estimate D2E/DX2                !
 --------------------------------------------------------------------------------
 Trust Radius=3.00D-01 FncErr=1.00D-07 GrdErr=1.00D-07 EigMax=2.50D+02 EigMin=1.00D-04
 Number of steps in this run=     38 maximum allowed number of steps=    100.
 GradGradGradGradGradGradGradGradGradGradGradGradGradGradGradGradGradGrad

                          Input orientation:                          
 ---------------------------------------------------------------------
 Center     Atomic      Atomic             Coordinates (Angstroms)
 Number     Number       Type             X           Y           Z
 ---------------------------------------------------------------------
      1          6           0        0.974604   -0.000028    0.336437
      2          9           0        1.432122   -1.088053   -0.245652
      3          9           0       -0.813305    1.081153   -0.579797
      4          9           0       -0.814772   -1.085527   -0.572298
      5          9           0        1.431975    1.088039   -0.245690
      6          6           0       -0.507514   -0.000032    0.105507
      7          9           0       -1.115142    0.004431    1.276622
      8          1           0        1.049939   -0.000007    1.419438
 ---------------------------------------------------------------------
                    Distance matrix (angstroms):
                    1          2          3          4          5
     1  C    0.000000
     2  F    1.316035   0.000000
     3  F    2.281458   3.139912   0.000000
     4  F    2.281660   2.270514   2.166693   0.000000
     5  F    1.316036   2.176092   2.270012   3.143077   0.000000
     6  C    1.500000   2.251508   1.316097   1.316103   2.251412
     7  F    2.291507   3.162181   2.167193   2.167195   3.159026
     8  H    1.085618   2.025446   2.938966   2.936411   2.025450
                    6          7          8
     6  C    0.000000
     7  F    1.319372   0.000000
     8  H    2.037663   2.169790   0.000000
 Stoichiometry    C2HF5
 Framework group  C1[X(C2HF5)]
 Deg. of freedom    18
 Full point group                 C1      NOp   1
 Largest Abelian subgroup         C1      NOp   1
 Largest concise Abelian subgroup C1      NOp   1
                         Standard orientation:                         
 ---------------------------------------------------------------------
 Center     Atomic      Atomic             Coordinates (Angstroms)
 Number     Number       Type             X           Y           Z
 ---------------------------------------------------------------------
      1          6           0       -0.822474    0.000032    0.468026
      2          9           0       -1.371291    1.088063   -0.028901
      3          9           0        0.786042   -1.081155   -0.735619
      4          9           0        0.788763    1.085525   -0.728465
      5          9           0       -1.371168   -1.088029   -0.028972
      6          6           0        0.599764    0.000028   -0.008671
      7          9           0        1.395543   -0.004444    1.043687
      8          1           0       -0.714752    0.000006    1.548287
 ---------------------------------------------------------------------
 Rotational constants (GHZ):           3.7254801           2.6453416           2.1547309
 Standard basis: 6-311+G(2d,2p) (5D, 7F)
 There are   212 symmetry adapted cartesian basis functions of A   symmetry.
 There are   198 symmetry adapted basis functions of A   symmetry.
   198 basis functions,   305 primitive gaussians,   212 cartesian basis functions
    29 alpha electrons       29 beta electrons
       nuclear repulsion energy       369.9460017985 Hartrees.
 NAtoms=    8 NActive=    8 NUniq=    8 SFac= 1.00D+00 NAtFMM=   60 NAOKFM=F Big=F
 Integral buffers will be    131072 words long.
 Raffenetti 2 integral format.
 Two-electron integral symmetry is turned on.
 Nuclear repulsion after empirical dispersion term =      369.9439987579 Hartrees.
 One-electron integrals computed using PRISM.
 NBasis=   198 RedAO= T EigKep=  9.43D-05  NBF=   198
 NBsUse=   198 1.00D-06 EigRej= -1.00D+00 NBFU=   198
 ExpMin= 4.38D-02 ExpMax= 1.14D+04 ExpMxC= 1.72D+03 IAcc=3 IRadAn=         7 AccDes= 0.00D+00
 Harris functional with IExCor= 4639 and IRadAn=       7 diagonalized for initial guess.
 HarFok:  IExCor= 4639 AccDes= 0.00D+00 IRadAn=         7 IDoV= 1 UseB2=F ITyADJ=14
 ICtDFT=  3500011 ScaDFX=  1.000000  1.000000  1.000000  1.000000
 FoFCou: FMM=F IPFlag=           0 FMFlag=      100000 FMFlg1=           0
         NFxFlg=           0 DoJE=T BraDBF=F KetDBF=T FulRan=T
         wScrn=  0.000000 ICntrl=       500 IOpCl=  0 I1Cent=   200000004 NGrid=           0
         NMat0=    1 NMatS0=      1 NMatT0=    0 NMatD0=    1 NMtDS0=    0 NMtDT0=    0
 Petite list used in FoFCou.
 Keep R1 ints in memory in canonical form, NReq=413232258.
 Requested convergence on RMS density matrix=1.00D-08 within  32 cycles.
 Requested convergence on MAX density matrix=1.00D-06.
 Requested convergence on             energy=1.00D-06.
 No special actions if energy rises.
 SCF Done:  E(RwB97XD) =  -576.039384920     A.U. after   12 cycles
            NFock= 12  Conv=0.45D-08     -V/T= 2.0018
 QCSCF skips out because SCF is already converged.

 **********************************************************************

            Population analysis using the SCF density.

 **********************************************************************

 Orbital symmetries:
       Occupied  (A) (A) (A) (A) (A) (A) (A) (A) (A) (A) (A) (A)
                 (A) (A) (A) (A) (A) (A) (A) (A) (A) (A) (A) (A)
                 (A) (A) (A) (A) (A)
       Virtual   (A) (A) (A) (A) (A) (A) (A) (A) (A) (A) (A) (A)
                 (A) (A) (A) (A) (A) (A) (A) (A) (A) (A) (A) (A)
                 (A) (A) (A) (A) (A) (A) (A) (A) (A) (A) (A) (A)
                 (A) (A) (A) (A) (A) (A) (A) (A) (A) (A) (A) (A)
                 (A) (A) (A) (A) (A) (A) (A) (A) (A) (A) (A) (A)
                 (A) (A) (A) (A) (A) (A) (A) (A) (A) (A) (A) (A)
                 (A) (A) (A) (A) (A) (A) (A) (A) (A) (A) (A) (A)
                 (A) (A) (A) (A) (A) (A) (A) (A) (A) (A) (A) (A)
                 (A) (A) (A) (A) (A) (A) (A) (A) (A) (A) (A) (A)
                 (A) (A) (A) (A) (A) (A) (A) (A) (A) (A) (A) (A)
                 (A) (A) (A) (A) (A) (A) (A) (A) (A) (A) (A) (A)
                 (A) (A) (A) (A) (A) (A) (A) (A) (A) (A) (A) (A)
                 (A) (A) (A) (A) (A) (A) (A) (A) (A) (A) (A) (A)
                 (A) (A) (A) (A) (A) (A) (A) (A) (A) (A) (A) (A)
                 (A)
 The electronic state is 1-A.
 Alpha  occ. eigenvalues --  -24.87258 -24.86421 -24.86418 -24.85507 -24.85506
 Alpha  occ. eigenvalues --  -10.55200 -10.47733  -1.46708  -1.41518  -1.37588
 Alpha  occ. eigenvalues --   -1.37162  -1.34889  -0.91039  -0.79903  -0.73888
 Alpha  occ. eigenvalues --   -0.73539  -0.73092  -0.68271  -0.68050  -0.60249
 Alpha  occ. eigenvalues --   -0.60127  -0.57734  -0.57504  -0.55038  -0.54423
 Alpha  occ. eigenvalues --   -0.52993  -0.52598  -0.51786  -0.45388
 Alpha virt. eigenvalues --    0.06871   0.09088   0.09208   0.09623   0.12816
 Alpha virt. eigenvalues --    0.13365   0.14055   0.18042   0.18202   0.20384
 Alpha virt. eigenvalues --    0.22223   0.26038   0.27293   0.27402   0.31053
 Alpha virt. eigenvalues --    0.31575   0.32417   0.34124   0.36081   0.36708
 Alpha virt. eigenvalues --    0.37405   0.37839   0.38381   0.39458   0.39678
 Alpha virt. eigenvalues --    0.40831   0.41902   0.43286   0.44017   0.46064
 Alpha virt. eigenvalues --    0.46137   0.49971   0.51104   0.53526   0.58371
 Alpha virt. eigenvalues --    0.60156   0.63919   0.67487   0.69211   0.70147
 Alpha virt. eigenvalues --    0.73692   0.76063   0.80078   0.85286   0.94097
 Alpha virt. eigenvalues --    1.03834   1.12220   1.13058   1.15487   1.20104
 Alpha virt. eigenvalues --    1.21791   1.23512   1.24926   1.27727   1.30779
 Alpha virt. eigenvalues --    1.31560   1.35448   1.38280   1.38489   1.42609
 Alpha virt. eigenvalues --    1.44845   1.45335   1.45456   1.49391   1.51847
 Alpha virt. eigenvalues --    1.53168   1.53246   1.54239   1.57399   1.57828
 Alpha virt. eigenvalues --    1.62060   1.64428   1.93126   1.96468   2.01252
 Alpha virt. eigenvalues --    2.02360   2.03032   2.03410   2.06364   2.08886
 Alpha virt. eigenvalues --    2.10009   2.11452   2.12189   2.20404   2.20643
 Alpha virt. eigenvalues --    2.20860   2.21747   2.27617   2.34806   2.43432
 Alpha virt. eigenvalues --    2.60230   2.61112   2.65384   2.65706   2.69071
 Alpha virt. eigenvalues --    2.72701   2.78870   2.80606   2.81057   2.83599
 Alpha virt. eigenvalues --    2.92898   3.09345   3.25516   3.28169   3.42841
 Alpha virt. eigenvalues --    3.44927   3.48500   3.54868   3.55816   3.57884
 Alpha virt. eigenvalues --    3.60749   3.64624   3.77032   3.80206   3.90298
 Alpha virt. eigenvalues --    4.13298   4.15013   4.22777   4.31802   4.44880
 Alpha virt. eigenvalues --    4.58129   4.99654   6.33252   6.35877   6.39544
 Alpha virt. eigenvalues --    6.40096   6.44889   6.45178   6.48616   6.50894
 Alpha virt. eigenvalues --    6.54096   6.55546   6.57483   6.70731   6.78594
 Alpha virt. eigenvalues --    7.01623   7.16492   9.07831   9.08796   9.10089
 Alpha virt. eigenvalues --    9.12376   9.16292   9.19499   9.20622   9.21578
 Alpha virt. eigenvalues --    9.22154   9.23496   9.25759   9.28120   9.32504
 Alpha virt. eigenvalues --    9.39466   9.46533   9.49750   9.51047   9.65130
 Alpha virt. eigenvalues --    9.69739   9.75565   9.78553   9.79836   9.83492
 Alpha virt. eigenvalues --    9.90592   9.91069  24.08482  24.09190  66.91167
 Alpha virt. eigenvalues --   66.92470  66.94391  66.95646  67.07825
          Condensed to atoms (all electrons):
               1          2          3          4          5          6
     1  C    4.977328   0.130751  -0.016966  -0.017162   0.130268  -0.086663
     2  F    0.130751   9.170892  -0.003485  -0.011206   0.030209  -0.012379
     3  F   -0.016966  -0.003485   9.104230   0.022891  -0.011312   0.182122
     4  F   -0.017162  -0.011206   0.022891   9.103929  -0.003614   0.182440
     5  F    0.130268   0.030209  -0.011312  -0.003614   9.170782  -0.012092
     6  C   -0.086663  -0.012379   0.182122   0.182440  -0.012092   4.797552
     7  F   -0.048682  -0.001298   0.020543   0.020690  -0.001173   0.171565
     8  H    0.489047  -0.030197   0.001575   0.001468  -0.030363  -0.083662
               7          8
     1  C   -0.048682   0.489047
     2  F   -0.001298  -0.030197
     3  F    0.020543   0.001575
     4  F    0.020690   0.001468
     5  F   -0.001173  -0.030363
     6  C    0.171565  -0.083662
     7  F    9.129070   0.004050
     8  H    0.004050   0.511488
 Mulliken charges:
               1
     1  C    0.442078
     2  F   -0.273286
     3  F   -0.299598
     4  F   -0.299437
     5  F   -0.272704
     6  C    0.861118
     7  F   -0.294764
     8  H    0.136594
 Sum of Mulliken charges =  -0.00000
 Mulliken charges with hydrogens summed into heavy atoms:
               1
     1  C    0.578672
     2  F   -0.273286
     3  F   -0.299598
     4  F   -0.299437
     5  F   -0.272704
     6  C    0.861118
     7  F   -0.294764
 Electronic spatial extent (au):  <R**2>=            564.2029
 Charge=             -0.0000 electrons
 Dipole moment (field-independent basis, Debye):
    X=             -0.1718    Y=              0.0001    Z=              1.5120  Tot=              1.5218
 Quadrupole moment (field-independent basis, Debye-Ang):
   XX=            -38.1467   YY=            -38.3561   ZZ=            -34.5506
   XY=              0.0005   XZ=             -1.3773   YZ=              0.0004
 Traceless Quadrupole moment (field-independent basis, Debye-Ang):
   XX=             -1.1289   YY=             -1.3383   ZZ=              2.4672
   XY=              0.0005   XZ=             -1.3773   YZ=              0.0004
 Octapole moment (field-independent basis, Debye-Ang**2):
  XXX=              2.8095  YYY=             -0.0099  ZZZ=             -0.7559  XYY=              1.9499
  XXY=              0.0001  XXZ=             -1.1108  XZZ=             -2.4662  YZZ=              0.0092
  YYZ=             -0.1690  XYZ=              0.0030
 Hexadecapole moment (field-independent basis, Debye-Ang**3):
 XXXX=           -268.9654 YYYY=           -163.5108 ZZZZ=           -100.4011 XXXY=              0.0034
 XXXZ=              0.2718 YYYX=             -0.0048 YYYZ=              0.0006 ZZZX=              0.5342
 ZZZY=              0.0013 XXYY=            -75.5706 XXZZ=            -61.7847 YYZZ=            -44.3613
 XXYZ=              0.0039 YYXZ=              2.1521 ZZXY=              0.0066
 N-N= 3.699439987579D+02 E-N=-2.110058279868D+03  KE= 5.750087884391D+02
 Calling FoFJK, ICntrl=      2127 FMM=F ISym2X=0 I1Cent= 0 IOpClX= 0 NMat=1 NMatS=1 NMatT=0.
 ***** Axes restored to original set *****
 -------------------------------------------------------------------
 Center     Atomic                   Forces (Hartrees/Bohr)
 Number     Number              X              Y              Z
 -------------------------------------------------------------------
      1        6          -0.021661240   -0.000022765    0.012539658
      2        9           0.032601391   -0.014796988   -0.001444840
      3        9          -0.025897236    0.005016152   -0.005620725
      4        9          -0.025845410   -0.005049971   -0.005515922
      5        9           0.032608642    0.014815853   -0.001373270
      6        6           0.003466869   -0.000009622   -0.010605420
      7        9          -0.019311513    0.000051996    0.008742592
      8        1           0.024038498   -0.000004655    0.003277926
 -------------------------------------------------------------------
 Cartesian Forces:  Max     0.032608642 RMS     0.015557492

 GradGradGradGradGradGradGradGradGradGradGradGradGradGradGradGradGradGrad
 Berny optimization.
 FormGI is forming the generalized inverse of G from B-inverse, IUseBI=4.
 Internal  Forces:  Max     0.068782888 RMS     0.025050460
 Search for a local minimum.
 Step number   1 out of a maximum of   38
 All quantities printed in internal units (Hartrees-Bohrs-Radians)
 Mixed Optimization -- RFO/linear search
 Second derivative matrix not updated -- first step.
 ITU=  0
     Eigenvalues ---    0.00766   0.07208   0.08859   0.09513   0.09588
     Eigenvalues ---    0.16000   0.24058   0.24381   0.25000   0.25000
     Eigenvalues ---    0.25000   0.32377   0.35324   0.62088   0.62912
     Eigenvalues ---    0.62914   0.62930   0.62930
 RFO step:  Lambda=-5.47670047D-02 EMin= 7.65947626D-03
 Linear search not attempted -- first point.
 Maximum step size (   0.300) exceeded in Quadratic search.
    -- Step size scaled by   0.707
 Iteration  1 RMS(Cart)=  0.11672300 RMS(Int)=  0.00488903
 Iteration  2 RMS(Cart)=  0.00359154 RMS(Int)=  0.00286951
 Iteration  3 RMS(Cart)=  0.00000781 RMS(Int)=  0.00286950
 Iteration  4 RMS(Cart)=  0.00000003 RMS(Int)=  0.00286950
 Variable       Old X    -DE/DX   Delta X   Delta X   Delta X     New X
                                 (Linear)    (Quad)   (Total)
    R1        2.48695   0.02421   0.00000   0.02503   0.02503   2.51198
    R2        2.48695   0.02419   0.00000   0.02502   0.02502   2.51196
    R3        2.83459   0.06878   0.00000   0.12854   0.12854   2.96313
    R4        2.05152   0.00494   0.00000   0.00856   0.00856   2.06008
    R5        2.48706   0.01306   0.00000   0.01351   0.01351   2.50058
    R6        2.48707   0.01304   0.00000   0.01349   0.01349   2.50056
    R7        2.49325   0.01665   0.00000   0.01744   0.01744   2.51069
    A1        1.94665  -0.03104   0.00000  -0.06079  -0.06779   1.87886
    A2        1.84981   0.04149   0.00000   0.10242   0.09637   1.94618
    A3        2.00108  -0.02842   0.00000  -0.08852  -0.09325   1.90783
    A4        1.84970   0.04154   0.00000   0.10253   0.09648   1.94618
    A5        2.00109  -0.02845   0.00000  -0.08865  -0.09339   1.90770
    A6        1.79481   0.02511   0.00000   0.08693   0.08202   1.87683
    A7        1.88572   0.03408   0.00000   0.08092   0.07823   1.96394
    A8        1.88595   0.03393   0.00000   0.08054   0.07785   1.96380
    A9        1.89484   0.01052   0.00000   0.02082   0.02006   1.91490
   A10        1.93387  -0.02820   0.00000  -0.05780  -0.06194   1.87193
   A11        1.93094  -0.02332   0.00000  -0.05787  -0.05859   1.87236
   A12        1.93094  -0.02330   0.00000  -0.05791  -0.05861   1.87233
    D1       -2.07844  -0.00456   0.00000  -0.02535  -0.02675  -2.10519
    D2        0.01489   0.00014   0.00000  -0.00330  -0.00297   0.01192
    D3        2.10988  -0.00224   0.00000  -0.01445  -0.01500   2.09489
    D4       -0.00788  -0.00007   0.00000   0.00387   0.00354  -0.00433
    D5        2.08545   0.00462   0.00000   0.02591   0.02732   2.11277
    D6       -2.10274   0.00225   0.00000   0.01476   0.01530  -2.08744
    D7        2.09841  -0.00233   0.00000  -0.01080  -0.01166   2.08675
    D8       -2.09145   0.00237   0.00000   0.01125   0.01211  -2.07933
    D9        0.00355  -0.00000   0.00000   0.00010   0.00009   0.00364
         Item               Value     Threshold  Converged?
 Maximum Force            0.068783     0.000450     NO 
 RMS     Force            0.025050     0.000300     NO 
 Maximum Displacement     0.276432     0.001800     NO 
 RMS     Displacement     0.117853     0.001200     NO 
 Predicted change in Energy=-2.754172D-02
 GradGradGradGradGradGradGradGradGradGradGradGradGradGradGradGradGradGrad

                          Input orientation:                          
 ---------------------------------------------------------------------
 Center     Atomic      Atomic             Coordinates (Angstroms)
 Number     Number       Type             X           Y           Z
 ---------------------------------------------------------------------
      1          6           0        0.996098   -0.000034    0.329054
      2          9           0        1.573294   -1.072981   -0.202568
      3          9           0       -0.959586    1.063208   -0.589784
      4          9           0       -0.960650   -1.067653   -0.582101
      5          9           0        1.573270    1.073061   -0.202271
      6          6           0       -0.552783   -0.000012    0.084797
      7          9           0       -1.190343    0.004483    1.250419
      8          1           0        1.158607   -0.000095    1.407022
 ---------------------------------------------------------------------
                    Distance matrix (angstroms):
                    1          2          3          4          5
     1  C    0.000000
     2  F    1.329282   0.000000
     3  F    2.408204   3.335974   0.000000
     4  F    2.408085   2.562215   2.130875   0.000000
     5  F    1.329273   2.146042   2.562347   3.338814   0.000000
     6  C    1.568022   2.398759   1.323248   1.323241   2.398749
     7  F    2.372648   3.302996   2.135531   2.135501   3.299958
     8  H    1.090149   1.978340   3.099127   3.096376   1.978240
                    6          7          8
     6  C    0.000000
     7  F    1.328599   0.000000
     8  H    2.162668   2.354169   0.000000
 Stoichiometry    C2HF5
 Framework group  C1[X(C2HF5)]
 Deg. of freedom    18
 Full point group                 C1      NOp   1
 Largest Abelian subgroup         C1      NOp   1
 Largest concise Abelian subgroup C1      NOp   1
                         Standard orientation:                         
 ---------------------------------------------------------------------
 Center     Atomic      Atomic             Coordinates (Angstroms)
 Number     Number       Type             X           Y           Z
 ---------------------------------------------------------------------
      1          6           0       -0.890381    0.000003    0.399976
      2          9           0       -1.515941    1.073037   -0.073588
      3          9           0        0.967997   -1.063108   -0.702601
      4          9           0        0.969839    1.067752   -0.694724
      5          9           0       -1.515935   -1.073005   -0.073630
      6          6           0        0.627883    0.000009    0.008096
      7          9           0        1.374440   -0.004673    1.107099
      8          1           0       -0.948612   -0.000105    1.488568
 ---------------------------------------------------------------------
 Rotational constants (GHZ):           3.7993274           2.2952800           1.9368700
 Standard basis: 6-311+G(2d,2p) (5D, 7F)
 There are   212 symmetry adapted cartesian basis functions of A   symmetry.
 There are   198 symmetry adapted basis functions of A   symmetry.
   198 basis functions,   305 primitive gaussians,   212 cartesian basis functions
    29 alpha electrons       29 beta electrons
       nuclear repulsion energy       359.0785652727 Hartrees.
 NAtoms=    8 NActive=    8 NUniq=    8 SFac= 1.00D+00 NAtFMM=   60 NAOKFM=F Big=F
 Integral buffers will be    131072 words long.
 Raffenetti 2 integral format.
 Two-electron integral symmetry is turned on.
 Nuclear repulsion after empirical dispersion term =      359.0764619028 Hartrees.
 One-electron integrals computed using PRISM.
 NBasis=   198 RedAO= T EigKep=  1.21D-04  NBF=   198
 NBsUse=   198 1.00D-06 EigRej= -1.00D+00 NBFU=   198
 Initial guess from the checkpoint file:  "c2f5h.chk"
 B after Tr=    -0.000000   -0.000000   -0.000000
         Rot=    0.999558   -0.000084    0.029713    0.000007 Ang=  -3.41 deg.
 ExpMin= 4.38D-02 ExpMax= 1.14D+04 ExpMxC= 1.72D+03 IAcc=3 IRadAn=         5 AccDes= 0.00D+00
 Harris functional with IExCor= 4639 and IRadAn=       5 diagonalized for initial guess.
 HarFok:  IExCor= 4639 AccDes= 0.00D+00 IRadAn=         5 IDoV= 1 UseB2=F ITyADJ=14
 ICtDFT=  3500011 ScaDFX=  1.000000  1.000000  1.000000  1.000000
 FoFCou: FMM=F IPFlag=           0 FMFlag=      100000 FMFlg1=           0
         NFxFlg=           0 DoJE=T BraDBF=F KetDBF=T FulRan=T
         wScrn=  0.000000 ICntrl=       500 IOpCl=  0 I1Cent=   200000004 NGrid=           0
         NMat0=    1 NMatS0=      1 NMatT0=    0 NMatD0=    1 NMtDS0=    0 NMtDT0=    0
 Petite list used in FoFCou.
 Keep R1 ints in memory in canonical form, NReq=413232258.
 Requested convergence on RMS density matrix=1.00D-08 within  32 cycles.
 Requested convergence on MAX density matrix=1.00D-06.
 Requested convergence on             energy=1.00D-06.
 No special actions if energy rises.
 SCF Done:  E(RwB97XD) =  -576.053913061     A.U. after   10 cycles
            NFock= 10  Conv=0.66D-08     -V/T= 2.0024
 QCSCF skips out because SCF is already converged.
 Calling FoFJK, ICntrl=      2127 FMM=F ISym2X=0 I1Cent= 0 IOpClX= 0 NMat=1 NMatS=1 NMatT=0.
 ***** Axes restored to original set *****
 -------------------------------------------------------------------
 Center     Atomic                   Forces (Hartrees/Bohr)
 Number     Number              X              Y              Z
 -------------------------------------------------------------------
      1        6          -0.005424347   -0.000017850    0.013712051
      2        9          -0.000909476   -0.011564982   -0.005088828
      3        9           0.004343775    0.007569460   -0.002801854
      4        9           0.004341121   -0.007608654   -0.002738369
      5        9          -0.000923945    0.011580951   -0.005080398
      6        6          -0.004386578    0.000008041   -0.009093747
      7        9           0.001491688    0.000047808    0.010130629
      8        1           0.001467761   -0.000014774    0.000960516
 -------------------------------------------------------------------
 Cartesian Forces:  Max     0.013712051 RMS     0.006180691

 GradGradGradGradGradGradGradGradGradGradGradGradGradGradGradGradGradGrad
 Berny optimization.
 Using GEDIIS/GDIIS optimizer.
 FormGI is forming the generalized inverse of G from B-inverse, IUseBI=4.
 Internal  Forces:  Max     0.010978688 RMS     0.006225432
 Search for a local minimum.
 Step number   2 out of a maximum of   38
 All quantities printed in internal units (Hartrees-Bohrs-Radians)
 Mixed Optimization -- RFO/linear search
 Update second derivatives using D2CorX and points    1    2
 DE= -1.45D-02 DEPred=-2.75D-02 R= 5.27D-01
 TightC=F SS=  1.41D+00  RLast= 3.02D-01 DXNew= 5.0454D-01 9.0681D-01
 Trust test= 5.27D-01 RLast= 3.02D-01 DXMaxT set to 5.05D-01
 ITU=  1  0
 Use linear search instead of GDIIS.
     Eigenvalues ---    0.00766   0.06445   0.07502   0.08378   0.08838
     Eigenvalues ---    0.16367   0.23565   0.24624   0.24969   0.25000
     Eigenvalues ---    0.29999   0.35312   0.52362   0.60714   0.62282
     Eigenvalues ---    0.62913   0.62918   0.62930
 RFO step:  Lambda=-1.66059104D-03 EMin= 7.65948289D-03
 Quartic linear search produced a step of -0.15494.
 Iteration  1 RMS(Cart)=  0.02420479 RMS(Int)=  0.00049508
 Iteration  2 RMS(Cart)=  0.00042106 RMS(Int)=  0.00036105
 Iteration  3 RMS(Cart)=  0.00000009 RMS(Int)=  0.00036105
 Variable       Old X    -DE/DX   Delta X   Delta X   Delta X     New X
                                 (Linear)    (Quad)   (Total)
    R1        2.51198   0.01098  -0.00388   0.02110   0.01723   2.52920
    R2        2.51196   0.01098  -0.00388   0.02110   0.01723   2.52919
    R3        2.96313  -0.00502  -0.01992   0.01863  -0.00129   2.96185
    R4        2.06008   0.00117  -0.00133   0.00490   0.00358   2.06366
    R5        2.50058   0.00617  -0.00209   0.01173   0.00964   2.51021
    R6        2.50056   0.00618  -0.00209   0.01173   0.00964   2.51020
    R7        2.51069   0.00817  -0.00270   0.01555   0.01285   2.52354
    A1        1.87886   0.00919   0.01050   0.00605   0.01690   1.89576
    A2        1.94618  -0.00936  -0.01493  -0.01307  -0.02741   1.91877
    A3        1.90783   0.00233   0.01445  -0.01157   0.00371   1.91154
    A4        1.94618  -0.00939  -0.01495  -0.01316  -0.02751   1.91866
    A5        1.90770   0.00234   0.01447  -0.01154   0.00376   1.91146
    A6        1.87683   0.00512  -0.01271   0.04261   0.03075   1.90758
    A7        1.96394  -0.00776  -0.01212  -0.00706  -0.01898   1.94496
    A8        1.96380  -0.00778  -0.01206  -0.00721  -0.01908   1.94473
    A9        1.91490  -0.00726  -0.00311  -0.02116  -0.02445   1.89045
   A10        1.87193   0.00916   0.00960   0.01725   0.02735   1.89928
   A11        1.87236   0.00766   0.00908   0.01021   0.01912   1.89148
   A12        1.87233   0.00767   0.00908   0.01025   0.01916   1.89148
    D1       -2.10519   0.00032   0.00415  -0.00035   0.00384  -2.10135
    D2        0.01192   0.00086   0.00046   0.01172   0.01187   0.02379
    D3        2.09489   0.00059   0.00232   0.00566   0.00785   2.10274
    D4       -0.00433  -0.00084  -0.00055  -0.01067  -0.01091  -0.01525
    D5        2.11277  -0.00031  -0.00423   0.00140  -0.00288   2.10990
    D6       -2.08744  -0.00057  -0.00237  -0.00466  -0.00690  -2.09433
    D7        2.08675  -0.00026   0.00181  -0.00552  -0.00354   2.08321
    D8       -2.07933   0.00028  -0.00188   0.00655   0.00450  -2.07483
    D9        0.00364   0.00001  -0.00001   0.00049   0.00048   0.00412
         Item               Value     Threshold  Converged?
 Maximum Force            0.010979     0.000450     NO 
 RMS     Force            0.006225     0.000300     NO 
 Maximum Displacement     0.056163     0.001800     NO 
 RMS     Displacement     0.024435     0.001200     NO 
 Predicted change in Energy=-1.154524D-03
 GradGradGradGradGradGradGradGradGradGradGradGradGradGradGradGradGradGrad

                          Input orientation:                          
 ---------------------------------------------------------------------
 Center     Atomic      Atomic             Coordinates (Angstroms)
 Number     Number       Type             X           Y           Z
 ---------------------------------------------------------------------
      1          6           0        0.988323   -0.000072    0.340779
      2          9           0        1.543734   -1.086844   -0.208541
      3          9           0       -0.935160    1.077839   -0.597990
      4          9           0       -0.936349   -1.082578   -0.589740
      5          9           0        1.543550    1.087192   -0.207734
      6          6           0       -0.557201   -0.000007    0.080171
      7          9           0       -1.181786    0.004848    1.260494
      8          1           0        1.172795   -0.000402    1.417127
 ---------------------------------------------------------------------
                    Distance matrix (angstroms):
                    1          2          3          4          5
     1  C    0.000000
     2  F    1.338397   0.000000
     3  F    2.396448   3.313976   0.000000
     4  F    2.396257   2.509212   2.160433   0.000000
     5  F    1.338390   2.174036   2.509261   3.317187   0.000000
     6  C    1.567342   2.382960   1.328347   1.328343   2.382865
     7  F    2.356962   3.283034   2.160115   2.160115   3.279423
     8  H    1.092042   1.990163   3.109144   3.105979   1.990100
                    6          7          8
     6  C    0.000000
     7  F    1.335399   0.000000
     8  H    2.186399   2.359791   0.000000
 Stoichiometry    C2HF5
 Framework group  C1[X(C2HF5)]
 Deg. of freedom    18
 Full point group                 C1      NOp   1
 Largest Abelian subgroup         C1      NOp   1
 Largest concise Abelian subgroup C1      NOp   1
                         Standard orientation:                         
 ---------------------------------------------------------------------
 Center     Atomic      Atomic             Coordinates (Angstroms)
 Number     Number       Type             X           Y           Z
 ---------------------------------------------------------------------
      1          6           0       -0.879877    0.000004    0.418693
      2          9           0       -1.488741    1.086970   -0.070282
      3          9           0        0.936975   -1.077555   -0.713067
      4          9           0        0.939071    1.082859   -0.704205
      5          9           0       -1.488541   -1.087066   -0.070281
      6          6           0        0.630704    0.000043    0.000717
      7          9           0        1.373221   -0.005233    1.110641
      8          1           0       -0.952818   -0.000056    1.508296
 ---------------------------------------------------------------------
 Rotational constants (GHZ):           3.7085116           2.3451780           1.9611835
 Standard basis: 6-311+G(2d,2p) (5D, 7F)
 There are   212 symmetry adapted cartesian basis functions of A   symmetry.
 There are   198 symmetry adapted basis functions of A   symmetry.
   198 basis functions,   305 primitive gaussians,   212 cartesian basis functions
    29 alpha electrons       29 beta electrons
       nuclear repulsion energy       358.8537712092 Hartrees.
 NAtoms=    8 NActive=    8 NUniq=    8 SFac= 1.00D+00 NAtFMM=   60 NAOKFM=F Big=F
 Integral buffers will be    131072 words long.
 Raffenetti 2 integral format.
 Two-electron integral symmetry is turned on.
 Nuclear repulsion after empirical dispersion term =      358.8516690631 Hartrees.
 One-electron integrals computed using PRISM.
 NBasis=   198 RedAO= T EigKep=  1.22D-04  NBF=   198
 NBsUse=   198 1.00D-06 EigRej= -1.00D+00 NBFU=   198
 Initial guess from the checkpoint file:  "c2f5h.chk"
 B after Tr=    -0.000000   -0.000000    0.000000
         Rot=    0.999994   -0.000131   -0.003452   -0.000006 Ang=  -0.40 deg.
 ExpMin= 4.38D-02 ExpMax= 1.14D+04 ExpMxC= 1.72D+03 IAcc=3 IRadAn=         5 AccDes= 0.00D+00
 Harris functional with IExCor= 4639 and IRadAn=       5 diagonalized for initial guess.
 HarFok:  IExCor= 4639 AccDes= 0.00D+00 IRadAn=         5 IDoV= 1 UseB2=F ITyADJ=14
 ICtDFT=  3500011 ScaDFX=  1.000000  1.000000  1.000000  1.000000
 FoFCou: FMM=F IPFlag=           0 FMFlag=      100000 FMFlg1=           0
         NFxFlg=           0 DoJE=T BraDBF=F KetDBF=T FulRan=T
         wScrn=  0.000000 ICntrl=       500 IOpCl=  0 I1Cent=   200000004 NGrid=           0
         NMat0=    1 NMatS0=      1 NMatT0=    0 NMatD0=    1 NMtDS0=    0 NMtDT0=    0
 Petite list used in FoFCou.
 Keep R1 ints in memory in canonical form, NReq=413232258.
 Requested convergence on RMS density matrix=1.00D-08 within  32 cycles.
 Requested convergence on MAX density matrix=1.00D-06.
 Requested convergence on             energy=1.00D-06.
 No special actions if energy rises.
 SCF Done:  E(RwB97XD) =  -576.055166370     A.U. after    9 cycles
            NFock=  9  Conv=0.71D-08     -V/T= 2.0025
 QCSCF skips out because SCF is already converged.
 Calling FoFJK, ICntrl=      2127 FMM=F ISym2X=0 I1Cent= 0 IOpClX= 0 NMat=1 NMatS=1 NMatT=0.
 ***** Axes restored to original set *****
 -------------------------------------------------------------------
 Center     Atomic                   Forces (Hartrees/Bohr)
 Number     Number              X              Y              Z
 -------------------------------------------------------------------
      1        6          -0.003970235   -0.000012136    0.003633932
      2        9           0.000853658   -0.002759546   -0.001236889
      3        9          -0.000092978   -0.002362917    0.001080460
      4        9          -0.000102509    0.002349116    0.001075561
      5        9           0.000846372    0.002777666   -0.001216475
      6        6           0.003907394    0.000004484   -0.002500458
      7        9          -0.001995867    0.000014377    0.000510979
      8        1           0.000554164   -0.000011043   -0.001347111
 -------------------------------------------------------------------
 Cartesian Forces:  Max     0.003970235 RMS     0.001937412

 GradGradGradGradGradGradGradGradGradGradGradGradGradGradGradGradGradGrad
 Berny optimization.
 Using GEDIIS/GDIIS optimizer.
 FormGI is forming the generalized inverse of G from B-inverse, IUseBI=4.
 Internal  Forces:  Max     0.003106279 RMS     0.001395118
 Search for a local minimum.
 Step number   3 out of a maximum of   38
 All quantities printed in internal units (Hartrees-Bohrs-Radians)
 Mixed Optimization -- RFO/linear search
 Update second derivatives using D2CorX and points    1    2    3
 DE= -1.25D-03 DEPred=-1.15D-03 R= 1.09D+00
 TightC=F SS=  1.41D+00  RLast= 8.34D-02 DXNew= 8.4853D-01 2.5017D-01
 Trust test= 1.09D+00 RLast= 8.34D-02 DXMaxT set to 5.05D-01
 ITU=  1  1  0
 Use linear search instead of GDIIS.
     Eigenvalues ---    0.00766   0.06391   0.07748   0.08779   0.09215
     Eigenvalues ---    0.16577   0.23459   0.24351   0.25000   0.25406
     Eigenvalues ---    0.32483   0.35716   0.44366   0.57246   0.62254
     Eigenvalues ---    0.62913   0.62930   0.67418
 RFO step:  Lambda=-1.43380425D-04 EMin= 7.65933437D-03
 Quartic linear search produced a step of -0.00079.
 Iteration  1 RMS(Cart)=  0.00670271 RMS(Int)=  0.00003494
 Iteration  2 RMS(Cart)=  0.00003319 RMS(Int)=  0.00001058
 Iteration  3 RMS(Cart)=  0.00000000 RMS(Int)=  0.00001058
 Variable       Old X    -DE/DX   Delta X   Delta X   Delta X     New X
                                 (Linear)    (Quad)   (Total)
    R1        2.52920   0.00310  -0.00001   0.00618   0.00616   2.53537
    R2        2.52919   0.00311  -0.00001   0.00618   0.00617   2.53536
    R3        2.96185  -0.00172   0.00000  -0.00519  -0.00519   2.95665
    R4        2.06366  -0.00123  -0.00000  -0.00325  -0.00326   2.06040
    R5        2.51021  -0.00244  -0.00001  -0.00322  -0.00323   2.50699
    R6        2.51020  -0.00243  -0.00001  -0.00319  -0.00320   2.50700
    R7        2.52354   0.00139  -0.00001   0.00315   0.00314   2.52668
    A1        1.89576   0.00075  -0.00001   0.00291   0.00287   1.89863
    A2        1.91877  -0.00086   0.00002  -0.00577  -0.00575   1.91302
    A3        1.91154  -0.00021  -0.00000  -0.00108  -0.00107   1.91047
    A4        1.91866  -0.00087   0.00002  -0.00584  -0.00582   1.91284
    A5        1.91146  -0.00021  -0.00000  -0.00111  -0.00110   1.91035
    A6        1.90758   0.00139  -0.00002   0.01081   0.01080   1.91838
    A7        1.94496   0.00080   0.00002   0.00142   0.00142   1.94638
    A8        1.94473   0.00081   0.00002   0.00145   0.00146   1.94619
    A9        1.89045   0.00237   0.00002   0.00907   0.00907   1.89952
   A10        1.89928  -0.00123  -0.00002  -0.00531  -0.00533   1.89394
   A11        1.89148  -0.00143  -0.00002  -0.00342  -0.00345   1.88803
   A12        1.89148  -0.00143  -0.00002  -0.00342  -0.00345   1.88803
    D1       -2.10135   0.00031  -0.00000   0.00543   0.00542  -2.09593
    D2        0.02379  -0.00014  -0.00001   0.00063   0.00060   0.02439
    D3        2.10274   0.00009  -0.00001   0.00304   0.00302   2.10576
    D4       -0.01525   0.00016   0.00001   0.00180   0.00182  -0.01343
    D5        2.10990  -0.00029   0.00000  -0.00301  -0.00300   2.10690
    D6       -2.09433  -0.00007   0.00001  -0.00060  -0.00058  -2.09491
    D7        2.08321   0.00023   0.00000   0.00357   0.00358   2.08679
    D8       -2.07483  -0.00022  -0.00000  -0.00123  -0.00124  -2.07607
    D9        0.00412   0.00001  -0.00000   0.00118   0.00118   0.00530
         Item               Value     Threshold  Converged?
 Maximum Force            0.003106     0.000450     NO 
 RMS     Force            0.001395     0.000300     NO 
 Maximum Displacement     0.019027     0.001800     NO 
 RMS     Displacement     0.006708     0.001200     NO 
 Predicted change in Energy=-7.173273D-05
 GradGradGradGradGradGradGradGradGradGradGradGradGradGradGradGradGradGrad

                          Input orientation:                          
 ---------------------------------------------------------------------
 Center     Atomic      Atomic             Coordinates (Angstroms)
 Number     Number       Type             X           Y           Z
 ---------------------------------------------------------------------
      1          6           0        0.988355   -0.000131    0.344338
      2          9           0        1.539240   -1.090262   -0.210809
      3          9           0       -0.932047    1.074051   -0.598477
      4          9           0       -0.933564   -1.079471   -0.589065
      5          9           0        1.538803    1.091318   -0.208639
      6          6           0       -0.554151   -0.000017    0.082367
      7          9           0       -1.191592    0.005574    1.257685
      8          1           0        1.182864   -0.001087    1.417166
 ---------------------------------------------------------------------
                    Distance matrix (angstroms):
                    1          2          3          4          5
     1  C    0.000000
     2  F    1.341659   0.000000
     3  F    2.393890   3.307838   0.000000
     4  F    2.393739   2.501591   2.153542   0.000000
     5  F    1.341655   2.181581   2.501473   3.312046   0.000000
     6  C    1.564594   2.378419   1.326640   1.326648   2.378267
     7  F    2.363557   3.288583   2.157393   2.157402   3.283901
     8  H    1.090319   1.990882   3.113131   3.109203   1.990800
                    6          7          8
     6  C    0.000000
     7  F    1.337061   0.000000
     8  H    2.190642   2.379815   0.000000
 Stoichiometry    C2HF5
 Framework group  C1[X(C2HF5)]
 Deg. of freedom    18
 Full point group                 C1      NOp   1
 Largest Abelian subgroup         C1      NOp   1
 Largest concise Abelian subgroup C1      NOp   1
                         Standard orientation:                         
 ---------------------------------------------------------------------
 Center     Atomic      Atomic             Coordinates (Angstroms)
 Number     Number       Type             X           Y           Z
 ---------------------------------------------------------------------
      1          6           0       -0.880191   -0.000001    0.424488
      2          9           0       -1.486014    1.090727   -0.068808
      3          9           0        0.930727   -1.073327   -0.715361
      4          9           0        0.933571    1.080184   -0.703987
      5          9           0       -1.485705   -1.090855   -0.068897
      6          6           0        0.626393    0.000066    0.002401
      7          9           0        1.383427   -0.006758    1.104484
      8          1           0       -0.961265   -0.000128    1.511788
 ---------------------------------------------------------------------
 Rotational constants (GHZ):           3.7115628           2.3493287           1.9627759
 Standard basis: 6-311+G(2d,2p) (5D, 7F)
 There are   212 symmetry adapted cartesian basis functions of A   symmetry.
 There are   198 symmetry adapted basis functions of A   symmetry.
   198 basis functions,   305 primitive gaussians,   212 cartesian basis functions
    29 alpha electrons       29 beta electrons
       nuclear repulsion energy       358.9715977063 Hartrees.
 NAtoms=    8 NActive=    8 NUniq=    8 SFac= 1.00D+00 NAtFMM=   60 NAOKFM=F Big=F
 Integral buffers will be    131072 words long.
 Raffenetti 2 integral format.
 Two-electron integral symmetry is turned on.
 Nuclear repulsion after empirical dispersion term =      358.9694968973 Hartrees.
 One-electron integrals computed using PRISM.
 NBasis=   198 RedAO= T EigKep=  1.21D-04  NBF=   198
 NBsUse=   198 1.00D-06 EigRej= -1.00D+00 NBFU=   198
 Initial guess from the checkpoint file:  "c2f5h.chk"
 B after Tr=    -0.000000    0.000000    0.000000
         Rot=    0.999999   -0.000388   -0.001534    0.000043 Ang=  -0.18 deg.
 Keep R1 ints in memory in canonical form, NReq=413232258.
 Requested convergence on RMS density matrix=1.00D-08 within  32 cycles.
 Requested convergence on MAX density matrix=1.00D-06.
 Requested convergence on             energy=1.00D-06.
 No special actions if energy rises.
 SCF Done:  E(RwB97XD) =  -576.055240099     A.U. after    9 cycles
            NFock=  9  Conv=0.37D-08     -V/T= 2.0025
 QCSCF skips out because SCF is already converged.
 Calling FoFJK, ICntrl=      2127 FMM=F ISym2X=0 I1Cent= 0 IOpClX= 0 NMat=1 NMatS=1 NMatT=0.
 ***** Axes restored to original set *****
 -------------------------------------------------------------------
 Center     Atomic                   Forces (Hartrees/Bohr)
 Number     Number              X              Y              Z
 -------------------------------------------------------------------
      1        6          -0.002169118   -0.000009835    0.000644938
      2        9           0.000604952   -0.000196607   -0.000156515
      3        9           0.000243607   -0.000365421    0.000476129
      4        9           0.000240713    0.000346802    0.000498279
      5        9           0.000600941    0.000215950   -0.000129463
      6        6           0.000353516    0.000008571   -0.001487047
      7        9          -0.000106361    0.000014972    0.000569950
      8        1           0.000231750   -0.000014432   -0.000416271
 -------------------------------------------------------------------
 Cartesian Forces:  Max     0.002169118 RMS     0.000636421

 GradGradGradGradGradGradGradGradGradGradGradGradGradGradGradGradGradGrad
 Berny optimization.
 Using GEDIIS/GDIIS optimizer.
 FormGI is forming the generalized inverse of G from B-inverse, IUseBI=4.
 Internal  Forces:  Max     0.000730793 RMS     0.000374761
 Search for a local minimum.
 Step number   4 out of a maximum of   38
 All quantities printed in internal units (Hartrees-Bohrs-Radians)
 Mixed Optimization -- En-DIIS/RFO-DIIS
 Update second derivatives using D2CorX and points    1    2    3    4
 DE= -7.37D-05 DEPred=-7.17D-05 R= 1.03D+00
 TightC=F SS=  1.41D+00  RLast= 2.33D-02 DXNew= 8.4853D-01 6.9986D-02
 Trust test= 1.03D+00 RLast= 2.33D-02 DXMaxT set to 5.05D-01
 ITU=  1  1  1  0
 Use linear search instead of GDIIS.
     Eigenvalues ---    0.00764   0.06355   0.07742   0.09044   0.09111
     Eigenvalues ---    0.15337   0.23417   0.25000   0.25019   0.30388
     Eigenvalues ---    0.32511   0.34798   0.43003   0.52223   0.62557
     Eigenvalues ---    0.62913   0.62930   0.66277
 RFO step:  Lambda=-1.36344925D-05 EMin= 7.64442962D-03
 Quartic linear search produced a step of  0.03033.
 Iteration  1 RMS(Cart)=  0.00136961 RMS(Int)=  0.00000242
 Iteration  2 RMS(Cart)=  0.00000261 RMS(Int)=  0.00000105
 Iteration  3 RMS(Cart)=  0.00000000 RMS(Int)=  0.00000105
 Variable       Old X    -DE/DX   Delta X   Delta X   Delta X     New X
                                 (Linear)    (Quad)   (Total)
    R1        2.53537   0.00047   0.00019   0.00124   0.00143   2.53680
    R2        2.53536   0.00048   0.00019   0.00124   0.00143   2.53679
    R3        2.95665  -0.00073  -0.00016  -0.00302  -0.00317   2.95348
    R4        2.06040  -0.00037  -0.00010  -0.00130  -0.00140   2.05900
    R5        2.50699  -0.00061  -0.00010  -0.00119  -0.00129   2.50569
    R6        2.50700  -0.00060  -0.00010  -0.00118  -0.00128   2.50572
    R7        2.52668   0.00055   0.00010   0.00117   0.00126   2.52794
    A1        1.89863  -0.00062   0.00009  -0.00223  -0.00215   1.89649
    A2        1.91302   0.00059  -0.00017   0.00171   0.00153   1.91455
    A3        1.91047  -0.00040  -0.00003  -0.00181  -0.00185   1.90862
    A4        1.91284   0.00059  -0.00018   0.00168   0.00151   1.91435
    A5        1.91035  -0.00040  -0.00003  -0.00187  -0.00190   1.90845
    A6        1.91838   0.00022   0.00033   0.00246   0.00278   1.92116
    A7        1.94638  -0.00006   0.00004  -0.00016  -0.00012   1.94627
    A8        1.94619  -0.00007   0.00004  -0.00021  -0.00016   1.94603
    A9        1.89952  -0.00034   0.00028  -0.00159  -0.00131   1.89821
   A10        1.89394   0.00026  -0.00016   0.00216   0.00200   1.89595
   A11        1.88803   0.00011  -0.00010  -0.00009  -0.00020   1.88783
   A12        1.88803   0.00011  -0.00010  -0.00012  -0.00022   1.88781
    D1       -2.09593  -0.00009   0.00016   0.00077   0.00094  -2.09500
    D2        0.02439   0.00016   0.00002   0.00329   0.00331   0.02770
    D3        2.10576   0.00003   0.00009   0.00200   0.00209   2.10786
    D4       -0.01343  -0.00013   0.00006   0.00011   0.00016  -0.01326
    D5        2.10690   0.00012  -0.00009   0.00263   0.00254   2.10944
    D6       -2.09491  -0.00001  -0.00002   0.00134   0.00132  -2.09359
    D7        2.08679  -0.00011   0.00011   0.00040   0.00051   2.08730
    D8       -2.07607   0.00014  -0.00004   0.00292   0.00288  -2.07319
    D9        0.00530   0.00001   0.00004   0.00163   0.00167   0.00696
         Item               Value     Threshold  Converged?
 Maximum Force            0.000731     0.000450     NO 
 RMS     Force            0.000375     0.000300     NO 
 Maximum Displacement     0.003857     0.001800     NO 
 RMS     Displacement     0.001370     0.001200     NO 
 Predicted change in Energy=-6.880338D-06
 GradGradGradGradGradGradGradGradGradGradGradGradGradGradGradGradGradGrad

                          Input orientation:                          
 ---------------------------------------------------------------------
 Center     Atomic      Atomic             Coordinates (Angstroms)
 Number     Number       Type             X           Y           Z
 ---------------------------------------------------------------------
      1          6           0        0.986314   -0.000198    0.344341
      2          9           0        1.539948   -1.089532   -0.211462
      3          9           0       -0.931454    1.073776   -0.598800
      4          9           0       -0.933303   -1.080182   -0.587647
      5          9           0        1.539224    1.091597   -0.207334
      6          6           0       -0.554353   -0.000025    0.081573
      7          9           0       -1.191392    0.006597    1.257863
      8          1           0        1.182923   -0.002056    1.416032
 ---------------------------------------------------------------------
                    Distance matrix (angstroms):
                    1          2          3          4          5
     1  C    0.000000
     2  F    1.342414   0.000000
     3  F    2.391813   3.307228   0.000000
     4  F    2.391630   2.501714   2.153988   0.000000
     5  F    1.342413   2.181133   2.501562   3.312801   0.000000
     6  C    1.562914   2.378864   1.325956   1.325971   2.378691
     7  F    2.361561   3.289473   2.157229   2.157222   3.283336
     8  H    1.089578   1.989676   3.112483   3.107330   1.989560
                    6          7          8
     6  C    0.000000
     7  F    1.337730   0.000000
     8  H    2.190642   2.379593   0.000000
 Stoichiometry    C2HF5
 Framework group  C1[X(C2HF5)]
 Deg. of freedom    18
 Full point group                 C1      NOp   1
 Largest Abelian subgroup         C1      NOp   1
 Largest concise Abelian subgroup C1      NOp   1
                         Standard orientation:                         
 ---------------------------------------------------------------------
 Center     Atomic      Atomic             Coordinates (Angstroms)
 Number     Number       Type             X           Y           Z
 ---------------------------------------------------------------------
      1          6           0       -0.878002    0.000013    0.424220
      2          9           0       -1.486486    1.090504   -0.068379
      3          9           0        0.929845   -1.072477   -0.716930
      4          9           0        0.933650    1.081456   -0.701966
      5          9           0       -1.486138   -1.090629   -0.068467
      6          6           0        0.626598    0.000082    0.001276
      7          9           0        1.383519   -0.008901    1.104231
      8          1           0       -0.961097   -0.000149    1.510625
 ---------------------------------------------------------------------
 Rotational constants (GHZ):           3.7124004           2.3498339           1.9628994
 Standard basis: 6-311+G(2d,2p) (5D, 7F)
 There are   212 symmetry adapted cartesian basis functions of A   symmetry.
 There are   198 symmetry adapted basis functions of A   symmetry.
   198 basis functions,   305 primitive gaussians,   212 cartesian basis functions
    29 alpha electrons       29 beta electrons
       nuclear repulsion energy       359.0049761638 Hartrees.
 NAtoms=    8 NActive=    8 NUniq=    8 SFac= 1.00D+00 NAtFMM=   60 NAOKFM=F Big=F
 Integral buffers will be    131072 words long.
 Raffenetti 2 integral format.
 Two-electron integral symmetry is turned on.
 Nuclear repulsion after empirical dispersion term =      359.0028764124 Hartrees.
 One-electron integrals computed using PRISM.
 NBasis=   198 RedAO= T EigKep=  1.20D-04  NBF=   198
 NBsUse=   198 1.00D-06 EigRej= -1.00D+00 NBFU=   198
 Initial guess from the checkpoint file:  "c2f5h.chk"
 B after Tr=     0.000000    0.000000   -0.000000
         Rot=    1.000000   -0.000529   -0.000120    0.000072 Ang=  -0.06 deg.
 Keep R1 ints in memory in canonical form, NReq=413232258.
 Requested convergence on RMS density matrix=1.00D-08 within  32 cycles.
 Requested convergence on MAX density matrix=1.00D-06.
 Requested convergence on             energy=1.00D-06.
 No special actions if energy rises.
 SCF Done:  E(RwB97XD) =  -576.055248034     A.U. after    8 cycles
            NFock=  8  Conv=0.38D-08     -V/T= 2.0025
 QCSCF skips out because SCF is already converged.
 Calling FoFJK, ICntrl=      2127 FMM=F ISym2X=0 I1Cent= 0 IOpClX= 0 NMat=1 NMatS=1 NMatT=0.
 ***** Axes restored to original set *****
 -------------------------------------------------------------------
 Center     Atomic                   Forces (Hartrees/Bohr)
 Number     Number              X              Y              Z
 -------------------------------------------------------------------
      1        6          -0.000265154   -0.000012085    0.000019419
      2        9           0.000114247   -0.000042023   -0.000062219
      3        9          -0.000007200   -0.000191537    0.000095702
      4        9          -0.000006924    0.000165221    0.000125822
      5        9           0.000104159    0.000064210   -0.000026804
      6        6           0.000206142    0.000015926   -0.000554968
      7        9          -0.000103952    0.000021064    0.000318637
      8        1          -0.000041317   -0.000020776    0.000084412
 -------------------------------------------------------------------
 Cartesian Forces:  Max     0.000554968 RMS     0.000166716

 GradGradGradGradGradGradGradGradGradGradGradGradGradGradGradGradGradGrad
 Berny optimization.
 Using GEDIIS/GDIIS optimizer.
 FormGI is forming the generalized inverse of G from B-inverse, IUseBI=4.
 Internal  Forces:  Max     0.000330014 RMS     0.000110851
 Search for a local minimum.
 Step number   5 out of a maximum of   38
 All quantities printed in internal units (Hartrees-Bohrs-Radians)
 Mixed Optimization -- En-DIIS/RFO-DIIS
 Swapping is turned off.
 Update second derivatives using D2CorX and points    1    2    3    4    5
 DE= -7.93D-06 DEPred=-6.88D-06 R= 1.15D+00
 TightC=F SS=  1.41D+00  RLast= 9.31D-03 DXNew= 8.4853D-01 2.7933D-02
 Trust test= 1.15D+00 RLast= 9.31D-03 DXMaxT set to 5.05D-01
 ITU=  1  1  1  1  0
     Eigenvalues ---    0.00733   0.06332   0.07771   0.08766   0.09130
     Eigenvalues ---    0.16885   0.23399   0.24804   0.25009   0.27187
     Eigenvalues ---    0.32685   0.35524   0.42317   0.49577   0.62550
     Eigenvalues ---    0.62913   0.62930   0.65709
 En-DIIS/RFO-DIIS/Sim-DIIS IScMMF=       -3 using points:     5    4
 RFO step:  Lambda=-1.54765200D-06.
 DidBck=F Rises=F RFO-DIIS coefs:    1.59326   -0.59326
 Iteration  1 RMS(Cart)=  0.00148893 RMS(Int)=  0.00000132
 Iteration  2 RMS(Cart)=  0.00000114 RMS(Int)=  0.00000063
 Iteration  3 RMS(Cart)=  0.00000000 RMS(Int)=  0.00000063
 Variable       Old X    -DE/DX   Delta X   Delta X   Delta X     New X
                                 (Linear)    (Quad)   (Total)
    R1        2.53680   0.00011   0.00085  -0.00038   0.00046   2.53726
    R2        2.53679   0.00011   0.00085  -0.00039   0.00046   2.53726
    R3        2.95348  -0.00008  -0.00188   0.00112  -0.00076   2.95272
    R4        2.05900   0.00008  -0.00083   0.00091   0.00008   2.05908
    R5        2.50569  -0.00020  -0.00077   0.00024  -0.00053   2.50517
    R6        2.50572  -0.00020  -0.00076   0.00025  -0.00051   2.50521
    R7        2.52794   0.00033   0.00075   0.00006   0.00081   2.52875
    A1        1.89649  -0.00011  -0.00127   0.00086  -0.00041   1.89607
    A2        1.91455   0.00012   0.00091  -0.00041   0.00050   1.91506
    A3        1.90862  -0.00000  -0.00110   0.00106  -0.00004   1.90858
    A4        1.91435   0.00011   0.00089  -0.00046   0.00043   1.91478
    A5        1.90845  -0.00000  -0.00113   0.00102  -0.00011   1.90835
    A6        1.92116  -0.00012   0.00165  -0.00203  -0.00038   1.92079
    A7        1.94627   0.00013  -0.00007   0.00066   0.00059   1.94686
    A8        1.94603   0.00011  -0.00010   0.00059   0.00049   1.94652
    A9        1.89821  -0.00016  -0.00078  -0.00013  -0.00090   1.89731
   A10        1.89595  -0.00008   0.00119  -0.00111   0.00008   1.89603
   A11        1.88783  -0.00000  -0.00012  -0.00003  -0.00015   1.88768
   A12        1.88781   0.00000  -0.00013  -0.00002  -0.00015   1.88765
    D1       -2.09500  -0.00002   0.00056   0.00157   0.00213  -2.09287
    D2        0.02770   0.00004   0.00197   0.00104   0.00300   0.03071
    D3        2.10786   0.00001   0.00124   0.00129   0.00253   2.11039
    D4       -0.01326  -0.00001   0.00010   0.00210   0.00220  -0.01107
    D5        2.10944   0.00005   0.00151   0.00156   0.00307   2.11251
    D6       -2.09359   0.00002   0.00078   0.00181   0.00260  -2.09100
    D7        2.08730  -0.00001   0.00030   0.00180   0.00210   2.08940
    D8       -2.07319   0.00004   0.00171   0.00126   0.00297  -2.07022
    D9        0.00696   0.00001   0.00099   0.00151   0.00250   0.00947
         Item               Value     Threshold  Converged?
 Maximum Force            0.000330     0.000450     YES
 RMS     Force            0.000111     0.000300     YES
 Maximum Displacement     0.002931     0.001800     NO 
 RMS     Displacement     0.001489     0.001200     NO 
 Predicted change in Energy=-7.738939D-07
 GradGradGradGradGradGradGradGradGradGradGradGradGradGradGradGradGradGrad

                          Input orientation:                          
 ---------------------------------------------------------------------
 Center     Atomic      Atomic             Coordinates (Angstroms)
 Number     Number       Type             X           Y           Z
 ---------------------------------------------------------------------
      1          6           0        0.986028   -0.000304    0.344162
      2          9           0        1.540673   -1.088815   -0.212836
      3          9           0       -0.931584    1.072838   -0.600021
      4          9           0       -0.933893   -1.080720   -0.586277
      5          9           0        1.539498    1.092382   -0.205783
      6          6           0       -0.554183   -0.000031    0.081112
      7          9           0       -1.190627    0.008144    1.258201
      8          1           0        1.181995   -0.003518    1.416009
 ---------------------------------------------------------------------
                    Distance matrix (angstroms):
                    1          2          3          4          5
     1  C    0.000000
     2  F    1.342660   0.000000
     3  F    2.391725   3.306768   0.000000
     4  F    2.391467   2.502599   2.153604   0.000000
     5  F    1.342658   2.181208   2.502409   3.314334   0.000000
     6  C    1.562512   2.379134   1.325678   1.325700   2.378901
     7  F    2.360797   3.290482   2.157235   2.157229   3.282134
     8  H    1.089619   1.989889   3.112899   3.105882   1.989728
                    6          7          8
     6  C    0.000000
     7  F    1.338158   0.000000
     8  H    2.190040   2.377893   0.000000
 Stoichiometry    C2HF5
 Framework group  C1[X(C2HF5)]
 Deg. of freedom    18
 Full point group                 C1      NOp   1
 Largest Abelian subgroup         C1      NOp   1
 Largest concise Abelian subgroup C1      NOp   1
                         Standard orientation:                         
 ---------------------------------------------------------------------
 Center     Atomic      Atomic             Coordinates (Angstroms)
 Number     Number       Type             X           Y           Z
 ---------------------------------------------------------------------
      1          6           0       -0.877662    0.000014    0.423847
      2          9           0       -1.486899    1.090517   -0.068462
      3          9           0        0.929763   -1.070638   -0.719511
      4          9           0        0.934914    1.082863   -0.699148
      5          9           0       -1.486424   -1.090691   -0.068597
      6          6           0        0.626509    0.000115    0.000868
      7          9           0        1.382775   -0.012112    1.104760
      8          1           0       -0.960246   -0.000217    1.510333
 ---------------------------------------------------------------------
 Rotational constants (GHZ):           3.7123722           2.3493339           1.9627504
 Standard basis: 6-311+G(2d,2p) (5D, 7F)
 There are   212 symmetry adapted cartesian basis functions of A   symmetry.
 There are   198 symmetry adapted basis functions of A   symmetry.
   198 basis functions,   305 primitive gaussians,   212 cartesian basis functions
    29 alpha electrons       29 beta electrons
       nuclear repulsion energy       358.9944551710 Hartrees.
 NAtoms=    8 NActive=    8 NUniq=    8 SFac= 1.00D+00 NAtFMM=   60 NAOKFM=F Big=F
 Integral buffers will be    131072 words long.
 Raffenetti 2 integral format.
 Two-electron integral symmetry is turned on.
 Nuclear repulsion after empirical dispersion term =      358.9923555209 Hartrees.
 One-electron integrals computed using PRISM.
 NBasis=   198 RedAO= T EigKep=  1.20D-04  NBF=   198
 NBsUse=   198 1.00D-06 EigRej= -1.00D+00 NBFU=   198
 Initial guess from the checkpoint file:  "c2f5h.chk"
 B after Tr=    -0.000000    0.000000   -0.000000
         Rot=    1.000000   -0.000802    0.000118    0.000097 Ang=  -0.09 deg.
 Keep R1 ints in memory in canonical form, NReq=413232258.
 Requested convergence on RMS density matrix=1.00D-08 within  32 cycles.
 Requested convergence on MAX density matrix=1.00D-06.
 Requested convergence on             energy=1.00D-06.
 No special actions if energy rises.
 SCF Done:  E(RwB97XD) =  -576.055249106     A.U. after    7 cycles
            NFock=  7  Conv=0.58D-08     -V/T= 2.0025
 QCSCF skips out because SCF is already converged.
 Calling FoFJK, ICntrl=      2127 FMM=F ISym2X=0 I1Cent= 0 IOpClX= 0 NMat=1 NMatS=1 NMatT=0.
 ***** Axes restored to original set *****
 -------------------------------------------------------------------
 Center     Atomic                   Forces (Hartrees/Bohr)
 Number     Number              X              Y              Z
 -------------------------------------------------------------------
      1        6           0.000143358   -0.000016162   -0.000065838
      2        9          -0.000032148    0.000079097   -0.000000291
      3        9           0.000000630   -0.000034053   -0.000011593
      4        9          -0.000000454   -0.000002333    0.000032198
      5        9          -0.000046462   -0.000049371    0.000046582
      6        6           0.000017317    0.000024287   -0.000186975
      7        9          -0.000059048    0.000027128    0.000145855
      8        1          -0.000023193   -0.000028593    0.000040061
 -------------------------------------------------------------------
 Cartesian Forces:  Max     0.000186975 RMS     0.000066410

 GradGradGradGradGradGradGradGradGradGradGradGradGradGradGradGradGradGrad
 Berny optimization.
 Using GEDIIS/GDIIS optimizer.
 FormGI is forming the generalized inverse of G from B-inverse, IUseBI=4.
 Internal  Forces:  Max     0.000156772 RMS     0.000042201
 Search for a local minimum.
 Step number   6 out of a maximum of   38
 All quantities printed in internal units (Hartrees-Bohrs-Radians)
 Mixed Optimization -- En-DIIS/RFO-DIIS
 Swapping is turned off.
 Update second derivatives using D2CorX and points    1    2    3    4    5
                                                      6
 DE= -1.07D-06 DEPred=-7.74D-07 R= 1.38D+00
 TightC=F SS=  1.41D+00  RLast= 8.06D-03 DXNew= 8.4853D-01 2.4171D-02
 Trust test= 1.38D+00 RLast= 8.06D-03 DXMaxT set to 5.05D-01
 ITU=  1  1  1  1  1  0
     Eigenvalues ---    0.00375   0.06327   0.07738   0.08879   0.09139
     Eigenvalues ---    0.16306   0.23374   0.24905   0.25527   0.32721
     Eigenvalues ---    0.33139   0.35883   0.43292   0.50113   0.61726
     Eigenvalues ---    0.62915   0.62930   0.68870
 En-DIIS/RFO-DIIS/Sim-DIIS IScMMF=       -3 using points:     6    5    4
 RFO step:  Lambda=-1.32049668D-06.
 DidBck=F Rises=F RFO-DIIS coefs:    2.42629   -1.20831   -0.21798
 Iteration  1 RMS(Cart)=  0.00232657 RMS(Int)=  0.00000261
 Iteration  2 RMS(Cart)=  0.00000264 RMS(Int)=  0.00000038
 Iteration  3 RMS(Cart)=  0.00000000 RMS(Int)=  0.00000038
 Variable       Old X    -DE/DX   Delta X   Delta X   Delta X     New X
                                 (Linear)    (Quad)   (Total)
    R1        2.53726  -0.00008   0.00097  -0.00072   0.00026   2.53752
    R2        2.53726  -0.00008   0.00097  -0.00072   0.00025   2.53751
    R3        2.95272   0.00004  -0.00178   0.00122  -0.00055   2.95217
    R4        2.05908   0.00004  -0.00019   0.00022   0.00003   2.05911
    R5        2.50517  -0.00002  -0.00103   0.00059  -0.00045   2.50472
    R6        2.50521  -0.00001  -0.00101   0.00059  -0.00043   2.50478
    R7        2.52875   0.00016   0.00143  -0.00063   0.00080   2.52955
    A1        1.89607   0.00001  -0.00106   0.00069  -0.00037   1.89570
    A2        1.91506  -0.00000   0.00105  -0.00066   0.00039   1.91545
    A3        1.90858   0.00002  -0.00046   0.00048   0.00002   1.90859
    A4        1.91478  -0.00002   0.00094  -0.00068   0.00027   1.91505
    A5        1.90835   0.00002  -0.00057   0.00048  -0.00008   1.90826
    A6        1.92079  -0.00004   0.00007  -0.00029  -0.00023   1.92056
    A7        1.94686   0.00002   0.00082  -0.00036   0.00046   1.94732
    A8        1.94652   0.00000   0.00067  -0.00036   0.00030   1.94682
    A9        1.89731  -0.00004  -0.00157   0.00084  -0.00073   1.89657
   A10        1.89603  -0.00001   0.00055  -0.00038   0.00017   1.89620
   A11        1.88768   0.00001  -0.00026   0.00014  -0.00011   1.88757
   A12        1.88765   0.00001  -0.00027   0.00015  -0.00012   1.88753
    D1       -2.09287   0.00002   0.00324   0.00075   0.00400  -2.08887
    D2        0.03071   0.00003   0.00500  -0.00025   0.00476   0.03546
    D3        2.11039   0.00002   0.00407   0.00025   0.00432   2.11471
    D4       -0.01107   0.00002   0.00317   0.00078   0.00395  -0.00712
    D5        2.11251   0.00003   0.00493  -0.00022   0.00471   2.11721
    D6       -2.09100   0.00002   0.00399   0.00028   0.00427  -2.08672
    D7        2.08940   0.00001   0.00311   0.00076   0.00387   2.09327
    D8       -2.07022   0.00002   0.00487  -0.00024   0.00463  -2.06559
    D9        0.00947   0.00002   0.00393   0.00026   0.00419   0.01366
         Item               Value     Threshold  Converged?
 Maximum Force            0.000157     0.000450     YES
 RMS     Force            0.000042     0.000300     YES
 Maximum Displacement     0.004899     0.001800     NO 
 RMS     Displacement     0.002327     0.001200     NO 
 Predicted change in Energy=-5.884676D-07
 GradGradGradGradGradGradGradGradGradGradGradGradGradGradGradGradGradGrad

                          Input orientation:                          
 ---------------------------------------------------------------------
 Center     Atomic      Atomic             Coordinates (Angstroms)
 Number     Number       Type             X           Y           Z
 ---------------------------------------------------------------------
      1          6           0        0.985804   -0.000481    0.344038
      2          9           0        1.541404   -1.087511   -0.215224
      3          9           0       -0.931418    1.071467   -0.602121
      4          9           0       -0.934510   -1.081817   -0.584039
      5          9           0        1.539467    1.093592   -0.203276
      6          6           0       -0.554063   -0.000041    0.080719
      7          9           0       -1.190087    0.010736    1.258494
      8          1           0        1.181311   -0.005969    1.415976
 ---------------------------------------------------------------------
                    Distance matrix (angstroms):
                    1          2          3          4          5
     1  C    0.000000
     2  F    1.342796   0.000000
     3  F    2.391659   3.305409   0.000000
     4  F    2.391280   2.503240   2.153362   0.000000
     5  F    1.342793   2.181137   2.502966   3.316316   0.000000
     6  C    1.562219   2.379319   1.325442   1.325474   2.378982
     7  F    2.360266   3.292269   2.157301   2.157294   3.280215
     8  H    1.089634   1.990028   3.114034   3.103902   1.989796
                    6          7          8
     6  C    0.000000
     7  F    1.338580   0.000000
     8  H    2.189628   2.376680   0.000000
 Stoichiometry    C2HF5
 Framework group  C1[X(C2HF5)]
 Deg. of freedom    18
 Full point group                 C1      NOp   1
 Largest Abelian subgroup         C1      NOp   1
 Largest concise Abelian subgroup C1      NOp   1
                         Standard orientation:                         
 ---------------------------------------------------------------------
 Center     Atomic      Atomic             Coordinates (Angstroms)
 Number     Number       Type             X           Y           Z
 ---------------------------------------------------------------------
      1          6           0       -0.877384    0.000017    0.423604
      2          9           0       -1.487252    1.090440   -0.068472
      3          9           0        0.929009   -1.067747   -0.723940
      4          9           0        0.936427    1.085402   -0.694543
      5          9           0       -1.486555   -1.090697   -0.068682
      6          6           0        0.626446    0.000172    0.000490
      7          9           0        1.382283   -0.017486    1.105115
      8          1           0       -0.959570   -0.000324    1.510134
 ---------------------------------------------------------------------
 Rotational constants (GHZ):           3.7124049           2.3489830           1.9626918
 Standard basis: 6-311+G(2d,2p) (5D, 7F)
 There are   212 symmetry adapted cartesian basis functions of A   symmetry.
 There are   198 symmetry adapted basis functions of A   symmetry.
   198 basis functions,   305 primitive gaussians,   212 cartesian basis functions
    29 alpha electrons       29 beta electrons
       nuclear repulsion energy       358.9889347977 Hartrees.
 NAtoms=    8 NActive=    8 NUniq=    8 SFac= 1.00D+00 NAtFMM=   60 NAOKFM=F Big=F
 Integral buffers will be    131072 words long.
 Raffenetti 2 integral format.
 Two-electron integral symmetry is turned on.
 Nuclear repulsion after empirical dispersion term =      358.9868352213 Hartrees.
 One-electron integrals computed using PRISM.
 NBasis=   198 RedAO= T EigKep=  1.20D-04  NBF=   198
 NBsUse=   198 1.00D-06 EigRej= -1.00D+00 NBFU=   198
 Initial guess from the checkpoint file:  "c2f5h.chk"
 B after Tr=     0.000000   -0.000000   -0.000000
         Rot=    0.999999   -0.001342    0.000072    0.000162 Ang=  -0.16 deg.
 Keep R1 ints in memory in canonical form, NReq=413232258.
 Requested convergence on RMS density matrix=1.00D-08 within  32 cycles.
 Requested convergence on MAX density matrix=1.00D-06.
 Requested convergence on             energy=1.00D-06.
 No special actions if energy rises.
 SCF Done:  E(RwB97XD) =  -576.055249921     A.U. after    7 cycles
            NFock=  7  Conv=0.67D-08     -V/T= 2.0025
 QCSCF skips out because SCF is already converged.
 Calling FoFJK, ICntrl=      2127 FMM=F ISym2X=0 I1Cent= 0 IOpClX= 0 NMat=1 NMatS=1 NMatT=0.
 ***** Axes restored to original set *****
 -------------------------------------------------------------------
 Center     Atomic                   Forces (Hartrees/Bohr)
 Number     Number              X              Y              Z
 -------------------------------------------------------------------
      1        6           0.000423131   -0.000023027   -0.000126521
      2        9          -0.000124556    0.000128164    0.000029179
      3        9          -0.000007051    0.000074711   -0.000106027
      4        9          -0.000009359   -0.000128123   -0.000040462
      5        9          -0.000145239   -0.000086121    0.000096239
      6        6          -0.000121241    0.000038436    0.000172411
      7        9          -0.000002449    0.000037245   -0.000043970
      8        1          -0.000013235   -0.000041286    0.000019151
 -------------------------------------------------------------------
 Cartesian Forces:  Max     0.000423131 RMS     0.000121214

 GradGradGradGradGradGradGradGradGradGradGradGradGradGradGradGradGradGrad
 Berny optimization.
 Using GEDIIS/GDIIS optimizer.
 FormGI is forming the generalized inverse of G from B-inverse, IUseBI=4.
 Internal  Forces:  Max     0.000169124 RMS     0.000076564
 Search for a local minimum.
 Step number   7 out of a maximum of   38
 All quantities printed in internal units (Hartrees-Bohrs-Radians)
 Mixed Optimization -- En-DIIS/RFO-DIIS
 Swapping is turned off.
 Update second derivatives using D2CorX and points    1    2    3    4    5
                                                      6    7
 DE= -8.15D-07 DEPred=-5.88D-07 R= 1.39D+00
 Trust test= 1.39D+00 RLast= 1.30D-02 DXMaxT set to 5.05D-01
 ITU=  0  1  1  1  1  1  0
     Eigenvalues ---    0.00071   0.06324   0.07809   0.09131   0.09378
     Eigenvalues ---    0.15808   0.23376   0.24943   0.26186   0.33013
     Eigenvalues ---    0.35227   0.39218   0.45452   0.58879   0.62887
     Eigenvalues ---    0.62929   0.64212   1.06041
 En-DIIS/RFO-DIIS/Sim-DIIS IScMMF=       -3 using points:     7    6    5    4
 RFO step:  Lambda=-5.58532220D-06.
 DIIS inversion failure, remove point   4.
 DIIS inversion failure, remove point   3.
 RFO-DIIS uses    2 points instead of    4
 DidBck=F Rises=F RFO-DIIS coefs:    3.00000   -2.00000    0.00000    0.00000
 Iteration  1 RMS(Cart)=  0.01548461 RMS(Int)=  0.00011196
 Iteration  2 RMS(Cart)=  0.00011544 RMS(Int)=  0.00000179
 Iteration  3 RMS(Cart)=  0.00000001 RMS(Int)=  0.00000179
 Variable       Old X    -DE/DX   Delta X   Delta X   Delta X     New X
                                 (Linear)    (Quad)   (Total)
    R1        2.53752  -0.00017   0.00051   0.00055   0.00106   2.53858
    R2        2.53751  -0.00017   0.00051   0.00054   0.00105   2.53856
    R3        2.95217   0.00014  -0.00111  -0.00156  -0.00267   2.94950
    R4        2.05911   0.00002   0.00006   0.00018   0.00024   2.05935
    R5        2.50472   0.00012  -0.00089  -0.00133  -0.00223   2.50250
    R6        2.50478   0.00013  -0.00085  -0.00124  -0.00209   2.50269
    R7        2.52955  -0.00004   0.00160   0.00243   0.00402   2.53357
    A1        1.89570   0.00010  -0.00074  -0.00080  -0.00155   1.89415
    A2        1.91545  -0.00009   0.00079   0.00113   0.00192   1.91737
    A3        1.90859   0.00005   0.00003   0.00037   0.00041   1.90900
    A4        1.91505  -0.00011   0.00054   0.00055   0.00108   1.91613
    A5        1.90826   0.00005  -0.00017  -0.00010  -0.00027   1.90799
    A6        1.92056   0.00001  -0.00045  -0.00114  -0.00159   1.91897
    A7        1.94732  -0.00003   0.00092   0.00145   0.00237   1.94970
    A8        1.94682  -0.00006   0.00060   0.00070   0.00130   1.94812
    A9        1.89657   0.00006  -0.00146  -0.00226  -0.00372   1.89285
   A10        1.89620   0.00003   0.00034   0.00057   0.00091   1.89711
   A11        1.88757   0.00000  -0.00022  -0.00025  -0.00047   1.88711
   A12        1.88753   0.00001  -0.00025  -0.00030  -0.00055   1.88698
    D1       -2.08887   0.00005   0.00799   0.01932   0.02731  -2.06156
    D2        0.03546   0.00002   0.00952   0.02159   0.03110   0.06657
    D3        2.11471   0.00003   0.00864   0.02019   0.02884   2.14355
    D4       -0.00712   0.00005   0.00789   0.01936   0.02725   0.02013
    D5        2.11721   0.00002   0.00942   0.02163   0.03104   2.14826
    D6       -2.08672   0.00003   0.00854   0.02024   0.02878  -2.05794
    D7        2.09327   0.00004   0.00774   0.01886   0.02660   2.11987
    D8       -2.06559   0.00001   0.00926   0.02113   0.03039  -2.03520
    D9        0.01366   0.00002   0.00839   0.01974   0.02813   0.04179
         Item               Value     Threshold  Converged?
 Maximum Force            0.000169     0.000450     YES
 RMS     Force            0.000077     0.000300     YES
 Maximum Displacement     0.032884     0.001800     NO 
 RMS     Displacement     0.015486     0.001200     NO 
 Predicted change in Energy=-2.813572D-06
 GradGradGradGradGradGradGradGradGradGradGradGradGradGradGradGradGradGrad

                          Input orientation:                          
 ---------------------------------------------------------------------
 Center     Atomic      Atomic             Coordinates (Angstroms)
 Number     Number       Type             X           Y           Z
 ---------------------------------------------------------------------
      1          6           0        0.984813   -0.001677    0.343326
      2          9           0        1.545573   -1.078715   -0.231257
      3          9           0       -0.929833    1.062404   -0.616235
      4          9           0       -0.938179   -1.089272   -0.569077
      5          9           0        1.538470    1.101644   -0.186514
      6          6           0       -0.553404   -0.000132    0.078743
      7          9           0       -1.187133    0.028138    1.259883
      8          1           0        1.177600   -0.022414    1.415699
 ---------------------------------------------------------------------
                    Distance matrix (angstroms):
                    1          2          3          4          5
     1  C    0.000000
     2  F    1.343358   0.000000
     3  F    2.391421   3.295487   0.000000
     4  F    2.390239   2.506643   2.152209   0.000000
     5  F    1.343348   2.180830   2.505737   3.328702   0.000000
     6  C    1.560807   2.380157   1.324264   1.324367   2.379119
     7  F    2.357607   3.303983   2.157714   2.157701   3.267015
     8  H    1.089761   1.990889   3.121996   3.090961   1.990181
                    6          7          8
     6  C    0.000000
     7  F    1.340709   0.000000
     8  H    2.187309   2.370399   0.000000
 Stoichiometry    C2HF5
 Framework group  C1[X(C2HF5)]
 Deg. of freedom    18
 Full point group                 C1      NOp   1
 Largest Abelian subgroup         C1      NOp   1
 Largest concise Abelian subgroup C1      NOp   1
                         Standard orientation:                         
 ---------------------------------------------------------------------
 Center     Atomic      Atomic             Coordinates (Angstroms)
 Number     Number       Type             X           Y           Z
 ---------------------------------------------------------------------
      1          6           0       -0.876079    0.000027    0.422351
      2          9           0       -1.489057    1.090013   -0.068360
      3          9           0        0.923307   -1.048049   -0.753508
      4          9           0        0.945891    1.102156   -0.663456
      5          9           0       -1.486809   -1.090816   -0.069233
      6          6           0        0.626100    0.000619   -0.001417
      7          9           0        1.379519   -0.053609    1.106247
      8          1           0       -0.955791   -0.001131    1.509192
 ---------------------------------------------------------------------
 Rotational constants (GHZ):           3.7123523           2.3475593           1.9626185
 Standard basis: 6-311+G(2d,2p) (5D, 7F)
 There are   212 symmetry adapted cartesian basis functions of A   symmetry.
 There are   198 symmetry adapted basis functions of A   symmetry.
   198 basis functions,   305 primitive gaussians,   212 cartesian basis functions
    29 alpha electrons       29 beta electrons
       nuclear repulsion energy       358.9695081182 Hartrees.
 NAtoms=    8 NActive=    8 NUniq=    8 SFac= 1.00D+00 NAtFMM=   60 NAOKFM=F Big=F
 Integral buffers will be    131072 words long.
 Raffenetti 2 integral format.
 Two-electron integral symmetry is turned on.
 Nuclear repulsion after empirical dispersion term =      358.9674086418 Hartrees.
 One-electron integrals computed using PRISM.
 NBasis=   198 RedAO= T EigKep=  1.20D-04  NBF=   198
 NBsUse=   198 1.00D-06 EigRej= -1.00D+00 NBFU=   198
 Initial guess from the checkpoint file:  "c2f5h.chk"
 B after Tr=     0.000000   -0.000000    0.000000
         Rot=    0.999959   -0.009028    0.000357    0.001084 Ang=  -1.04 deg.
 ExpMin= 4.38D-02 ExpMax= 1.14D+04 ExpMxC= 1.72D+03 IAcc=3 IRadAn=         5 AccDes= 0.00D+00
 Harris functional with IExCor= 4639 and IRadAn=       5 diagonalized for initial guess.
 HarFok:  IExCor= 4639 AccDes= 0.00D+00 IRadAn=         5 IDoV= 1 UseB2=F ITyADJ=14
 ICtDFT=  3500011 ScaDFX=  1.000000  1.000000  1.000000  1.000000
 FoFCou: FMM=F IPFlag=           0 FMFlag=      100000 FMFlg1=           0
         NFxFlg=           0 DoJE=T BraDBF=F KetDBF=T FulRan=T
         wScrn=  0.000000 ICntrl=       500 IOpCl=  0 I1Cent=   200000004 NGrid=           0
         NMat0=    1 NMatS0=      1 NMatT0=    0 NMatD0=    1 NMtDS0=    0 NMtDT0=    0
 Petite list used in FoFCou.
 Keep R1 ints in memory in canonical form, NReq=413232258.
 Requested convergence on RMS density matrix=1.00D-08 within  32 cycles.
 Requested convergence on MAX density matrix=1.00D-06.
 Requested convergence on             energy=1.00D-06.
 No special actions if energy rises.
 SCF Done:  E(RwB97XD) =  -576.055256116     A.U. after    9 cycles
            NFock=  9  Conv=0.45D-08     -V/T= 2.0025
 QCSCF skips out because SCF is already converged.
 Calling FoFJK, ICntrl=      2127 FMM=F ISym2X=0 I1Cent= 0 IOpClX= 0 NMat=1 NMatS=1 NMatT=0.
 ***** Axes restored to original set *****
 -------------------------------------------------------------------
 Center     Atomic                   Forces (Hartrees/Bohr)
 Number     Number              X              Y              Z
 -------------------------------------------------------------------
      1        6           0.001610426   -0.000072399   -0.000323516
      2        9          -0.000505960    0.000339282    0.000130599
      3        9          -0.000066981    0.000590376   -0.000595846
      4        9          -0.000075017   -0.000768083   -0.000368921
      5        9          -0.000572361   -0.000226935    0.000328642
      6        6          -0.000739167    0.000170496    0.001966245
      7        9           0.000260749    0.000091723   -0.001013780
      8        1           0.000088312   -0.000124459   -0.000123423
 -------------------------------------------------------------------
 Cartesian Forces:  Max     0.001966245 RMS     0.000664662

 GradGradGradGradGradGradGradGradGradGradGradGradGradGradGradGradGradGrad
 Berny optimization.
 Using GEDIIS/GDIIS optimizer.
 FormGI is forming the generalized inverse of G from B-inverse, IUseBI=4.
 Internal  Forces:  Max     0.001014289 RMS     0.000424797
 Search for a local minimum.
 Step number   8 out of a maximum of   38
 All quantities printed in internal units (Hartrees-Bohrs-Radians)
 Mixed Optimization -- En-DIIS/RFO-DIIS
 Swapping is turned off.
 Update second derivatives using D2CorX and points    1    2    3    4    5
                                                      6    7    8
 DE= -6.20D-06 DEPred=-2.81D-06 R= 2.20D+00
 TightC=F SS=  1.41D+00  RLast= 8.70D-02 DXNew= 8.4853D-01 2.6101D-01
 Trust test= 2.20D+00 RLast= 8.70D-02 DXMaxT set to 5.05D-01
 ITU=  1  0  1  1  1  1  1  0
     Eigenvalues ---   -2.33799   0.00005   0.06325   0.07745   0.09164
     Eigenvalues ---    0.09729   0.15688   0.23380   0.24942   0.26262
     Eigenvalues ---    0.33158   0.35279   0.39353   0.46318   0.58325
     Eigenvalues ---    0.62904   0.62929   0.65374
 Eigenvalue     2 is   4.78D-05 Eigenvector:
                          D2        D5        D8        D3        D6
   1                   -0.35954  -0.35795  -0.35095  -0.33155  -0.32997
                          D9        D1        D4        D7        R7
   1                   -0.32296  -0.31195  -0.31036  -0.30336  -0.04973
 Use linear search instead of GDIIS.
 RFO step:  Lambda=-2.33799370D+00 EMin=-2.33799156D+00
 I=     1 Eig=   -2.34D+00 Dot1= -1.34D-03
 I=     1 Stepn= -6.00D-01 RXN=   6.00D-01 EDone=F
 Mixed    1 eigenvectors in step.  Raw Step.Grad=  1.34D-03.
 RFO eigenvector is Hessian eigenvector with negative curvature.
 Taking step of  6.00D-01 in eigenvector direction(s).  Step.Grad= -3.00D-04.
 Skip linear search -- no minimum in search direction.
 Maximum step size (   0.505) exceeded in Quadratic search.
    -- Step size not scaled.
 Iteration  1 RMS(Cart)=  0.13809756 RMS(Int)=  0.02631965
 Iteration  2 RMS(Cart)=  0.02384437 RMS(Int)=  0.00393189
 Iteration  3 RMS(Cart)=  0.00024056 RMS(Int)=  0.00392774
 Iteration  4 RMS(Cart)=  0.00000124 RMS(Int)=  0.00392774
 Iteration  5 RMS(Cart)=  0.00000002 RMS(Int)=  0.00392774
 Variable       Old X    -DE/DX   Delta X   Delta X   Delta X     New X
                                 (Linear)    (Quad)   (Total)
    R1        2.53858  -0.00054   0.00000  -0.12427  -0.12427   2.41430
    R2        2.53856  -0.00055   0.00000  -0.12696  -0.12696   2.41160
    R3        2.94950   0.00061   0.00000   0.16899   0.16899   3.11849
    R4        2.05935  -0.00010   0.00000  -0.03246  -0.03246   2.02689
    R5        2.50250   0.00081   0.00000   0.20531   0.20531   2.70781
    R6        2.50269   0.00083   0.00000   0.20996   0.20996   2.71265
    R7        2.53357  -0.00101   0.00000  -0.29596  -0.29596   2.23762
    A1        1.89415   0.00051   0.00000   0.13305   0.12154   2.01569
    A2        1.91737  -0.00048   0.00000  -0.12678  -0.12897   1.78840
    A3        1.90900   0.00010   0.00000   0.01962   0.02257   1.93157
    A4        1.91613  -0.00056   0.00000  -0.14171  -0.14384   1.77229
    A5        1.90799   0.00011   0.00000   0.02041   0.02369   1.93168
    A6        1.91897   0.00033   0.00000   0.09670   0.09935   2.01832
    A7        1.94970  -0.00028   0.00000  -0.07875  -0.08077   1.86892
    A8        1.94812  -0.00038   0.00000  -0.09880  -0.10000   1.84812
    A9        1.89285   0.00058   0.00000   0.17520   0.17810   2.07095
   A10        1.89711   0.00018   0.00000   0.04173   0.03384   1.93095
   A11        1.88711  -0.00006   0.00000  -0.02036  -0.01825   1.86885
   A12        1.88698  -0.00003   0.00000  -0.01537  -0.01174   1.87524
    D1       -2.06156   0.00023   0.00000   0.06063   0.05349  -2.00807
    D2        0.06657  -0.00001   0.00000  -0.01251  -0.01364   0.05293
    D3        2.14355   0.00010   0.00000   0.02095   0.01623   2.15978
    D4        0.02013   0.00022   0.00000   0.05883   0.06045   0.08059
    D5        2.14826  -0.00002   0.00000  -0.01430  -0.00668   2.14158
    D6       -2.05794   0.00008   0.00000   0.01915   0.02319  -2.03475
    D7        2.11987   0.00020   0.00000   0.05549   0.05258   2.17245
    D8       -2.03520  -0.00003   0.00000  -0.01765  -0.01455  -2.04974
    D9        0.04179   0.00007   0.00000   0.01581   0.01532   0.05711
         Item               Value     Threshold  Converged?
 Maximum Force            0.001014     0.000450     NO 
 RMS     Force            0.000425     0.000300     NO 
 Maximum Displacement     0.395504     0.001800     NO 
 RMS     Displacement     0.139606     0.001200     NO 
 Predicted change in Energy=-4.203036D-01
 GradGradGradGradGradGradGradGradGradGradGradGradGradGradGradGradGradGrad

                          Input orientation:                          
 ---------------------------------------------------------------------
 Center     Atomic      Atomic             Coordinates (Angstroms)
 Number     Number       Type             X           Y           Z
 ---------------------------------------------------------------------
      1          6           0        1.058751   -0.005945    0.387685
      2          9           0        1.413651   -1.065106   -0.232375
      3          9           0       -0.882761    1.161243   -0.629090
      4          9           0       -0.883932   -1.196337   -0.555676
      5          9           0        1.401066    1.093405   -0.162629
      6          6           0       -0.576097    0.007389    0.163252
      7          9           0       -1.279664    0.042152    1.115023
      8          1           0        1.386891   -0.036826    1.408377
 ---------------------------------------------------------------------
                    Distance matrix (angstroms):
                    1          2          3          4          5
     1  C    0.000000
     2  F    1.277595   0.000000
     3  F    2.483068   3.222968   0.000000
     4  F    2.465964   2.323926   2.358723   0.000000
     5  F    1.276165   2.159674   2.331963   3.258622   0.000000
     6  C    1.650235   2.294747   1.432909   1.435471   2.279211
     7  F    2.449391   3.208652   2.109936   2.117001   3.150213
     8  H    1.072586   1.936528   3.276883   3.218478   1.935377
                    6          7          8
     6  C    0.000000
     7  F    1.184096   0.000000
     8  H    2.324997   2.683805   0.000000
 Stoichiometry    C2HF5
 Framework group  C1[X(C2HF5)]
 Deg. of freedom    18
 Full point group                 C1      NOp   1
 Largest Abelian subgroup         C1      NOp   1
 Largest concise Abelian subgroup C1      NOp   1
                         Standard orientation:                         
 ---------------------------------------------------------------------
 Center     Atomic      Atomic             Coordinates (Angstroms)
 Number     Number       Type             X           Y           Z
 ---------------------------------------------------------------------
      1          6           0       -0.985140   -0.000143    0.463725
      2          9           0       -1.395508    1.066371   -0.107583
      3          9           0        0.867842   -1.141614   -0.731738
      4          9           0        0.865875    1.214564   -0.622188
      5          9           0       -1.368493   -1.092850   -0.072586
      6          6           0        0.624849   -0.001481    0.101496
      7          9           0        1.406671   -0.046900    0.989626
      8          1           0       -1.225726    0.013600    1.508891
 ---------------------------------------------------------------------
 Rotational constants (GHZ):           3.6491433           2.5528742           1.9919028
 Standard basis: 6-311+G(2d,2p) (5D, 7F)
 There are   212 symmetry adapted cartesian basis functions of A   symmetry.
 There are   198 symmetry adapted basis functions of A   symmetry.
   198 basis functions,   305 primitive gaussians,   212 cartesian basis functions
    29 alpha electrons       29 beta electrons
       nuclear repulsion energy       362.8158703843 Hartrees.
 NAtoms=    8 NActive=    8 NUniq=    8 SFac= 1.00D+00 NAtFMM=   60 NAOKFM=F Big=F
 Integral buffers will be    131072 words long.
 Raffenetti 2 integral format.
 Two-electron integral symmetry is turned on.
 Nuclear repulsion after empirical dispersion term =      362.8137572052 Hartrees.
 One-electron integrals computed using PRISM.
 NBasis=   198 RedAO= T EigKep=  1.62D-04  NBF=   198
 NBsUse=   198 1.00D-06 EigRej= -1.00D+00 NBFU=   198
 Initial guess from the checkpoint file:  "c2f5h.chk"
 B after Tr=    -0.000000   -0.000000   -0.000000
         Rot=    0.999986    0.001196   -0.002428   -0.004568 Ang=   0.61 deg.
 ExpMin= 4.38D-02 ExpMax= 1.14D+04 ExpMxC= 1.72D+03 IAcc=3 IRadAn=         5 AccDes= 0.00D+00
 Harris functional with IExCor= 4639 and IRadAn=       5 diagonalized for initial guess.
 HarFok:  IExCor= 4639 AccDes= 0.00D+00 IRadAn=         5 IDoV= 1 UseB2=F ITyADJ=14
 ICtDFT=  3500011 ScaDFX=  1.000000  1.000000  1.000000  1.000000
 FoFCou: FMM=F IPFlag=           0 FMFlag=      100000 FMFlg1=           0
         NFxFlg=           0 DoJE=T BraDBF=F KetDBF=T FulRan=T
         wScrn=  0.000000 ICntrl=       500 IOpCl=  0 I1Cent=   200000004 NGrid=           0
         NMat0=    1 NMatS0=      1 NMatT0=    0 NMatD0=    1 NMtDS0=    0 NMtDT0=    0
 Petite list used in FoFCou.
 Keep R1 ints in memory in canonical form, NReq=413232258.
 Requested convergence on RMS density matrix=1.00D-08 within  32 cycles.
 Requested convergence on MAX density matrix=1.00D-06.
 Requested convergence on             energy=1.00D-06.
 No special actions if energy rises.
 SCF Done:  E(RwB97XD) =  -576.003926969     A.U. after   13 cycles
            NFock= 13  Conv=0.23D-08     -V/T= 2.0018
 QCSCF skips out because SCF is already converged.
 Calling FoFJK, ICntrl=      2127 FMM=F ISym2X=0 I1Cent= 0 IOpClX= 0 NMat=1 NMatS=1 NMatT=0.
 ***** Axes restored to original set *****
 -------------------------------------------------------------------
 Center     Atomic                   Forces (Hartrees/Bohr)
 Number     Number              X              Y              Z
 -------------------------------------------------------------------
      1        6          -0.092974964   -0.000921329    0.025413986
      2        9           0.043980572   -0.041500286   -0.029869530
      3        9           0.005322838   -0.047626375    0.016334747
      4        9           0.002328353    0.048258669    0.014046981
      5        9           0.046446230    0.047282266   -0.028042733
      6        6           0.083098109   -0.009010805   -0.142698713
      7        9          -0.087120113    0.004191847    0.129443031
      8        1          -0.001081026   -0.000673987    0.015372231
 -------------------------------------------------------------------
 Cartesian Forces:  Max     0.142698713 RMS     0.056297006

 GradGradGradGradGradGradGradGradGradGradGradGradGradGradGradGradGradGrad
 Berny optimization.
 Using GEDIIS/GDIIS optimizer.
 FormGI is forming the generalized inverse of G from B-inverse, IUseBI=4.
 Internal  Forces:  Max     0.155933852 RMS     0.040222868
 Search for a local minimum.
 Step number   9 out of a maximum of   38
 All quantities printed in internal units (Hartrees-Bohrs-Radians)
 Mixed Optimization -- RFO/linear search
 Update second derivatives using D2CorX and points    1    2    3    4    5
                                                      6    7    9    8
 ITU=  0  1  0  1  1  1  1  1  0
 Use linear search instead of GDIIS.
     Eigenvalues ---    0.00001   0.06306   0.07853   0.09385   0.10133
     Eigenvalues ---    0.15389   0.21700   0.23163   0.24951   0.29162
     Eigenvalues ---    0.33725   0.35344   0.41182   0.54222   0.59301
     Eigenvalues ---    0.62908   0.62934   0.72941
 RFO step:  Lambda=-2.82293855D-04 EMin= 1.45954202D-05
 Quartic linear search produced a step of -0.98602.
 Iteration  1 RMS(Cart)=  0.17202410 RMS(Int)=  0.06576942
 Iteration  2 RMS(Cart)=  0.06037024 RMS(Int)=  0.00223293
 Iteration  3 RMS(Cart)=  0.00195787 RMS(Int)=  0.00073353
 Iteration  4 RMS(Cart)=  0.00000228 RMS(Int)=  0.00073353
 Iteration  5 RMS(Cart)=  0.00000000 RMS(Int)=  0.00073353
 Variable       Old X    -DE/DX   Delta X   Delta X   Delta X     New X
                                 (Linear)    (Quad)   (Total)
    R1        2.41430   0.06112   0.12254  -0.00741   0.11512   2.52943
    R2        2.41160   0.06528   0.12518  -0.00789   0.11729   2.52890
    R3        3.11849  -0.00596  -0.16663  -0.00574  -0.17237   2.94612
    R4        2.02689   0.01432   0.03200   0.00102   0.03302   2.05991
    R5        2.70781  -0.04852  -0.20244   0.00386  -0.19857   2.50923
    R6        2.71265  -0.04800  -0.20702   0.00604  -0.20098   2.51167
    R7        2.23762   0.15593   0.29182   0.00680   0.29862   2.53624
    A1        2.01569  -0.03320  -0.11984  -0.00119  -0.12070   1.89499
    A2        1.78840   0.04646   0.12717   0.00509   0.13272   1.92112
    A3        1.93157  -0.01507  -0.02226   0.01083  -0.01083   1.92074
    A4        1.77229   0.05037   0.14183  -0.00640   0.13579   1.90808
    A5        1.93168  -0.01650  -0.02336   0.00333  -0.01962   1.91205
    A6        2.01832  -0.02511  -0.09796  -0.01410  -0.11156   1.90676
    A7        1.86892   0.01149   0.07964   0.01625   0.09499   1.96392
    A8        1.84812   0.01750   0.09860   0.00155   0.09862   1.94674
    A9        2.07095  -0.01388  -0.17561  -0.02081  -0.19605   1.87490
   A10        1.93095  -0.02006  -0.03337   0.01548  -0.02031   1.91064
   A11        1.86885   0.00307   0.01800  -0.00500   0.01399   1.88285
   A12        1.87524  -0.00013   0.01158  -0.00497   0.00631   1.88155
    D1       -2.00807   0.00464  -0.05274   0.31303   0.25933  -1.74874
    D2        0.05293  -0.00416   0.01345   0.33957   0.35348   0.40641
    D3        2.15978   0.00065  -0.01600   0.32064   0.30493   2.46470
    D4        0.08059   0.00404  -0.05961   0.31120   0.25073   0.33132
    D5        2.14158  -0.00476   0.00658   0.33774   0.34488   2.48646
    D6       -2.03475   0.00005  -0.02287   0.31882   0.29633  -1.73843
    D7        2.17245   0.00484  -0.05185   0.30377   0.25109   2.42354
    D8       -2.04974  -0.00396   0.01434   0.33031   0.34524  -1.70450
    D9        0.05711   0.00085  -0.01511   0.31139   0.29669   0.35379
         Item               Value     Threshold  Converged?
 Maximum Force            0.155934     0.000450     NO 
 RMS     Force            0.040223     0.000300     NO 
 Maximum Displacement     0.418948     0.001800     NO 
 RMS     Displacement     0.214339     0.001200     NO 
 Predicted change in Energy=-2.753992D-03
 GradGradGradGradGradGradGradGradGradGradGradGradGradGradGradGradGradGrad

                          Input orientation:                          
 ---------------------------------------------------------------------
 Center     Atomic      Atomic             Coordinates (Angstroms)
 Number     Number       Type             X           Y           Z
 ---------------------------------------------------------------------
      1          6           0        0.986701   -0.012249    0.339477
      2          9           0        1.578105   -0.956733   -0.402017
      3          9           0       -0.913899    0.960139   -0.765900
      4          9           0       -0.968906   -1.176520   -0.394511
      5          9           0        1.501056    1.176916    0.004522
      6          6           0       -0.548927   -0.004383    0.070533
      7          9           0       -1.161416    0.214654    1.244485
      8          1           0        1.165193   -0.201848    1.397977
 ---------------------------------------------------------------------
                    Distance matrix (angstroms):
                    1          2          3          4          5
     1  C    0.000000
     2  F    1.338515   0.000000
     3  F    2.404096   3.164948   0.000000
     4  F    2.391373   2.556488   2.169394   0.000000
     5  F    1.338235   2.173401   2.544121   3.434910   0.000000
     6  C    1.559021   2.377928   1.327828   1.329118   2.366909
     7  F    2.341992   3.404128   2.158393   2.158410   3.090666
     8  H    1.090059   1.995075   3.217950   2.952521   1.988847
                    6          7          8
     6  C    0.000000
     7  F    1.342118   0.000000
     8  H    2.176995   2.368574   0.000000
 Stoichiometry    C2HF5
 Framework group  C1[X(C2HF5)]
 Deg. of freedom    18
 Full point group                 C1      NOp   1
 Largest Abelian subgroup         C1      NOp   1
 Largest concise Abelian subgroup C1      NOp   1
                         Standard orientation:                         
 ---------------------------------------------------------------------
 Center     Atomic      Atomic             Coordinates (Angstroms)
 Number     Number       Type             X           Y           Z
 ---------------------------------------------------------------------
      1          6           0       -0.877388    0.005325    0.417299
      2          9           0       -1.495839    1.084353   -0.077514
      3          9           0        0.861087   -0.797950   -1.036018
      4          9           0        1.046966    1.232828   -0.295977
      5          9           0       -1.474314   -1.088927   -0.069695
      6          6           0        0.622760    0.006800   -0.007084
      7          9           0        1.336635   -0.438726    1.038463
      8          1           0       -0.943050    0.003054    1.505376
 ---------------------------------------------------------------------
 Rotational constants (GHZ):           3.7007500           2.3557740           1.9667757
 Standard basis: 6-311+G(2d,2p) (5D, 7F)
 There are   212 symmetry adapted cartesian basis functions of A   symmetry.
 There are   198 symmetry adapted basis functions of A   symmetry.
   198 basis functions,   305 primitive gaussians,   212 cartesian basis functions
    29 alpha electrons       29 beta electrons
       nuclear repulsion energy       358.9110629545 Hartrees.
 NAtoms=    8 NActive=    8 NUniq=    8 SFac= 1.00D+00 NAtFMM=   60 NAOKFM=F Big=F
 Integral buffers will be    131072 words long.
 Raffenetti 2 integral format.
 Two-electron integral symmetry is turned on.
 Nuclear repulsion after empirical dispersion term =      358.9089324127 Hartrees.
 One-electron integrals computed using PRISM.
 NBasis=   198 RedAO= T EigKep=  1.33D-04  NBF=   198
 NBsUse=   198 1.00D-06 EigRej= -1.00D+00 NBFU=   198
 Lowest energy guess from the checkpoint file:  "c2f5h.chk"
 B after Tr=    -0.000000    0.000000   -0.000000
         Rot=    0.995215   -0.096876    0.003295    0.012297 Ang= -11.21 deg.
 B after Tr=     0.000000    0.000000    0.000000
         Rot=    0.994977   -0.098173    0.004944    0.018930 Ang= -11.49 deg.
 Keep R1 ints in memory in canonical form, NReq=413232258.
 Requested convergence on RMS density matrix=1.00D-08 within  32 cycles.
 Requested convergence on MAX density matrix=1.00D-06.
 Requested convergence on             energy=1.00D-06.
 No special actions if energy rises.
 SCF Done:  E(RwB97XD) =  -576.056247013     A.U. after   11 cycles
            NFock= 11  Conv=0.54D-08     -V/T= 2.0025
 QCSCF skips out because SCF is already converged.
 Calling FoFJK, ICntrl=      2127 FMM=F ISym2X=0 I1Cent= 0 IOpClX= 0 NMat=1 NMatS=1 NMatT=0.
 ***** Axes restored to original set *****
 -------------------------------------------------------------------
 Center     Atomic                   Forces (Hartrees/Bohr)
 Number     Number              X              Y              Z
 -------------------------------------------------------------------
      1        6          -0.004568674   -0.001188853   -0.000600915
      2        9           0.001459204   -0.002604113   -0.002192232
      3        9           0.001842010   -0.004787385   -0.000316486
      4        9           0.001789374    0.003375061   -0.000503512
      5        9           0.000968637    0.004030739    0.000416497
      6        6          -0.001640681    0.001460585    0.005103724
      7        9          -0.000921689    0.000723192   -0.001572934
      8        1           0.001071819   -0.001009226   -0.000334142
 -------------------------------------------------------------------
 Cartesian Forces:  Max     0.005103724 RMS     0.002345028

 GradGradGradGradGradGradGradGradGradGradGradGradGradGradGradGradGradGrad
 Berny optimization.
 Using GEDIIS/GDIIS optimizer.
 FormGI is forming the generalized inverse of G from B-inverse, IUseBI=4.
 Internal  Forces:  Max     0.003941883 RMS     0.001942420
 Search for a local minimum.
 Step number  10 out of a maximum of   38
 All quantities printed in internal units (Hartrees-Bohrs-Radians)
 Mixed Optimization -- RFO/linear search
 Update second derivatives using D2CorX and points    8   10
 DE= -9.91D-04 DEPred=-2.75D-03 R= 3.60D-01
 Trust test= 3.60D-01 RLast= 9.64D-01 DXMaxT set to 5.05D-01
 ITU=  0  0  1  0  1  1  1  1  1  0
 Use linear search instead of GDIIS.
     Eigenvalues ---   -0.00202   0.03294   0.06389   0.07842   0.09282
     Eigenvalues ---    0.14576   0.15263   0.23433   0.24938   0.26628
     Eigenvalues ---    0.33167   0.35181   0.39013   0.51277   0.58298
     Eigenvalues ---    0.62899   0.62927   0.71909
 RFO step:  Lambda=-3.68000634D-03 EMin=-2.01961167D-03
 Skip linear search -- no minimum in search direction.
 Iteration  1 RMS(Cart)=  0.10806454 RMS(Int)=  0.07735322
 Iteration  2 RMS(Cart)=  0.07249229 RMS(Int)=  0.00268977
 Iteration  3 RMS(Cart)=  0.00274269 RMS(Int)=  0.00055906
 Iteration  4 RMS(Cart)=  0.00000440 RMS(Int)=  0.00055905
 Iteration  5 RMS(Cart)=  0.00000000 RMS(Int)=  0.00055905
 Variable       Old X    -DE/DX   Delta X   Delta X   Delta X     New X
                                 (Linear)    (Quad)   (Total)
    R1        2.52943   0.00370   0.00000   0.00797   0.00797   2.53740
    R2        2.52890   0.00385   0.00000   0.00805   0.00805   2.53694
    R3        2.94612  -0.00152   0.00000  -0.01340  -0.01340   2.93272
    R4        2.05991   0.00003   0.00000  -0.00146  -0.00146   2.05845
    R5        2.50923  -0.00378   0.00000   0.00235   0.00235   2.51158
    R6        2.51167  -0.00337   0.00000   0.00697   0.00697   2.51864
    R7        2.53624  -0.00084   0.00000  -0.01148  -0.01148   2.52475
    A1        1.89499   0.00084   0.00000   0.01471   0.01471   1.90970
    A2        1.92112  -0.00047   0.00000  -0.00084  -0.00087   1.92025
    A3        1.92074  -0.00070   0.00000  -0.01055  -0.01061   1.91013
    A4        1.90808  -0.00060   0.00000  -0.01439  -0.01433   1.89375
    A5        1.91205  -0.00060   0.00000  -0.01547  -0.01535   1.89670
    A6        1.90676   0.00151   0.00000   0.02617   0.02620   1.93296
    A7        1.96392  -0.00144   0.00000  -0.01957  -0.02067   1.94325
    A8        1.94674  -0.00158   0.00000  -0.03925  -0.04009   1.90665
    A9        1.87490   0.00394   0.00000   0.04491   0.04506   1.91997
   A10        1.91064  -0.00096   0.00000  -0.03059  -0.03266   1.87798
   A11        1.88285   0.00002   0.00000   0.02574   0.02560   1.90845
   A12        1.88155   0.00024   0.00000   0.02480   0.02525   1.90680
    D1       -1.74874   0.00224   0.00000   0.37458   0.37407  -1.37466
    D2        0.40641  -0.00130   0.00000   0.28994   0.29064   0.69705
    D3        2.46470   0.00051   0.00000   0.32544   0.32530   2.79000
    D4        0.33132   0.00261   0.00000   0.38324   0.38275   0.71407
    D5        2.48646  -0.00093   0.00000   0.29861   0.29932   2.78578
    D6       -1.73843   0.00088   0.00000   0.33411   0.33398  -1.40445
    D7        2.42354   0.00243   0.00000   0.37151   0.37094   2.79448
    D8       -1.70450  -0.00111   0.00000   0.28688   0.28751  -1.41699
    D9        0.35379   0.00071   0.00000   0.32238   0.32217   0.67596
         Item               Value     Threshold  Converged?
 Maximum Force            0.003942     0.000450     NO 
 RMS     Force            0.001942     0.000300     NO 
 Maximum Displacement     0.395072     0.001800     NO 
 RMS     Displacement     0.178578     0.001200     NO 
 Predicted change in Energy=-3.564997D-03
 GradGradGradGradGradGradGradGradGradGradGradGradGradGradGradGradGradGrad

                          Input orientation:                          
 ---------------------------------------------------------------------
 Center     Atomic      Atomic             Coordinates (Angstroms)
 Number     Number       Type             X           Y           Z
 ---------------------------------------------------------------------
      1          6           0        0.979581   -0.025821    0.339168
      2          9           0        1.572210   -0.822864   -0.564403
      3          9           0       -0.866480    0.812341   -0.912091
      4          9           0       -0.972100   -1.219158   -0.222219
      5          9           0        1.456296    1.222882    0.213585
      6          6           0       -0.552904    0.005272    0.096245
      7          9           0       -1.182758    0.412885    1.201751
      8          1           0        1.204061   -0.385561    1.342531
 ---------------------------------------------------------------------
                    Distance matrix (angstroms):
                    1          2          3          4          5
     1  C    0.000000
     2  F    1.342732   0.000000
     3  F    2.382459   2.956687   0.000000
     4  F    2.355476   2.597625   2.148038   0.000000
     5  F    1.342493   2.191753   2.613615   3.471397   0.000000
     6  C    1.551930   2.374526   1.329072   1.332806   2.352282
     7  F    2.369013   3.498032   2.174379   2.176150   2.932094
     8  H    1.089285   1.990770   3.287162   2.806956   1.981220
                    6          7          8
     6  C    0.000000
     7  F    1.336042   0.000000
     8  H    2.189270   2.520762   0.000000
 Stoichiometry    C2HF5
 Framework group  C1[X(C2HF5)]
 Deg. of freedom    18
 Full point group                 C1      NOp   1
 Largest Abelian subgroup         C1      NOp   1
 Largest concise Abelian subgroup C1      NOp   1
                         Standard orientation:                         
 ---------------------------------------------------------------------
 Center     Atomic      Atomic             Coordinates (Angstroms)
 Number     Number       Type             X           Y           Z
 ---------------------------------------------------------------------
      1          6           0       -0.868931   -0.012228    0.430143
      2          9           0       -1.488752    1.079801   -0.045487
      3          9           0        0.775272   -0.389968   -1.252122
      4          9           0        1.099338    1.240880    0.107798
      5          9           0       -1.446758   -1.111274   -0.080251
      6          6           0        0.624936   -0.000774    0.009766
      7          9           0        1.330719   -0.806351    0.808468
      8          1           0       -0.964402   -0.039778    1.514886
 ---------------------------------------------------------------------
 Rotational constants (GHZ):           3.6843208           2.3877448           1.9841396
 Standard basis: 6-311+G(2d,2p) (5D, 7F)
 There are   212 symmetry adapted cartesian basis functions of A   symmetry.
 There are   198 symmetry adapted basis functions of A   symmetry.
   198 basis functions,   305 primitive gaussians,   212 cartesian basis functions
    29 alpha electrons       29 beta electrons
       nuclear repulsion energy       359.2765618101 Hartrees.
 NAtoms=    8 NActive=    8 NUniq=    8 SFac= 1.00D+00 NAtFMM=   60 NAOKFM=F Big=F
 Integral buffers will be    131072 words long.
 Raffenetti 2 integral format.
 Two-electron integral symmetry is turned on.
 Nuclear repulsion after empirical dispersion term =      359.2743809522 Hartrees.
 One-electron integrals computed using PRISM.
 NBasis=   198 RedAO= T EigKep=  1.51D-04  NBF=   198
 NBsUse=   198 1.00D-06 EigRej= -1.00D+00 NBFU=   198
 Initial guess from the checkpoint file:  "c2f5h.chk"
 B after Tr=    -0.000000   -0.000000    0.000000
         Rot=    0.993486   -0.113471   -0.007488    0.007299 Ang= -13.09 deg.
 ExpMin= 4.38D-02 ExpMax= 1.14D+04 ExpMxC= 1.72D+03 IAcc=3 IRadAn=         5 AccDes= 0.00D+00
 Harris functional with IExCor= 4639 and IRadAn=       5 diagonalized for initial guess.
 HarFok:  IExCor= 4639 AccDes= 0.00D+00 IRadAn=         5 IDoV= 1 UseB2=F ITyADJ=14
 ICtDFT=  3500011 ScaDFX=  1.000000  1.000000  1.000000  1.000000
 FoFCou: FMM=F IPFlag=           0 FMFlag=      100000 FMFlg1=           0
         NFxFlg=           0 DoJE=T BraDBF=F KetDBF=T FulRan=T
         wScrn=  0.000000 ICntrl=       500 IOpCl=  0 I1Cent=   200000004 NGrid=           0
         NMat0=    1 NMatS0=      1 NMatT0=    0 NMatD0=    1 NMtDS0=    0 NMtDT0=    0
 Petite list used in FoFCou.
 Keep R1 ints in memory in canonical form, NReq=413232258.
 Requested convergence on RMS density matrix=1.00D-08 within  32 cycles.
 Requested convergence on MAX density matrix=1.00D-06.
 Requested convergence on             energy=1.00D-06.
 No special actions if energy rises.
 SCF Done:  E(RwB97XD) =  -576.058457972     A.U. after   12 cycles
            NFock= 12  Conv=0.52D-08     -V/T= 2.0026
 QCSCF skips out because SCF is already converged.
 Calling FoFJK, ICntrl=      2127 FMM=F ISym2X=0 I1Cent= 0 IOpClX= 0 NMat=1 NMatS=1 NMatT=0.
 ***** Axes restored to original set *****
 -------------------------------------------------------------------
 Center     Atomic                   Forces (Hartrees/Bohr)
 Number     Number              X              Y              Z
 -------------------------------------------------------------------
      1        6          -0.003753818    0.001015549    0.004712172
      2        9          -0.001274580    0.002401598   -0.001461950
      3        9          -0.000018334    0.001258016    0.003991828
      4        9          -0.002014750    0.000629023    0.005532525
      5        9           0.001180636    0.001608726   -0.001190496
      6        6           0.004619608   -0.004114895   -0.007700404
      7        9           0.002271033   -0.000863557   -0.004463432
      8        1          -0.001009795   -0.001934460    0.000579756
 -------------------------------------------------------------------
 Cartesian Forces:  Max     0.007700404 RMS     0.003118025

 GradGradGradGradGradGradGradGradGradGradGradGradGradGradGradGradGradGrad
 Berny optimization.
 Using GEDIIS/GDIIS optimizer.
 FormGI is forming the generalized inverse of G from B-inverse, IUseBI=4.
 Internal  Forces:  Max     0.005027385 RMS     0.002320783
 Search for a local minimum.
 Step number  11 out of a maximum of   38
 All quantities printed in internal units (Hartrees-Bohrs-Radians)
 Mixed Optimization -- RFO/linear search
 Update second derivatives using D2CorX and points   10   11
 DE= -2.21D-03 DEPred=-3.56D-03 R= 6.20D-01
 TightC=F SS=  1.41D+00  RLast= 1.01D+00 DXNew= 8.4853D-01 3.0154D+00
 Trust test= 6.20D-01 RLast= 1.01D+00 DXMaxT set to 8.49D-01
 ITU=  1  0  0  1  0  1  1  1  1  1  0
 Use linear search instead of GDIIS.
     Eigenvalues ---    0.00058   0.06302   0.07248   0.08407   0.09565
     Eigenvalues ---    0.15199   0.18646   0.23753   0.25333   0.28957
     Eigenvalues ---    0.33591   0.35509   0.43681   0.55845   0.59135
     Eigenvalues ---    0.62907   0.63406   0.73304
 RFO step:  Lambda=-1.93341131D-03 EMin= 5.75639132D-04
 Quartic linear search produced a step of  0.33825.
 Iteration  1 RMS(Cart)=  0.10752889 RMS(Int)=  0.04087068
 Iteration  2 RMS(Cart)=  0.03852625 RMS(Int)=  0.00071764
 Iteration  3 RMS(Cart)=  0.00070894 RMS(Int)=  0.00019847
 Iteration  4 RMS(Cart)=  0.00000019 RMS(Int)=  0.00019847
 Variable       Old X    -DE/DX   Delta X   Delta X   Delta X     New X
                                 (Linear)    (Quad)   (Total)
    R1        2.53740  -0.00100   0.00270   0.01803   0.02073   2.55812
    R2        2.53694   0.00203   0.00272   0.02202   0.02474   2.56169
    R3        2.93272  -0.00445  -0.00453  -0.04799  -0.05252   2.88021
    R4        2.05845   0.00096  -0.00050   0.00382   0.00332   2.06177
    R5        2.51158  -0.00226   0.00080  -0.03362  -0.03283   2.47876
    R6        2.51864  -0.00127   0.00236  -0.03094  -0.02858   2.49005
    R7        2.52475  -0.00503  -0.00388   0.01498   0.01110   2.53585
    A1        1.90970  -0.00072   0.00498  -0.01496  -0.00999   1.89971
    A2        1.92025  -0.00252  -0.00029  -0.00212  -0.00243   1.91783
    A3        1.91013   0.00199  -0.00359  -0.00009  -0.00370   1.90643
    A4        1.89375   0.00107  -0.00485   0.00875   0.00388   1.89763
    A5        1.89670   0.00122  -0.00519   0.00401  -0.00121   1.89549
    A6        1.93296  -0.00103   0.00886   0.00426   0.01310   1.94606
    A7        1.94325   0.00071  -0.00699   0.01115   0.00377   1.94702
    A8        1.90665   0.00366  -0.01356   0.01964   0.00578   1.91243
    A9        1.91997  -0.00181   0.01524  -0.02236  -0.00706   1.91290
   A10        1.87798   0.00180  -0.01105   0.01564   0.00386   1.88185
   A11        1.90845  -0.00158   0.00866  -0.01453  -0.00592   1.90253
   A12        1.90680  -0.00278   0.00854  -0.00898  -0.00027   1.90653
    D1       -1.37466  -0.00122   0.12653   0.14208   0.26843  -1.10623
    D2        0.69705   0.00378   0.09831   0.18073   0.27929   0.97633
    D3        2.79000   0.00153   0.11003   0.16821   0.27819   3.06820
    D4        0.71407  -0.00292   0.12947   0.12793   0.25720   0.97127
    D5        2.78578   0.00207   0.10124   0.16658   0.26806   3.05384
    D6       -1.40445  -0.00018   0.11297   0.15406   0.26696  -1.13749
    D7        2.79448  -0.00137   0.12547   0.14080   0.26609   3.06058
    D8       -1.41699   0.00362   0.09725   0.17946   0.27695  -1.14004
    D9        0.67596   0.00138   0.10897   0.16694   0.27586   0.95182
         Item               Value     Threshold  Converged?
 Maximum Force            0.005027     0.000450     NO 
 RMS     Force            0.002321     0.000300     NO 
 Maximum Displacement     0.320611     0.001800     NO 
 RMS     Displacement     0.144786     0.001200     NO 
 Predicted change in Energy=-1.763735D-03
 GradGradGradGradGradGradGradGradGradGradGradGradGradGradGradGradGradGrad

                          Input orientation:                          
 ---------------------------------------------------------------------
 Center     Atomic      Atomic             Coordinates (Angstroms)
 Number     Number       Type             X           Y           Z
 ---------------------------------------------------------------------
      1          6           0        0.961766   -0.034569    0.336443
      2          9           0        1.579593   -0.686779   -0.676185
      3          9           0       -0.837975    0.675269   -0.993847
      4          9           0       -0.991272   -1.229939   -0.065675
      5          9           0        1.423577    1.239069    0.383245
      6          6           0       -0.542003   -0.001082    0.090363
      7          9           0       -1.157451    0.564704    1.140050
      8          1           0        1.201672   -0.526696    1.280174
 ---------------------------------------------------------------------
                    Distance matrix (angstroms):
                    1          2          3          4          5
     1  C    0.000000
     2  F    1.353700   0.000000
     3  F    2.347895   2.792977   0.000000
     4  F    2.324858   2.697608   2.124811   0.000000
     5  F    1.355586   2.203548   2.707189   3.482675   0.000000
     6  C    1.524139   2.357742   1.311701   1.317680   2.342490
     7  F    2.344354   3.515157   2.160510   2.168440   2.772946
     8  H    1.091042   1.998947   3.282689   2.667370   1.992899
                    6          7          8
     6  C    0.000000
     7  F    1.341914   0.000000
     8  H    2.175390   2.603123   0.000000
 Stoichiometry    C2HF5
 Framework group  C1[X(C2HF5)]
 Deg. of freedom    18
 Full point group                 C1      NOp   1
 Largest Abelian subgroup         C1      NOp   1
 Largest concise Abelian subgroup C1      NOp   1
                         Standard orientation:                         
 ---------------------------------------------------------------------
 Center     Atomic      Atomic             Coordinates (Angstroms)
 Number     Number       Type             X           Y           Z
 ---------------------------------------------------------------------
      1          6           0       -0.846331   -0.012528    0.434194
      2          9           0       -1.480476    1.085495   -0.039840
      3          9           0        0.736092   -0.054690   -1.299810
      4          9           0        1.179234    1.128262    0.408719
      5          9           0       -1.436907   -1.117178   -0.084053
      6          6           0        0.615960    0.007580    0.004893
      7          9           0        1.260505   -1.033824    0.553321
      8          1           0       -0.943805   -0.042900    1.520448
 ---------------------------------------------------------------------
 Rotational constants (GHZ):           3.7042581           2.4342402           2.0016750
 Standard basis: 6-311+G(2d,2p) (5D, 7F)
 There are   212 symmetry adapted cartesian basis functions of A   symmetry.
 There are   198 symmetry adapted basis functions of A   symmetry.
   198 basis functions,   305 primitive gaussians,   212 cartesian basis functions
    29 alpha electrons       29 beta electrons
       nuclear repulsion energy       360.8916239760 Hartrees.
 NAtoms=    8 NActive=    8 NUniq=    8 SFac= 1.00D+00 NAtFMM=   60 NAOKFM=F Big=F
 Integral buffers will be    131072 words long.
 Raffenetti 2 integral format.
 Two-electron integral symmetry is turned on.
 Nuclear repulsion after empirical dispersion term =      360.8894445156 Hartrees.
 One-electron integrals computed using PRISM.
 NBasis=   198 RedAO= T EigKep=  1.47D-04  NBF=   198
 NBsUse=   198 1.00D-06 EigRej= -1.00D+00 NBFU=   198
 Initial guess from the checkpoint file:  "c2f5h.chk"
 B after Tr=    -0.000000    0.000000    0.000000
         Rot=    0.996352   -0.084382   -0.002829    0.012457 Ang=  -9.79 deg.
 ExpMin= 4.38D-02 ExpMax= 1.14D+04 ExpMxC= 1.72D+03 IAcc=3 IRadAn=         5 AccDes= 0.00D+00
 Harris functional with IExCor= 4639 and IRadAn=       5 diagonalized for initial guess.
 HarFok:  IExCor= 4639 AccDes= 0.00D+00 IRadAn=         5 IDoV= 1 UseB2=F ITyADJ=14
 ICtDFT=  3500011 ScaDFX=  1.000000  1.000000  1.000000  1.000000
 FoFCou: FMM=F IPFlag=           0 FMFlag=      100000 FMFlg1=           0
         NFxFlg=           0 DoJE=T BraDBF=F KetDBF=T FulRan=T
         wScrn=  0.000000 ICntrl=       500 IOpCl=  0 I1Cent=   200000004 NGrid=           0
         NMat0=    1 NMatS0=      1 NMatT0=    0 NMatD0=    1 NMtDS0=    0 NMtDT0=    0
 Petite list used in FoFCou.
 Keep R1 ints in memory in canonical form, NReq=413232258.
 Requested convergence on RMS density matrix=1.00D-08 within  32 cycles.
 Requested convergence on MAX density matrix=1.00D-06.
 Requested convergence on             energy=1.00D-06.
 No special actions if energy rises.
 SCF Done:  E(RwB97XD) =  -576.059278969     A.U. after   12 cycles
            NFock= 12  Conv=0.41D-08     -V/T= 2.0025
 QCSCF skips out because SCF is already converged.
 Calling FoFJK, ICntrl=      2127 FMM=F ISym2X=0 I1Cent= 0 IOpClX= 0 NMat=1 NMatS=1 NMatT=0.
 ***** Axes restored to original set *****
 -------------------------------------------------------------------
 Center     Atomic                   Forces (Hartrees/Bohr)
 Number     Number              X              Y              Z
 -------------------------------------------------------------------
      1        6           0.014855155    0.004570123    0.002200194
      2        9          -0.005496308    0.004640113    0.004541645
      3        9          -0.002507455    0.010348920   -0.009435855
      4        9          -0.005098244   -0.012634270    0.003915982
      5        9          -0.002651247   -0.006527737   -0.001566071
      6        6          -0.000353158    0.003593807    0.004625069
      7        9           0.002739924   -0.003115188   -0.003508990
      8        1          -0.001488667   -0.000875768   -0.000771973
 -------------------------------------------------------------------
 Cartesian Forces:  Max     0.014855155 RMS     0.005922316

 GradGradGradGradGradGradGradGradGradGradGradGradGradGradGradGradGradGrad
 Berny optimization.
 Using GEDIIS/GDIIS optimizer.
 FormGI is forming the generalized inverse of G from B-inverse, IUseBI=4.
 Internal  Forces:  Max     0.013701393 RMS     0.004716194
 Search for a local minimum.
 Step number  12 out of a maximum of   38
 All quantities printed in internal units (Hartrees-Bohrs-Radians)
 Mixed Optimization -- RFO/linear search
 Update second derivatives using D2CorX and points   11   12
 DE= -8.21D-04 DEPred=-1.76D-03 R= 4.65D-01
 Trust test= 4.65D-01 RLast= 8.16D-01 DXMaxT set to 8.49D-01
 ITU=  0  1  0  0  1  0  1  1  1  1  1  0
 Use linear search instead of GDIIS.
     Eigenvalues ---    0.00125   0.06129   0.07767   0.08907   0.09546
     Eigenvalues ---    0.15832   0.20870   0.22902   0.24888   0.29781
     Eigenvalues ---    0.33413   0.35398   0.45100   0.55865   0.62520
     Eigenvalues ---    0.62836   0.63792   0.74286
 RFO step:  Lambda=-1.36133957D-03 EMin= 1.25291667D-03
 Quartic linear search produced a step of -0.24015.
 Iteration  1 RMS(Cart)=  0.04254720 RMS(Int)=  0.00095075
 Iteration  2 RMS(Cart)=  0.00092637 RMS(Int)=  0.00006015
 Iteration  3 RMS(Cart)=  0.00000038 RMS(Int)=  0.00006015
 Variable       Old X    -DE/DX   Delta X   Delta X   Delta X     New X
                                 (Linear)    (Quad)   (Total)
    R1        2.55812  -0.00814  -0.00498  -0.00937  -0.01435   2.54377
    R2        2.56169  -0.00709  -0.00594  -0.00536  -0.01130   2.55038
    R3        2.88021   0.00582   0.01261   0.01426   0.02688   2.90708
    R4        2.06177  -0.00060  -0.00080  -0.00041  -0.00121   2.06056
    R5        2.47876   0.01370   0.00788   0.02311   0.03100   2.50975
    R6        2.49005   0.01306   0.00686   0.02576   0.03262   2.52268
    R7        2.53585  -0.00531  -0.00266  -0.02092  -0.02359   2.51226
    A1        1.89971   0.00076   0.00240   0.00190   0.00411   1.90382
    A2        1.91783  -0.00387   0.00058  -0.02208  -0.02158   1.89625
    A3        1.90643   0.00235   0.00089   0.00670   0.00760   1.91403
    A4        1.89763   0.00006  -0.00093  -0.00660  -0.00761   1.89003
    A5        1.89549   0.00171   0.00029   0.01202   0.01233   1.90782
    A6        1.94606  -0.00092  -0.00315   0.00830   0.00517   1.95123
    A7        1.94702  -0.00028  -0.00090  -0.00968  -0.01062   1.93640
    A8        1.91243   0.00039  -0.00139  -0.01190  -0.01328   1.89915
    A9        1.91290  -0.00202   0.00170   0.02176   0.02351   1.93641
   A10        1.88185   0.00372  -0.00093   0.01009   0.00907   1.89092
   A11        1.90253   0.00000   0.00142   0.00071   0.00214   1.90467
   A12        1.90653  -0.00177   0.00007  -0.01141  -0.01125   1.89528
    D1       -1.10623  -0.00153  -0.06446   0.14630   0.08176  -1.02448
    D2        0.97633   0.00318  -0.06707   0.14501   0.07794   1.05427
    D3        3.06820   0.00001  -0.06681   0.13708   0.07019   3.13839
    D4        0.97127  -0.00285  -0.06177   0.13165   0.06991   1.04118
    D5        3.05384   0.00186  -0.06437   0.13036   0.06609   3.11993
    D6       -1.13749  -0.00132  -0.06411   0.12242   0.05835  -1.07914
    D7        3.06058  -0.00125  -0.06390   0.14737   0.08343  -3.13918
    D8       -1.14004   0.00346  -0.06651   0.14608   0.07961  -1.06043
    D9        0.95182   0.00028  -0.06625   0.13814   0.07187   1.02369
         Item               Value     Threshold  Converged?
 Maximum Force            0.013701     0.000450     NO 
 RMS     Force            0.004716     0.000300     NO 
 Maximum Displacement     0.099002     0.001800     NO 
 RMS     Displacement     0.042607     0.001200     NO 
 Predicted change in Energy=-8.543907D-04
 GradGradGradGradGradGradGradGradGradGradGradGradGradGradGradGradGradGrad

                          Input orientation:                          
 ---------------------------------------------------------------------
 Center     Atomic      Atomic             Coordinates (Angstroms)
 Number     Number       Type             X           Y           Z
 ---------------------------------------------------------------------
      1          6           0        0.973411   -0.035181    0.342984
      2          9           0        1.562197   -0.643294   -0.703690
      3          9           0       -0.826531    0.653547   -1.027108
      4          9           0       -0.996946   -1.245104   -0.013285
      5          9           0        1.423628    1.234401    0.426026
      6          6           0       -0.544705    0.005991    0.097662
      7          9           0       -1.173836    0.595941    1.109364
      8          1           0        1.220688   -0.566325    1.262615
 ---------------------------------------------------------------------
                    Distance matrix (angstroms):
                    1          2          3          4          5
     1  C    0.000000
     2  F    1.346105   0.000000
     3  F    2.364591   2.737228   0.000000
     4  F    2.339476   2.718097   2.159110   0.000000
     5  F    1.349604   2.195723   2.740840   3.492867   0.000000
     6  C    1.538361   2.345800   1.328105   1.334942   2.343320
     7  F    2.365654   3.508382   2.165283   2.163580   2.760688
     8  H    1.090404   1.997226   3.304849   2.646991   1.995916
                    6          7          8
     6  C    0.000000
     7  F    1.329431   0.000000
     8  H    2.191181   2.666100   0.000000
 Stoichiometry    C2HF5
 Framework group  C1[X(C2HF5)]
 Deg. of freedom    18
 Full point group                 C1      NOp   1
 Largest Abelian subgroup         C1      NOp   1
 Largest concise Abelian subgroup C1      NOp   1
                         Standard orientation:                         
 ---------------------------------------------------------------------
 Center     Atomic      Atomic             Coordinates (Angstroms)
 Number     Number       Type             X           Y           Z
 ---------------------------------------------------------------------
      1          6           0       -0.858245   -0.004840    0.446293
      2          9           0       -1.457326    1.089326   -0.059574
      3          9           0        0.716254    0.000886   -1.317853
      4          9           0        1.206994    1.093753    0.478413
      5          9           0       -1.452066   -1.106391   -0.059071
      6          6           0        0.615891   -0.006205    0.006435
      7          9           0        1.254020   -1.069303    0.486019
      8          1           0       -0.956753   -0.008166    1.532233
 ---------------------------------------------------------------------
 Rotational constants (GHZ):           3.6913442           2.4215932           2.0031615
 Standard basis: 6-311+G(2d,2p) (5D, 7F)
 There are   212 symmetry adapted cartesian basis functions of A   symmetry.
 There are   198 symmetry adapted basis functions of A   symmetry.
   198 basis functions,   305 primitive gaussians,   212 cartesian basis functions
    29 alpha electrons       29 beta electrons
       nuclear repulsion energy       360.1785809579 Hartrees.
 NAtoms=    8 NActive=    8 NUniq=    8 SFac= 1.00D+00 NAtFMM=   60 NAOKFM=F Big=F
 Integral buffers will be    131072 words long.
 Raffenetti 2 integral format.
 Two-electron integral symmetry is turned on.
 Nuclear repulsion after empirical dispersion term =      360.1763913303 Hartrees.
 One-electron integrals computed using PRISM.
 NBasis=   198 RedAO= T EigKep=  1.54D-04  NBF=   198
 NBsUse=   198 1.00D-06 EigRej= -1.00D+00 NBFU=   198
 Initial guess from the checkpoint file:  "c2f5h.chk"
 B after Tr=     0.000000    0.000000   -0.000000
         Rot=    0.999887   -0.013549   -0.002606    0.006007 Ang=  -1.72 deg.
 ExpMin= 4.38D-02 ExpMax= 1.14D+04 ExpMxC= 1.72D+03 IAcc=3 IRadAn=         5 AccDes= 0.00D+00
 Harris functional with IExCor= 4639 and IRadAn=       5 diagonalized for initial guess.
 HarFok:  IExCor= 4639 AccDes= 0.00D+00 IRadAn=         5 IDoV= 1 UseB2=F ITyADJ=14
 ICtDFT=  3500011 ScaDFX=  1.000000  1.000000  1.000000  1.000000
 FoFCou: FMM=F IPFlag=           0 FMFlag=      100000 FMFlg1=           0
         NFxFlg=           0 DoJE=T BraDBF=F KetDBF=T FulRan=T
         wScrn=  0.000000 ICntrl=       500 IOpCl=  0 I1Cent=   200000004 NGrid=           0
         NMat0=    1 NMatS0=      1 NMatT0=    0 NMatD0=    1 NMtDS0=    0 NMtDT0=    0
 Petite list used in FoFCou.
 Keep R1 ints in memory in canonical form, NReq=413232258.
 Requested convergence on RMS density matrix=1.00D-08 within  32 cycles.
 Requested convergence on MAX density matrix=1.00D-06.
 Requested convergence on             energy=1.00D-06.
 No special actions if energy rises.
 SCF Done:  E(RwB97XD) =  -576.060003533     A.U. after   10 cycles
            NFock= 10  Conv=0.53D-08     -V/T= 2.0026
 QCSCF skips out because SCF is already converged.
 Calling FoFJK, ICntrl=      2127 FMM=F ISym2X=0 I1Cent= 0 IOpClX= 0 NMat=1 NMatS=1 NMatT=0.
 ***** Axes restored to original set *****
 -------------------------------------------------------------------
 Center     Atomic                   Forces (Hartrees/Bohr)
 Number     Number              X              Y              Z
 -------------------------------------------------------------------
      1        6           0.000665841    0.004879696    0.000082967
      2        9          -0.000909658    0.001458546    0.001884139
      3        9          -0.000222018    0.000814819    0.002125962
      4        9          -0.000932792    0.000409118    0.001476962
      5        9           0.000052890   -0.002903673   -0.000497219
      6        6           0.000954348   -0.004486474   -0.005037684
      7        9           0.001647235    0.000293652    0.000134212
      8        1          -0.001255845   -0.000465684   -0.000169340
 -------------------------------------------------------------------
 Cartesian Forces:  Max     0.005037684 RMS     0.002030573

 GradGradGradGradGradGradGradGradGradGradGradGradGradGradGradGradGradGrad
 Berny optimization.
 Using GEDIIS/GDIIS optimizer.
 FormGI is forming the generalized inverse of G from B-inverse, IUseBI=4.
 Internal  Forces:  Max     0.003818260 RMS     0.001463685
 Search for a local minimum.
 Step number  13 out of a maximum of   38
 All quantities printed in internal units (Hartrees-Bohrs-Radians)
 Mixed Optimization -- RFO/linear search
 Update second derivatives using D2CorX and points   12   13
 DE= -7.25D-04 DEPred=-8.54D-04 R= 8.48D-01
 TightC=F SS=  1.41D+00  RLast= 2.33D-01 DXNew= 1.4270D+00 6.9896D-01
 Trust test= 8.48D-01 RLast= 2.33D-01 DXMaxT set to 8.49D-01
 ITU=  1  0  1  0  0  1  0  1  1  1  1  1  0
 Use linear search instead of GDIIS.
     Eigenvalues ---    0.00148   0.06046   0.08009   0.08948   0.09885
     Eigenvalues ---    0.15524   0.22488   0.24238   0.25351   0.29652
     Eigenvalues ---    0.33262   0.35359   0.42094   0.52864   0.58821
     Eigenvalues ---    0.62828   0.63167   0.74542
 RFO step:  Lambda=-3.18550739D-04 EMin= 1.48123471D-03
 Quartic linear search produced a step of -0.08622.
 Iteration  1 RMS(Cart)=  0.02852377 RMS(Int)=  0.00045338
 Iteration  2 RMS(Cart)=  0.00048098 RMS(Int)=  0.00007708
 Iteration  3 RMS(Cart)=  0.00000015 RMS(Int)=  0.00007708
 Variable       Old X    -DE/DX   Delta X   Delta X   Delta X     New X
                                 (Linear)    (Quad)   (Total)
    R1        2.54377  -0.00252   0.00124  -0.00556  -0.00433   2.53944
    R2        2.55038  -0.00274   0.00097  -0.00563  -0.00466   2.54573
    R3        2.90708  -0.00130  -0.00232   0.00103  -0.00129   2.90579
    R4        2.06056  -0.00020   0.00010   0.00006   0.00016   2.06073
    R5        2.50975  -0.00136  -0.00267  -0.00199  -0.00467   2.50509
    R6        2.52268  -0.00019  -0.00281  -0.00109  -0.00390   2.51878
    R7        2.51226  -0.00055   0.00203   0.00109   0.00312   2.51538
    A1        1.90382  -0.00102  -0.00035  -0.00336  -0.00372   1.90010
    A2        1.89625   0.00028   0.00186  -0.00264  -0.00081   1.89543
    A3        1.91403   0.00056  -0.00066   0.00219   0.00146   1.91549
    A4        1.89003   0.00212   0.00066   0.01196   0.01265   1.90268
    A5        1.90782   0.00027  -0.00106   0.00916   0.00816   1.91599
    A6        1.95123  -0.00220  -0.00045  -0.01710  -0.01755   1.93368
    A7        1.93640   0.00125   0.00092   0.00703   0.00779   1.94419
    A8        1.89915   0.00220   0.00115   0.01446   0.01550   1.91464
    A9        1.93641  -0.00382  -0.00203  -0.01833  -0.02035   1.91606
   A10        1.89092   0.00032  -0.00078   0.01269   0.01165   1.90256
   A11        1.90467   0.00009  -0.00018  -0.00809  -0.00832   1.89635
   A12        1.89528   0.00003   0.00097  -0.00724  -0.00620   1.88908
    D1       -1.02448  -0.00155  -0.00705  -0.06175  -0.06883  -1.09331
    D2        1.05427   0.00098  -0.00672  -0.03284  -0.03945   1.01483
    D3        3.13839   0.00009  -0.00605  -0.04374  -0.04980   3.08859
    D4        1.04118  -0.00142  -0.00603  -0.06052  -0.06659   0.97460
    D5        3.11993   0.00111  -0.00570  -0.03160  -0.03720   3.08273
    D6       -1.07914   0.00022  -0.00503  -0.04251  -0.04755  -1.12669
    D7       -3.13918  -0.00105  -0.00719  -0.05184  -0.05913   3.08488
    D8       -1.06043   0.00148  -0.00686  -0.02293  -0.02974  -1.09017
    D9        1.02369   0.00059  -0.00620  -0.03383  -0.04010   0.98359
         Item               Value     Threshold  Converged?
 Maximum Force            0.003818     0.000450     NO 
 RMS     Force            0.001464     0.000300     NO 
 Maximum Displacement     0.061361     0.001800     NO 
 RMS     Displacement     0.028580     0.001200     NO 
 Predicted change in Energy=-1.656426D-04
 GradGradGradGradGradGradGradGradGradGradGradGradGradGradGradGradGradGrad

                          Input orientation:                          
 ---------------------------------------------------------------------
 Center     Atomic      Atomic             Coordinates (Angstroms)
 Number     Number       Type             X           Y           Z
 ---------------------------------------------------------------------
      1          6           0        0.974273   -0.028641    0.341821
      2          9           0        1.567993   -0.664966   -0.682109
      3          9           0       -0.837260    0.680634   -1.008791
      4          9           0       -0.999299   -1.246846   -0.037472
      5          9           0        1.433609    1.236713    0.393555
      6          6           0       -0.542249   -0.001195    0.089110
      7          9           0       -1.160872    0.566542    1.121951
      8          1           0        1.201712   -0.542264    1.276503
 ---------------------------------------------------------------------
                    Distance matrix (angstroms):
                    1          2          3          4          5
     1  C    0.000000
     2  F    1.343816   0.000000
     3  F    2.368307   2.775356   0.000000
     4  F    2.350079   2.710189   2.164462   0.000000
     5  F    1.347140   2.188948   2.726288   3.503268   0.000000
     6  C    1.537679   2.342753   1.325636   1.332879   2.351407
     7  F    2.349828   3.495418   2.158195   2.158413   2.776872
     8  H    1.090490   1.996341   3.297796   2.658461   1.999533
                    6          7          8
     6  C    0.000000
     7  F    1.331082   0.000000
     8  H    2.178086   2.614410   0.000000
 Stoichiometry    C2HF5
 Framework group  C1[X(C2HF5)]
 Deg. of freedom    18
 Full point group                 C1      NOp   1
 Largest Abelian subgroup         C1      NOp   1
 Largest concise Abelian subgroup C1      NOp   1
                         Standard orientation:                         
 ---------------------------------------------------------------------
 Center     Atomic      Atomic             Coordinates (Angstroms)
 Number     Number       Type             X           Y           Z
 ---------------------------------------------------------------------
      1          6           0       -0.858214    0.003270    0.440861
      2          9           0       -1.452033    1.097698   -0.064558
      3          9           0        0.728032   -0.078839   -1.315829
      4          9           0        1.213563    1.112484    0.424834
      5          9           0       -1.467155   -1.091178   -0.055286
      6          6           0        0.615731   -0.001532    0.002777
      7          9           0        1.243560   -1.042358    0.545264
      8          1           0       -0.938798    0.009303    1.528352
 ---------------------------------------------------------------------
 Rotational constants (GHZ):           3.7019055           2.4133822           2.0018176
 Standard basis: 6-311+G(2d,2p) (5D, 7F)
 There are   212 symmetry adapted cartesian basis functions of A   symmetry.
 There are   198 symmetry adapted basis functions of A   symmetry.
   198 basis functions,   305 primitive gaussians,   212 cartesian basis functions
    29 alpha electrons       29 beta electrons
       nuclear repulsion energy       360.2790792469 Hartrees.
 NAtoms=    8 NActive=    8 NUniq=    8 SFac= 1.00D+00 NAtFMM=   60 NAOKFM=F Big=F
 Integral buffers will be    131072 words long.
 Raffenetti 2 integral format.
 Two-electron integral symmetry is turned on.
 Nuclear repulsion after empirical dispersion term =      360.2768872834 Hartrees.
 One-electron integrals computed using PRISM.
 NBasis=   198 RedAO= T EigKep=  1.54D-04  NBF=   198
 NBsUse=   198 1.00D-06 EigRej= -1.00D+00 NBFU=   198
 Initial guess from the checkpoint file:  "c2f5h.chk"
 B after Tr=    -0.000000   -0.000000   -0.000000
         Rot=    0.999835    0.017896    0.001277    0.003006 Ang=   2.08 deg.
 ExpMin= 4.38D-02 ExpMax= 1.14D+04 ExpMxC= 1.72D+03 IAcc=3 IRadAn=         5 AccDes= 0.00D+00
 Harris functional with IExCor= 4639 and IRadAn=       5 diagonalized for initial guess.
 HarFok:  IExCor= 4639 AccDes= 0.00D+00 IRadAn=         5 IDoV= 1 UseB2=F ITyADJ=14
 ICtDFT=  3500011 ScaDFX=  1.000000  1.000000  1.000000  1.000000
 FoFCou: FMM=F IPFlag=           0 FMFlag=      100000 FMFlg1=           0
         NFxFlg=           0 DoJE=T BraDBF=F KetDBF=T FulRan=T
         wScrn=  0.000000 ICntrl=       500 IOpCl=  0 I1Cent=   200000004 NGrid=           0
         NMat0=    1 NMatS0=      1 NMatT0=    0 NMatD0=    1 NMtDS0=    0 NMtDT0=    0
 Petite list used in FoFCou.
 Keep R1 ints in memory in canonical form, NReq=413232258.
 Requested convergence on RMS density matrix=1.00D-08 within  32 cycles.
 Requested convergence on MAX density matrix=1.00D-06.
 Requested convergence on             energy=1.00D-06.
 No special actions if energy rises.
 SCF Done:  E(RwB97XD) =  -576.060120180     A.U. after    9 cycles
            NFock=  9  Conv=0.75D-08     -V/T= 2.0025
 QCSCF skips out because SCF is already converged.
 Calling FoFJK, ICntrl=      2127 FMM=F ISym2X=0 I1Cent= 0 IOpClX= 0 NMat=1 NMatS=1 NMatT=0.
 ***** Axes restored to original set *****
 -------------------------------------------------------------------
 Center     Atomic                   Forces (Hartrees/Bohr)
 Number     Number              X              Y              Z
 -------------------------------------------------------------------
      1        6          -0.000280564    0.001044448   -0.000521330
      2        9           0.000695363    0.000030949   -0.000223867
      3        9          -0.000043657   -0.000683357   -0.000687809
      4        9           0.000692909    0.000357903   -0.000290990
      5        9          -0.001235780   -0.002172588    0.000423976
      6        6           0.000062959    0.000317179   -0.000472075
      7        9           0.000063345    0.000925586    0.001652967
      8        1           0.000045426    0.000179880    0.000119128
 -------------------------------------------------------------------
 Cartesian Forces:  Max     0.002172588 RMS     0.000763952

 GradGradGradGradGradGradGradGradGradGradGradGradGradGradGradGradGradGrad
 Berny optimization.
 Using GEDIIS/GDIIS optimizer.
 FormGI is forming the generalized inverse of G from B-inverse, IUseBI=4.
 Internal  Forces:  Max     0.002445784 RMS     0.000801943
 Search for a local minimum.
 Step number  14 out of a maximum of   38
 All quantities printed in internal units (Hartrees-Bohrs-Radians)
 Mixed Optimization -- En-DIIS/RFO-DIIS
 Update second derivatives using D2CorX and points   12   13   14
 DE= -1.17D-04 DEPred=-1.66D-04 R= 7.04D-01
 TightC=F SS=  1.41D+00  RLast= 1.56D-01 DXNew= 1.4270D+00 4.6900D-01
 Trust test= 7.04D-01 RLast= 1.56D-01 DXMaxT set to 8.49D-01
 ITU=  1  1  0  1  0  0  1  0  1  1  1  1  1  0
 Use linear search instead of GDIIS.
     Eigenvalues ---    0.00198   0.06511   0.07898   0.08997   0.09861
     Eigenvalues ---    0.14376   0.23280   0.24683   0.25453   0.29977
     Eigenvalues ---    0.32775   0.35282   0.41217   0.50190   0.57983
     Eigenvalues ---    0.63127   0.64793   0.74560
 RFO step:  Lambda=-1.25450975D-04 EMin= 1.98157566D-03
 Quartic linear search produced a step of -0.22297.
 Iteration  1 RMS(Cart)=  0.03769722 RMS(Int)=  0.00064678
 Iteration  2 RMS(Cart)=  0.00067215 RMS(Int)=  0.00001980
 Iteration  3 RMS(Cart)=  0.00000016 RMS(Int)=  0.00001980
 Variable       Old X    -DE/DX   Delta X   Delta X   Delta X     New X
                                 (Linear)    (Quad)   (Total)
    R1        2.53944   0.00046   0.00096  -0.00245  -0.00149   2.53796
    R2        2.54573  -0.00245   0.00104  -0.00589  -0.00485   2.54087
    R3        2.90579  -0.00078   0.00029  -0.00407  -0.00378   2.90201
    R4        2.06073   0.00003  -0.00004   0.00002  -0.00001   2.06071
    R5        2.50509   0.00023   0.00104  -0.00060   0.00044   2.50552
    R6        2.51878  -0.00054   0.00087   0.00006   0.00093   2.51970
    R7        2.51538   0.00165  -0.00070   0.00078   0.00009   2.51547
    A1        1.90010   0.00001   0.00083   0.00097   0.00180   1.90191
    A2        1.89543   0.00121   0.00018   0.00285   0.00304   1.89848
    A3        1.91549  -0.00026  -0.00033   0.00182   0.00151   1.91701
    A4        1.90268  -0.00086  -0.00282   0.00184  -0.00099   1.90169
    A5        1.91599  -0.00005  -0.00182   0.00087  -0.00097   1.91501
    A6        1.93368  -0.00004   0.00391  -0.00820  -0.00429   1.92939
    A7        1.94419   0.00049  -0.00174   0.00395   0.00225   1.94644
    A8        1.91464  -0.00077  -0.00346  -0.00035  -0.00378   1.91086
    A9        1.91606  -0.00137   0.00454  -0.00841  -0.00388   1.91219
   A10        1.90256  -0.00020  -0.00260   0.00124  -0.00130   1.90127
   A11        1.89635   0.00083   0.00185   0.00214   0.00401   1.90036
   A12        1.88908   0.00106   0.00138   0.00145   0.00281   1.89188
    D1       -1.09331   0.00053   0.01535   0.05628   0.07164  -1.02167
    D2        1.01483   0.00009   0.00880   0.06017   0.06894   1.08376
    D3        3.08859   0.00009   0.01110   0.05664   0.06774  -3.12685
    D4        0.97460   0.00075   0.01485   0.06014   0.07499   1.04959
    D5        3.08273   0.00030   0.00829   0.06403   0.07229  -3.12816
    D6       -1.12669   0.00030   0.01060   0.06049   0.07110  -1.05559
    D7        3.08488   0.00010   0.01318   0.05726   0.07047  -3.12784
    D8       -1.09017  -0.00034   0.00663   0.06115   0.06777  -1.02240
    D9        0.98359  -0.00034   0.00894   0.05761   0.06657   1.05016
         Item               Value     Threshold  Converged?
 Maximum Force            0.002446     0.000450     NO 
 RMS     Force            0.000802     0.000300     NO 
 Maximum Displacement     0.086769     0.001800     NO 
 RMS     Displacement     0.037695     0.001200     NO 
 Predicted change in Energy=-7.392872D-05
 GradGradGradGradGradGradGradGradGradGradGradGradGradGradGradGradGradGrad

                          Input orientation:                          
 ---------------------------------------------------------------------
 Center     Atomic      Atomic             Coordinates (Angstroms)
 Number     Number       Type             X           Y           Z
 ---------------------------------------------------------------------
      1          6           0        0.973235   -0.030370    0.338919
      2          9           0        1.572454   -0.626398   -0.704832
      3          9           0       -0.836325    0.644586   -1.032250
      4          9           0       -1.003147   -1.248307    0.003240
      5          9           0        1.424534    1.232205    0.439471
      6          6           0       -0.541518   -0.000278    0.088090
      7          9           0       -1.149879    0.604368    1.106029
      8          1           0        1.198554   -0.575830    1.255902
 ---------------------------------------------------------------------
                    Distance matrix (angstroms):
                    1          2          3          4          5
     1  C    0.000000
     2  F    1.343030   0.000000
     3  F    2.368582   2.743141   0.000000
     4  F    2.345664   2.742600   2.164050   0.000000
     5  F    1.344573   2.187628   2.760931   3.498124   0.000000
     6  C    1.535676   2.342996   1.325867   1.333370   2.346879
     7  F    2.344987   3.493580   2.161520   2.161036   2.732413
     8  H    1.090483   1.996706   3.296330   2.620854   1.996652
                    6          7          8
     6  C    0.000000
     7  F    1.331127   0.000000
     8  H    2.173223   2.632579   0.000000
 Stoichiometry    C2HF5
 Framework group  C1[X(C2HF5)]
 Deg. of freedom    18
 Full point group                 C1      NOp   1
 Largest Abelian subgroup         C1      NOp   1
 Largest concise Abelian subgroup C1      NOp   1
                         Standard orientation:                         
 ---------------------------------------------------------------------
 Center     Atomic      Atomic             Coordinates (Angstroms)
 Number     Number       Type             X           Y           Z
 ---------------------------------------------------------------------
      1          6           0       -0.856858    0.001642    0.437885
      2          9           0       -1.453470    1.096178   -0.061890
      3          9           0        0.731777    0.014756   -1.318886
      4          9           0        1.230141    1.070425    0.503285
      5          9           0       -1.461872   -1.091432   -0.059128
      6          6           0        0.615591   -0.001349    0.001782
      7          9           0        1.218028   -1.090379    0.473990
      8          1           0       -0.933834    0.002313    1.525648
 ---------------------------------------------------------------------
 Rotational constants (GHZ):           3.6977521           2.4186466           2.0061093
 Standard basis: 6-311+G(2d,2p) (5D, 7F)
 There are   212 symmetry adapted cartesian basis functions of A   symmetry.
 There are   198 symmetry adapted basis functions of A   symmetry.
   198 basis functions,   305 primitive gaussians,   212 cartesian basis functions
    29 alpha electrons       29 beta electrons
       nuclear repulsion energy       360.4583523834 Hartrees.
 NAtoms=    8 NActive=    8 NUniq=    8 SFac= 1.00D+00 NAtFMM=   60 NAOKFM=F Big=F
 Integral buffers will be    131072 words long.
 Raffenetti 2 integral format.
 Two-electron integral symmetry is turned on.
 Nuclear repulsion after empirical dispersion term =      360.4561628205 Hartrees.
 One-electron integrals computed using PRISM.
 NBasis=   198 RedAO= T EigKep=  1.53D-04  NBF=   198
 NBsUse=   198 1.00D-06 EigRej= -1.00D+00 NBFU=   198
 Initial guess from the checkpoint file:  "c2f5h.chk"
 B after Tr=     0.000000   -0.000000    0.000000
         Rot=    0.999730   -0.023037    0.000821    0.002836 Ang=  -2.66 deg.
 ExpMin= 4.38D-02 ExpMax= 1.14D+04 ExpMxC= 1.72D+03 IAcc=3 IRadAn=         5 AccDes= 0.00D+00
 Harris functional with IExCor= 4639 and IRadAn=       5 diagonalized for initial guess.
 HarFok:  IExCor= 4639 AccDes= 0.00D+00 IRadAn=         5 IDoV= 1 UseB2=F ITyADJ=14
 ICtDFT=  3500011 ScaDFX=  1.000000  1.000000  1.000000  1.000000
 FoFCou: FMM=F IPFlag=           0 FMFlag=      100000 FMFlg1=           0
         NFxFlg=           0 DoJE=T BraDBF=F KetDBF=T FulRan=T
         wScrn=  0.000000 ICntrl=       500 IOpCl=  0 I1Cent=   200000004 NGrid=           0
         NMat0=    1 NMatS0=      1 NMatT0=    0 NMatD0=    1 NMtDS0=    0 NMtDT0=    0
 Petite list used in FoFCou.
 Keep R1 ints in memory in canonical form, NReq=413232258.
 Requested convergence on RMS density matrix=1.00D-08 within  32 cycles.
 Requested convergence on MAX density matrix=1.00D-06.
 Requested convergence on             energy=1.00D-06.
 No special actions if energy rises.
 SCF Done:  E(RwB97XD) =  -576.060181136     A.U. after    9 cycles
            NFock=  9  Conv=0.80D-08     -V/T= 2.0025
 QCSCF skips out because SCF is already converged.
 Calling FoFJK, ICntrl=      2127 FMM=F ISym2X=0 I1Cent= 0 IOpClX= 0 NMat=1 NMatS=1 NMatT=0.
 ***** Axes restored to original set *****
 -------------------------------------------------------------------
 Center     Atomic                   Forces (Hartrees/Bohr)
 Number     Number              X              Y              Z
 -------------------------------------------------------------------
      1        6          -0.000624206    0.000225331    0.000494547
      2        9           0.000758296   -0.000445204   -0.000530288
      3        9          -0.000261369   -0.000310339    0.000125228
      4        9           0.000115392    0.000385135   -0.000293269
      5        9          -0.000038669   -0.000118565   -0.000090930
      6        6           0.000346090   -0.000114172   -0.000561376
      7        9          -0.000578413    0.000454598    0.000760008
      8        1           0.000282878   -0.000076785    0.000096079
 -------------------------------------------------------------------
 Cartesian Forces:  Max     0.000760008 RMS     0.000400683

 GradGradGradGradGradGradGradGradGradGradGradGradGradGradGradGradGradGrad
 Berny optimization.
 Using GEDIIS/GDIIS optimizer.
 FormGI is forming the generalized inverse of G from B-inverse, IUseBI=4.
 Internal  Forces:  Max     0.001052000 RMS     0.000364878
 Search for a local minimum.
 Step number  15 out of a maximum of   38
 All quantities printed in internal units (Hartrees-Bohrs-Radians)
 Mixed Optimization -- En-DIIS/RFO-DIIS
 Swapping is turned off.
 Update second derivatives using D2CorX and points   12   13   14   15
 DE= -6.10D-05 DEPred=-7.39D-05 R= 8.25D-01
 TightC=F SS=  1.41D+00  RLast= 2.11D-01 DXNew= 1.4270D+00 6.3289D-01
 Trust test= 8.25D-01 RLast= 2.11D-01 DXMaxT set to 8.49D-01
 ITU=  1  1  1  0  1  0  0  1  0  1  1  1  1  1  0
     Eigenvalues ---    0.00269   0.06533   0.07936   0.08839   0.09820
     Eigenvalues ---    0.14377   0.22424   0.24054   0.25544   0.29500
     Eigenvalues ---    0.32676   0.35213   0.40503   0.52923   0.57082
     Eigenvalues ---    0.63174   0.64216   0.74625
 En-DIIS/RFO-DIIS/Sim-DIIS IScMMF=       -3 using points:    15   14
 RFO step:  Lambda=-1.37999412D-05.
 DidBck=T Rises=F RFO-DIIS coefs:    0.78798    0.21202
 Iteration  1 RMS(Cart)=  0.00813080 RMS(Int)=  0.00003015
 Iteration  2 RMS(Cart)=  0.00003125 RMS(Int)=  0.00000133
 Iteration  3 RMS(Cart)=  0.00000000 RMS(Int)=  0.00000133
 Variable       Old X    -DE/DX   Delta X   Delta X   Delta X     New X
                                 (Linear)    (Quad)   (Total)
    R1        2.53796   0.00095   0.00032   0.00115   0.00147   2.53942
    R2        2.54087  -0.00013   0.00103  -0.00108  -0.00005   2.54082
    R3        2.90201   0.00038   0.00080  -0.00027   0.00053   2.90254
    R4        2.06071   0.00018   0.00000   0.00032   0.00032   2.06103
    R5        2.50552  -0.00020  -0.00009  -0.00062  -0.00071   2.50481
    R6        2.51970  -0.00038  -0.00020  -0.00112  -0.00132   2.51839
    R7        2.51547   0.00105  -0.00002   0.00218   0.00217   2.51763
    A1        1.90191  -0.00023  -0.00038  -0.00053  -0.00091   1.90100
    A2        1.89848   0.00065  -0.00065   0.00303   0.00238   1.90086
    A3        1.91701  -0.00042  -0.00032  -0.00082  -0.00115   1.91586
    A4        1.90169  -0.00017   0.00021  -0.00149  -0.00128   1.90041
    A5        1.91501  -0.00008   0.00021  -0.00066  -0.00045   1.91456
    A6        1.92939   0.00026   0.00091   0.00049   0.00140   1.93079
    A7        1.94644   0.00049  -0.00048   0.00232   0.00185   1.94828
    A8        1.91086  -0.00004   0.00080  -0.00066   0.00014   1.91100
    A9        1.91219   0.00016   0.00082  -0.00168  -0.00086   1.91133
   A10        1.90127  -0.00041   0.00027  -0.00142  -0.00115   1.90012
   A11        1.90036  -0.00022  -0.00085   0.00059  -0.00026   1.90010
   A12        1.89188  -0.00000  -0.00059   0.00083   0.00024   1.89212
    D1       -1.02167   0.00011  -0.01519   0.00086  -0.01433  -1.03600
    D2        1.08376  -0.00012  -0.01462   0.00013  -0.01448   1.06928
    D3       -3.12685  -0.00004  -0.01436  -0.00026  -0.01462  -3.14147
    D4        1.04959   0.00010  -0.01590   0.00111  -0.01479   1.03481
    D5       -3.12816  -0.00012  -0.01533   0.00039  -0.01494   3.14009
    D6       -1.05559  -0.00005  -0.01507  -0.00000  -0.01508  -1.07067
    D7       -3.12784   0.00006  -0.01494  -0.00036  -0.01530   3.14005
    D8       -1.02240  -0.00017  -0.01437  -0.00108  -0.01545  -1.03786
    D9        1.05016  -0.00010  -0.01411  -0.00147  -0.01559   1.03458
         Item               Value     Threshold  Converged?
 Maximum Force            0.001052     0.000450     NO 
 RMS     Force            0.000365     0.000300     NO 
 Maximum Displacement     0.018315     0.001800     NO 
 RMS     Displacement     0.008131     0.001200     NO 
 Predicted change in Energy=-6.914880D-06
 GradGradGradGradGradGradGradGradGradGradGradGradGradGradGradGradGradGrad

                          Input orientation:                          
 ---------------------------------------------------------------------
 Center     Atomic      Atomic             Coordinates (Angstroms)
 Number     Number       Type             X           Y           Z
 ---------------------------------------------------------------------
      1          6           0        0.973114   -0.030661    0.339062
      2          9           0        1.574821   -0.635049   -0.699435
      3          9           0       -0.838873    0.651734   -1.027657
      4          9           0       -1.002311   -1.247085   -0.006253
      5          9           0        1.424836    1.232477    0.429779
      6          6           0       -0.541816   -0.000028    0.087638
      7          9           0       -1.150711    0.597422    1.110992
      8          1           0        1.198847   -0.568834    1.260440
 ---------------------------------------------------------------------
                    Distance matrix (angstroms):
                    1          2          3          4          5
     1  C    0.000000
     2  F    1.343806   0.000000
     3  F    2.369996   2.754898   0.000000
     4  F    2.345470   2.738010   2.162288   0.000000
     5  F    1.344545   2.187526   2.754226   3.497054   0.000000
     6  C    1.535957   2.345824   1.325489   1.332674   2.346028
     7  F    2.345420   3.496449   2.161946   2.161588   2.738757
     8  H    1.090652   1.996710   3.298102   2.628618   1.996444
                    6          7          8
     6  C    0.000000
     7  F    1.332274   0.000000
     8  H    2.174606   2.627339   0.000000
 Stoichiometry    C2HF5
 Framework group  C1[X(C2HF5)]
 Deg. of freedom    18
 Full point group                 C1      NOp   1
 Largest Abelian subgroup         C1      NOp   1
 Largest concise Abelian subgroup C1      NOp   1
                         Standard orientation:                         
 ---------------------------------------------------------------------
 Center     Atomic      Atomic             Coordinates (Angstroms)
 Number     Number       Type             X           Y           Z
 ---------------------------------------------------------------------
      1          6           0       -0.857182    0.000547    0.437391
      2          9           0       -1.458350    1.093937   -0.061515
      3          9           0        0.734801   -0.001521   -1.318304
      4          9           0        1.223852    1.081256    0.488326
      5          9           0       -1.458972   -1.093589   -0.061123
      6          6           0        0.615722   -0.000185    0.001824
      7          9           0        1.223658   -1.080332    0.490341
      8          1           0       -0.936147    0.000067    1.525181
 ---------------------------------------------------------------------
 Rotational constants (GHZ):           3.6975852           2.4167983           2.0045595
 Standard basis: 6-311+G(2d,2p) (5D, 7F)
 There are   212 symmetry adapted cartesian basis functions of A   symmetry.
 There are   198 symmetry adapted basis functions of A   symmetry.
   198 basis functions,   305 primitive gaussians,   212 cartesian basis functions
    29 alpha electrons       29 beta electrons
       nuclear repulsion energy       360.3834425137 Hartrees.
 NAtoms=    8 NActive=    8 NUniq=    8 SFac= 1.00D+00 NAtFMM=   60 NAOKFM=F Big=F
 Integral buffers will be    131072 words long.
 Raffenetti 2 integral format.
 Two-electron integral symmetry is turned on.
 Nuclear repulsion after empirical dispersion term =      360.3812514584 Hartrees.
 One-electron integrals computed using PRISM.
 NBasis=   198 RedAO= T EigKep=  1.53D-04  NBF=   198
 NBsUse=   198 1.00D-06 EigRej= -1.00D+00 NBFU=   198
 Initial guess from the checkpoint file:  "c2f5h.chk"
 B after Tr=    -0.000000    0.000000    0.000000
         Rot=    0.999990    0.004258    0.000423   -0.001600 Ang=   0.52 deg.
 Keep R1 ints in memory in canonical form, NReq=413232258.
 Requested convergence on RMS density matrix=1.00D-08 within  32 cycles.
 Requested convergence on MAX density matrix=1.00D-06.
 Requested convergence on             energy=1.00D-06.
 No special actions if energy rises.
 SCF Done:  E(RwB97XD) =  -576.060188579     A.U. after    8 cycles
            NFock=  8  Conv=0.53D-08     -V/T= 2.0025
 QCSCF skips out because SCF is already converged.
 Calling FoFJK, ICntrl=      2127 FMM=F ISym2X=0 I1Cent= 0 IOpClX= 0 NMat=1 NMatS=1 NMatT=0.
 ***** Axes restored to original set *****
 -------------------------------------------------------------------
 Center     Atomic                   Forces (Hartrees/Bohr)
 Number     Number              X              Y              Z
 -------------------------------------------------------------------
      1        6          -0.000122522    0.000314857    0.000210955
      2        9           0.000175079   -0.000195934   -0.000215475
      3        9          -0.000038270   -0.000029322   -0.000004087
      4        9          -0.000056458   -0.000070485   -0.000060908
      5        9          -0.000002497   -0.000032763    0.000013418
      6        6           0.000160712   -0.000091900   -0.000158052
      7        9          -0.000160901    0.000174244    0.000223688
      8        1           0.000044856   -0.000068697   -0.000009539
 -------------------------------------------------------------------
 Cartesian Forces:  Max     0.000314857 RMS     0.000138737

 GradGradGradGradGradGradGradGradGradGradGradGradGradGradGradGradGradGrad
 Berny optimization.
 Using GEDIIS/GDIIS optimizer.
 FormGI is forming the generalized inverse of G from B-inverse, IUseBI=4.
 Internal  Forces:  Max     0.000333031 RMS     0.000096911
 Search for a local minimum.
 Step number  16 out of a maximum of   38
 All quantities printed in internal units (Hartrees-Bohrs-Radians)
 Mixed Optimization -- En-DIIS/RFO-DIIS
 Swapping is turned off.
 Update second derivatives using D2CorX and points   12   13   14   15   16
 DE= -7.44D-06 DEPred=-6.91D-06 R= 1.08D+00
 TightC=F SS=  1.41D+00  RLast= 4.52D-02 DXNew= 1.4270D+00 1.3551D-01
 Trust test= 1.08D+00 RLast= 4.52D-02 DXMaxT set to 8.49D-01
 ITU=  1  1  1  1  0  1  0  0  1  0  1  1  1  1  1  0
     Eigenvalues ---    0.00284   0.06527   0.07941   0.09079   0.09799
     Eigenvalues ---    0.14553   0.21634   0.24016   0.25806   0.30000
     Eigenvalues ---    0.32860   0.35305   0.41792   0.50006   0.56710
     Eigenvalues ---    0.60837   0.63698   0.73866
 En-DIIS/RFO-DIIS/Sim-DIIS IScMMF=       -3 using points:    16   15   14
 RFO step:  Lambda=-6.41531296D-07.
 DidBck=F Rises=F RFO-DIIS coefs:    1.02554   -0.01203   -0.01351
 Iteration  1 RMS(Cart)=  0.00041620 RMS(Int)=  0.00000014
 Iteration  2 RMS(Cart)=  0.00000012 RMS(Int)=  0.00000007
 Variable       Old X    -DE/DX   Delta X   Delta X   Delta X     New X
                                 (Linear)    (Quad)   (Total)
    R1        2.53942   0.00033   0.00002   0.00065   0.00067   2.54009
    R2        2.54082  -0.00003  -0.00007   0.00003  -0.00004   2.54078
    R3        2.90254   0.00009  -0.00004   0.00006   0.00002   2.90256
    R4        2.06103   0.00004   0.00001   0.00005   0.00006   2.06109
    R5        2.50481  -0.00000  -0.00001  -0.00012  -0.00014   2.50467
    R6        2.51839   0.00009  -0.00002   0.00003   0.00001   2.51840
    R7        2.51763   0.00032   0.00006   0.00062   0.00067   2.51830
    A1        1.90100  -0.00000   0.00000   0.00016   0.00016   1.90116
    A2        1.90086   0.00005   0.00010   0.00002   0.00012   1.90098
    A3        1.91586  -0.00008  -0.00001  -0.00077  -0.00078   1.91508
    A4        1.90041   0.00002  -0.00005   0.00012   0.00007   1.90048
    A5        1.91456  -0.00001  -0.00002   0.00028   0.00026   1.91482
    A6        1.93079   0.00003  -0.00002   0.00020   0.00017   1.93096
    A7        1.94828   0.00004   0.00008   0.00010   0.00018   1.94846
    A8        1.91100   0.00005  -0.00005   0.00027   0.00022   1.91122
    A9        1.91133   0.00002  -0.00007  -0.00005  -0.00012   1.91121
   A10        1.90012  -0.00007  -0.00005  -0.00020  -0.00024   1.89988
   A11        1.90010  -0.00004   0.00005  -0.00029  -0.00024   1.89986
   A12        1.89212  -0.00000   0.00004   0.00016   0.00020   1.89233
    D1       -1.03600  -0.00002   0.00060  -0.00045   0.00015  -1.03585
    D2        1.06928  -0.00005   0.00056  -0.00046   0.00011   1.06939
    D3       -3.14147  -0.00001   0.00054  -0.00013   0.00041  -3.14106
    D4        1.03481   0.00002   0.00064  -0.00018   0.00045   1.03526
    D5        3.14009  -0.00001   0.00060  -0.00018   0.00041   3.14050
    D6       -1.07067   0.00003   0.00058   0.00014   0.00072  -1.06995
    D7        3.14005   0.00003   0.00056   0.00037   0.00093   3.14098
    D8       -1.03786   0.00000   0.00052   0.00036   0.00089  -1.03697
    D9        1.03458   0.00004   0.00050   0.00069   0.00119   1.03577
         Item               Value     Threshold  Converged?
 Maximum Force            0.000333     0.000450     YES
 RMS     Force            0.000097     0.000300     YES
 Maximum Displacement     0.001116     0.001800     YES
 RMS     Displacement     0.000416     0.001200     YES
 Predicted change in Energy=-3.207331D-07
 Optimization completed.
    -- Stationary point found.
                           ----------------------------
                           !   Optimized Parameters   !
                           ! (Angstroms and Degrees)  !
 --------------------------                            --------------------------
 ! Name  Definition              Value          Derivative Info.                !
 --------------------------------------------------------------------------------
 ! R1    R(1,2)                  1.3438         -DE/DX =    0.0003              !
 ! R2    R(1,5)                  1.3445         -DE/DX =    0.0                 !
 ! R3    R(1,6)                  1.536          -DE/DX =    0.0001              !
 ! R4    R(1,8)                  1.0907         -DE/DX =    0.0                 !
 ! R5    R(3,6)                  1.3255         -DE/DX =    0.0                 !
 ! R6    R(4,6)                  1.3327         -DE/DX =    0.0001              !
 ! R7    R(6,7)                  1.3323         -DE/DX =    0.0003              !
 ! A1    A(2,1,5)              108.9192         -DE/DX =    0.0                 !
 ! A2    A(2,1,6)              108.9112         -DE/DX =    0.0                 !
 ! A3    A(2,1,8)              109.7707         -DE/DX =   -0.0001              !
 ! A4    A(5,1,6)              108.8853         -DE/DX =    0.0                 !
 ! A5    A(5,1,8)              109.6961         -DE/DX =    0.0                 !
 ! A6    A(6,1,8)              110.6259         -DE/DX =    0.0                 !
 ! A7    A(1,6,3)              111.6283         -DE/DX =    0.0                 !
 ! A8    A(1,6,4)              109.4924         -DE/DX =    0.0001              !
 ! A9    A(1,6,7)              109.5109         -DE/DX =    0.0                 !
 ! A10   A(3,6,4)              108.8689         -DE/DX =   -0.0001              !
 ! A11   A(3,6,7)              108.8677         -DE/DX =    0.0                 !
 ! A12   A(4,6,7)              108.4107         -DE/DX =    0.0                 !
 ! D1    D(2,1,6,3)            -59.3583         -DE/DX =    0.0                 !
 ! D2    D(2,1,6,4)             61.2654         -DE/DX =    0.0                 !
 ! D3    D(2,1,6,7)           -179.993          -DE/DX =    0.0                 !
 ! D4    D(5,1,6,3)             59.2901         -DE/DX =    0.0                 !
 ! D5    D(5,1,6,4)            179.9138         -DE/DX =    0.0                 !
 ! D6    D(5,1,6,7)            -61.3446         -DE/DX =    0.0                 !
 ! D7    D(8,1,6,3)            179.9115         -DE/DX =    0.0                 !
 ! D8    D(8,1,6,4)            -59.4648         -DE/DX =    0.0                 !
 ! D9    D(8,1,6,7)             59.2768         -DE/DX =    0.0                 !
 --------------------------------------------------------------------------------
 GradGradGradGradGradGradGradGradGradGradGradGradGradGradGradGradGradGrad

                          Input orientation:                          
 ---------------------------------------------------------------------
 Center     Atomic      Atomic             Coordinates (Angstroms)
 Number     Number       Type             X           Y           Z
 ---------------------------------------------------------------------
      1          6           0        0.973114   -0.030661    0.339062
      2          9           0        1.574821   -0.635049   -0.699435
      3          9           0       -0.838873    0.651734   -1.027657
      4          9           0       -1.002311   -1.247085   -0.006253
      5          9           0        1.424836    1.232477    0.429779
      6          6           0       -0.541816   -0.000028    0.087638
      7          9           0       -1.150711    0.597422    1.110992
      8          1           0        1.198847   -0.568834    1.260440
 ---------------------------------------------------------------------
                    Distance matrix (angstroms):
                    1          2          3          4          5
     1  C    0.000000
     2  F    1.343806   0.000000
     3  F    2.369996   2.754898   0.000000
     4  F    2.345470   2.738010   2.162288   0.000000
     5  F    1.344545   2.187526   2.754226   3.497054   0.000000
     6  C    1.535957   2.345824   1.325489   1.332674   2.346028
     7  F    2.345420   3.496449   2.161946   2.161588   2.738757
     8  H    1.090652   1.996710   3.298102   2.628618   1.996444
                    6          7          8
     6  C    0.000000
     7  F    1.332274   0.000000
     8  H    2.174606   2.627339   0.000000
 Stoichiometry    C2HF5
 Framework group  C1[X(C2HF5)]
 Deg. of freedom    18
 Full point group                 C1      NOp   1
 Largest Abelian subgroup         C1      NOp   1
 Largest concise Abelian subgroup C1      NOp   1
                         Standard orientation:                         
 ---------------------------------------------------------------------
 Center     Atomic      Atomic             Coordinates (Angstroms)
 Number     Number       Type             X           Y           Z
 ---------------------------------------------------------------------
      1          6           0       -0.857182    0.000547    0.437391
      2          9           0       -1.458350    1.093937   -0.061515
      3          9           0        0.734801   -0.001521   -1.318304
      4          9           0        1.223852    1.081256    0.488326
      5          9           0       -1.458972   -1.093589   -0.061123
      6          6           0        0.615722   -0.000185    0.001824
      7          9           0        1.223658   -1.080332    0.490341
      8          1           0       -0.936147    0.000067    1.525181
 ---------------------------------------------------------------------
 Rotational constants (GHZ):           3.6975852           2.4167983           2.0045595

 **********************************************************************

            Population analysis using the SCF density.

 **********************************************************************

 Orbital symmetries:
       Occupied  (A) (A) (A) (A) (A) (A) (A) (A) (A) (A) (A) (A)
                 (A) (A) (A) (A) (A) (A) (A) (A) (A) (A) (A) (A)
                 (A) (A) (A) (A) (A)
       Virtual   (A) (A) (A) (A) (A) (A) (A) (A) (A) (A) (A) (A)
                 (A) (A) (A) (A) (A) (A) (A) (A) (A) (A) (A) (A)
                 (A) (A) (A) (A) (A) (A) (A) (A) (A) (A) (A) (A)
                 (A) (A) (A) (A) (A) (A) (A) (A) (A) (A) (A) (A)
                 (A) (A) (A) (A) (A) (A) (A) (A) (A) (A) (A) (A)
                 (A) (A) (A) (A) (A) (A) (A) (A) (A) (A) (A) (A)
                 (A) (A) (A) (A) (A) (A) (A) (A) (A) (A) (A) (A)
                 (A) (A) (A) (A) (A) (A) (A) (A) (A) (A) (A) (A)
                 (A) (A) (A) (A) (A) (A) (A) (A) (A) (A) (A) (A)
                 (A) (A) (A) (A) (A) (A) (A) (A) (A) (A) (A) (A)
                 (A) (A) (A) (A) (A) (A) (A) (A) (A) (A) (A) (A)
                 (A) (A) (A) (A) (A) (A) (A) (A) (A) (A) (A) (A)
                 (A) (A) (A) (A) (A) (A) (A) (A) (A) (A) (A) (A)
                 (A) (A) (A) (A) (A) (A) (A) (A) (A) (A) (A) (A)
                 (A)
 The electronic state is 1-A.
 Alpha  occ. eigenvalues --  -24.87163 -24.87152 -24.87041 -24.85749 -24.85726
 Alpha  occ. eigenvalues --  -10.56893 -10.49396  -1.46170  -1.40652  -1.36871
 Alpha  occ. eigenvalues --   -1.36769  -1.34625  -0.90685  -0.80523  -0.73371
 Alpha  occ. eigenvalues --   -0.72788  -0.72730  -0.68030  -0.67743  -0.59545
 Alpha  occ. eigenvalues --   -0.59247  -0.58991  -0.56527  -0.55273  -0.54973
 Alpha  occ. eigenvalues --   -0.53312  -0.53067  -0.52822  -0.46380
 Alpha virt. eigenvalues --    0.06501   0.08982   0.09141   0.09349   0.12863
 Alpha virt. eigenvalues --    0.13361   0.13688   0.16658   0.17420   0.19525
 Alpha virt. eigenvalues --    0.22412   0.26363   0.27207   0.27383   0.28933
 Alpha virt. eigenvalues --    0.29852   0.32747   0.33256   0.33459   0.33801
 Alpha virt. eigenvalues --    0.35697   0.36143   0.37492   0.37818   0.40054
 Alpha virt. eigenvalues --    0.40103   0.41627   0.42830   0.43733   0.44070
 Alpha virt. eigenvalues --    0.44859   0.50076   0.50110   0.51170   0.51965
 Alpha virt. eigenvalues --    0.55958   0.60955   0.64904   0.68009   0.71796
 Alpha virt. eigenvalues --    0.75034   0.77411   0.83399   0.86452   0.94936
 Alpha virt. eigenvalues --    1.00214   1.03226   1.08677   1.09439   1.15232
 Alpha virt. eigenvalues --    1.20535   1.26074   1.26958   1.31346   1.32728
 Alpha virt. eigenvalues --    1.34210   1.37197   1.37933   1.39343   1.40752
 Alpha virt. eigenvalues --    1.43812   1.44356   1.45536   1.46420   1.46865
 Alpha virt. eigenvalues --    1.50610   1.51065   1.52260   1.52310   1.60341
 Alpha virt. eigenvalues --    1.61741   1.64297   1.90439   1.93870   1.97850
 Alpha virt. eigenvalues --    1.98059   2.02808   2.06606   2.07876   2.08590
 Alpha virt. eigenvalues --    2.10770   2.11620   2.14652   2.15866   2.19793
 Alpha virt. eigenvalues --    2.21524   2.25564   2.30180   2.33637   2.44715
 Alpha virt. eigenvalues --    2.51287   2.54712   2.63481   2.64770   2.65520
 Alpha virt. eigenvalues --    2.69780   2.74610   2.81144   2.86352   2.89817
 Alpha virt. eigenvalues --    3.02634   3.11126   3.13287   3.25503   3.45123
 Alpha virt. eigenvalues --    3.45839   3.49601   3.52296   3.53593   3.55703
 Alpha virt. eigenvalues --    3.58599   3.59142   3.61830   3.64445   3.81172
 Alpha virt. eigenvalues --    4.09477   4.10494   4.27596   4.32795   4.32997
 Alpha virt. eigenvalues --    4.44828   4.93289   6.38413   6.38829   6.39854
 Alpha virt. eigenvalues --    6.40214   6.43472   6.46009   6.46485   6.47354
 Alpha virt. eigenvalues --    6.50067   6.51578   6.54073   6.65862   6.83043
 Alpha virt. eigenvalues --    6.87178   6.88306   9.07770   9.10397   9.11086
 Alpha virt. eigenvalues --    9.11300   9.15452   9.17964   9.21284   9.21849
 Alpha virt. eigenvalues --    9.23389   9.24563   9.26284   9.26374   9.33988
 Alpha virt. eigenvalues --    9.35019   9.40566   9.47688   9.50753   9.63394
 Alpha virt. eigenvalues --    9.69233   9.73639   9.74399   9.75723   9.82257
 Alpha virt. eigenvalues --    9.88667   9.88923  23.96333  24.06055  66.92682
 Alpha virt. eigenvalues --   66.93910  66.94561  66.94684  67.00987
          Condensed to atoms (all electrons):
               1          2          3          4          5          6
     1  C    4.524139   0.216148  -0.087259  -0.090347   0.216206   0.345836
     2  F    0.216148   9.158353   0.016929   0.018430   0.008046  -0.088264
     3  F   -0.087259   0.016929   9.092382  -0.000578   0.016907   0.243547
     4  F   -0.090347   0.018430  -0.000578   9.115198   0.000152   0.252578
     5  F    0.216206   0.008046   0.016907   0.000152   9.158548  -0.088175
     6  C    0.345836  -0.088264   0.243547   0.252578  -0.088175   4.327560
     7  F   -0.090424   0.000149  -0.000581  -0.000362   0.018400   0.252638
     8  H    0.470291  -0.040200   0.004995   0.001800  -0.040256  -0.054876
               7          8
     1  C   -0.090424   0.470291
     2  F    0.000149  -0.040200
     3  F   -0.000581   0.004995
     4  F   -0.000362   0.001800
     5  F    0.018400  -0.040256
     6  C    0.252638  -0.054876
     7  F    9.115077   0.001833
     8  H    0.001833   0.501614
 Mulliken charges:
               1
     1  C    0.495410
     2  F   -0.289592
     3  F   -0.286342
     4  F   -0.296871
     5  F   -0.289828
     6  C    0.809155
     7  F   -0.296731
     8  H    0.154800
 Sum of Mulliken charges =  -0.00000
 Mulliken charges with hydrogens summed into heavy atoms:
               1
     1  C    0.650210
     2  F   -0.289592
     3  F   -0.286342
     4  F   -0.296871
     5  F   -0.289828
     6  C    0.809155
     7  F   -0.296731
 Electronic spatial extent (au):  <R**2>=            596.3763
 Charge=              0.0000 electrons
 Dipole moment (field-independent basis, Debye):
    X=             -0.2573    Y=              0.0018    Z=              1.5676  Tot=              1.5886
 Quadrupole moment (field-independent basis, Debye-Ang):
   XX=            -38.3925   YY=            -38.7755   ZZ=            -34.6292
   XY=             -0.0073   XZ=             -1.8420   YZ=             -0.0002
 Traceless Quadrupole moment (field-independent basis, Debye-Ang):
   XX=             -1.1267   YY=             -1.5098   ZZ=              2.6365
   XY=             -0.0073   XZ=             -1.8420   YZ=             -0.0002
 Octapole moment (field-independent basis, Debye-Ang**2):
  XXX=              3.4987  YYY=             -0.0020  ZZZ=              1.0672  XYY=              1.7374
  XXY=              0.0045  XXZ=             -0.0985  XZZ=             -2.4667  YZZ=              0.0023
  YYZ=             -1.8340  XYZ=             -0.0010
 Hexadecapole moment (field-independent basis, Debye-Ang**3):
 XXXX=           -298.2667 YYYY=           -165.5862 ZZZZ=           -100.3171 XXXY=             -0.0217
 XXXZ=             -0.2347 YYYX=             -0.0107 YYYZ=             -0.0022 ZZZX=             -0.0803
 ZZZY=             -0.0031 XXYY=            -81.3328 XXZZ=            -65.1411 YYZZ=            -44.9561
 XXYZ=             -0.0000 YYXZ=              0.8293 ZZXY=             -0.0011
 N-N= 3.603812514584D+02 E-N=-2.090565897390D+03  KE= 5.746072814168D+02
 1\1\GINC-CCLEARCR\FOpt\RwB97XD\6-311+G(2d,2p)\C2H1F5\RAPPE\02-Jun-2024
 \0\\# opt wb97xd/6-311+g(2d,2p) freq geom=connectivity integral=grid=s
 uperfinegrid scf=(xqc,tight)\\Title Card Required\\0,1\C,0.973113509,-
 0.030661252,0.3390624037\F,1.5748212324,-0.6350491325,-0.6994349724\F,
 -0.8388731833,0.6517344249,-1.0276565021\F,-1.0023106057,-1.2470846315
 ,-0.0062533372\F,1.4248360286,1.2324767272,0.4297787921\C,-0.541815775
 1,-0.0000282153,0.0876384495\F,-1.1507113498,0.597421748,1.1109920963\
 H,1.1988471439,-0.5688336688,1.2604400701\\Version=EM64M-G16RevA.03\St
 ate=1-A\HF=-576.0601886\RMSD=5.342e-09\RMSF=1.387e-04\Dipole=0.183842,
 -0.298699,0.5173201\Quadrupole=-0.4190988,-0.5125682,0.931667,-0.83829
 19,1.470295,-1.1223879\PG=C01 [X(C2H1F5)]\\@


      THE ONE-EYED VIEW OF OUR UNIVERSE SAYS YOU MUST NOT LOOK
      FAR AFIELD FOR PROBLEMS.  SUCH PROBLEMS MAY NEVER ARRIVE. 
      INSTEAD, TEND TO THE WOLF WITHIN YOUR FENCES.
      THE PACKS RANGING OUTSIDE MAY NOT EVEN EXIST.

                              -- THE AZHAR BOOK SHAMRA I:4
                                 CHILDREN OF DUNE, BY FRANK HERBERT
 Job cpu time:       0 days  2 hours 40 minutes 40.2 seconds.
 Elapsed time:       0 days  0 hours  7 minutes 21.7 seconds.
 File lengths (MBytes):  RWF=     20 Int=      0 D2E=      0 Chk=      4 Scr=      1
 Normal termination of Gaussian 16 at Sun Jun  2 07:36:33 2024.
 Link1:  Proceeding to internal job step number  2.
 ----------------------------------------------------------------------
 #N Geom=AllCheck Guess=TCheck SCRF=Check GenChk RwB97XD/6-311+G(2d,2p)
  Freq
 ----------------------------------------------------------------------
 1/10=4,29=7,30=1,38=1,40=1/1,3;
 2/12=2,40=1/2;
 3/5=4,6=6,7=212,11=2,14=-4,25=1,30=1,70=2,71=2,74=-58,75=-7,116=1,140=1/1,2,3;
 4/5=101/1;
 5/5=2,8=3,13=1,32=2,38=6,98=1/2,8;
 8/6=4,10=90,11=11/1;
 11/6=1,8=1,9=11,15=111,16=1/1,2,10;
 10/6=1/2;
 6/7=2,8=2,9=2,10=2,28=1/1;
 7/8=1,10=1,25=1/1,2,3,16;
 1/10=4,30=1/3;
 99//99;
 Structure from the checkpoint file:  "c2f5h.chk"
 -------------------
 Title Card Required
 -------------------
 Charge =  0 Multiplicity = 1
 Redundant internal coordinates found in file.  (old form).
 C,0,0.973113509,-0.030661252,0.3390624037
 F,0,1.5748212324,-0.6350491325,-0.6994349724
 F,0,-0.8388731833,0.6517344249,-1.0276565021
 F,0,-1.0023106057,-1.2470846315,-0.0062533372
 F,0,1.4248360286,1.2324767272,0.4297787921
 C,0,-0.5418157751,-0.0000282153,0.0876384495
 F,0,-1.1507113498,0.597421748,1.1109920963
 H,0,1.1988471439,-0.5688336688,1.2604400701
 Recover connectivity data from disk.

 GradGradGradGradGradGradGradGradGradGradGradGradGradGradGradGradGradGrad
 Berny optimization.
 Initialization pass.
                           ----------------------------
                           !    Initial Parameters    !
                           ! (Angstroms and Degrees)  !
 --------------------------                            --------------------------
 ! Name  Definition              Value          Derivative Info.                !
 --------------------------------------------------------------------------------
 ! R1    R(1,2)                  1.3438         calculate D2E/DX2 analytically  !
 ! R2    R(1,5)                  1.3445         calculate D2E/DX2 analytically  !
 ! R3    R(1,6)                  1.536          calculate D2E/DX2 analytically  !
 ! R4    R(1,8)                  1.0907         calculate D2E/DX2 analytically  !
 ! R5    R(3,6)                  1.3255         calculate D2E/DX2 analytically  !
 ! R6    R(4,6)                  1.3327         calculate D2E/DX2 analytically  !
 ! R7    R(6,7)                  1.3323         calculate D2E/DX2 analytically  !
 ! A1    A(2,1,5)              108.9192         calculate D2E/DX2 analytically  !
 ! A2    A(2,1,6)              108.9112         calculate D2E/DX2 analytically  !
 ! A3    A(2,1,8)              109.7707         calculate D2E/DX2 analytically  !
 ! A4    A(5,1,6)              108.8853         calculate D2E/DX2 analytically  !
 ! A5    A(5,1,8)              109.6961         calculate D2E/DX2 analytically  !
 ! A6    A(6,1,8)              110.6259         calculate D2E/DX2 analytically  !
 ! A7    A(1,6,3)              111.6283         calculate D2E/DX2 analytically  !
 ! A8    A(1,6,4)              109.4924         calculate D2E/DX2 analytically  !
 ! A9    A(1,6,7)              109.5109         calculate D2E/DX2 analytically  !
 ! A10   A(3,6,4)              108.8689         calculate D2E/DX2 analytically  !
 ! A11   A(3,6,7)              108.8677         calculate D2E/DX2 analytically  !
 ! A12   A(4,6,7)              108.4107         calculate D2E/DX2 analytically  !
 ! D1    D(2,1,6,3)            -59.3583         calculate D2E/DX2 analytically  !
 ! D2    D(2,1,6,4)             61.2654         calculate D2E/DX2 analytically  !
 ! D3    D(2,1,6,7)           -179.993          calculate D2E/DX2 analytically  !
 ! D4    D(5,1,6,3)             59.2901         calculate D2E/DX2 analytically  !
 ! D5    D(5,1,6,4)            179.9138         calculate D2E/DX2 analytically  !
 ! D6    D(5,1,6,7)            -61.3446         calculate D2E/DX2 analytically  !
 ! D7    D(8,1,6,3)            179.9115         calculate D2E/DX2 analytically  !
 ! D8    D(8,1,6,4)            -59.4648         calculate D2E/DX2 analytically  !
 ! D9    D(8,1,6,7)             59.2768         calculate D2E/DX2 analytically  !
 --------------------------------------------------------------------------------
 Trust Radius=3.00D-01 FncErr=1.00D-07 GrdErr=1.00D-07 EigMax=2.50D+02 EigMin=1.00D-04
 Number of steps in this run=      2 maximum allowed number of steps=      2.
 GradGradGradGradGradGradGradGradGradGradGradGradGradGradGradGradGradGrad

                          Input orientation:                          
 ---------------------------------------------------------------------
 Center     Atomic      Atomic             Coordinates (Angstroms)
 Number     Number       Type             X           Y           Z
 ---------------------------------------------------------------------
      1          6           0        0.973114   -0.030661    0.339062
      2          9           0        1.574821   -0.635049   -0.699435
      3          9           0       -0.838873    0.651734   -1.027657
      4          9           0       -1.002311   -1.247085   -0.006253
      5          9           0        1.424836    1.232477    0.429779
      6          6           0       -0.541816   -0.000028    0.087638
      7          9           0       -1.150711    0.597422    1.110992
      8          1           0        1.198847   -0.568834    1.260440
 ---------------------------------------------------------------------
                    Distance matrix (angstroms):
                    1          2          3          4          5
     1  C    0.000000
     2  F    1.343806   0.000000
     3  F    2.369996   2.754898   0.000000
     4  F    2.345470   2.738010   2.162288   0.000000
     5  F    1.344545   2.187526   2.754226   3.497054   0.000000
     6  C    1.535957   2.345824   1.325489   1.332674   2.346028
     7  F    2.345420   3.496449   2.161946   2.161588   2.738757
     8  H    1.090652   1.996710   3.298102   2.628618   1.996444
                    6          7          8
     6  C    0.000000
     7  F    1.332274   0.000000
     8  H    2.174606   2.627339   0.000000
 Stoichiometry    C2HF5
 Framework group  C1[X(C2HF5)]
 Deg. of freedom    18
 Full point group                 C1      NOp   1
 Largest Abelian subgroup         C1      NOp   1
 Largest concise Abelian subgroup C1      NOp   1
                         Standard orientation:                         
 ---------------------------------------------------------------------
 Center     Atomic      Atomic             Coordinates (Angstroms)
 Number     Number       Type             X           Y           Z
 ---------------------------------------------------------------------
      1          6           0       -0.857182    0.000547    0.437391
      2          9           0       -1.458350    1.093937   -0.061515
      3          9           0        0.734801   -0.001521   -1.318304
      4          9           0        1.223852    1.081256    0.488326
      5          9           0       -1.458972   -1.093589   -0.061123
      6          6           0        0.615722   -0.000185    0.001824
      7          9           0        1.223658   -1.080332    0.490341
      8          1           0       -0.936147    0.000067    1.525181
 ---------------------------------------------------------------------
 Rotational constants (GHZ):           3.6975852           2.4167983           2.0045595
 Standard basis: 6-311+G(2d,2p) (5D, 7F)
 There are   212 symmetry adapted cartesian basis functions of A   symmetry.
 There are   198 symmetry adapted basis functions of A   symmetry.
   198 basis functions,   305 primitive gaussians,   212 cartesian basis functions
    29 alpha electrons       29 beta electrons
       nuclear repulsion energy       360.3834425137 Hartrees.
 NAtoms=    8 NActive=    8 NUniq=    8 SFac= 1.00D+00 NAtFMM=   60 NAOKFM=F Big=F
 Integral buffers will be    131072 words long.
 Raffenetti 2 integral format.
 Two-electron integral symmetry is turned on.
 Nuclear repulsion after empirical dispersion term =      360.3812514584 Hartrees.
 One-electron integrals computed using PRISM.
 NBasis=   198 RedAO= T EigKep=  1.53D-04  NBF=   198
 NBsUse=   198 1.00D-06 EigRej= -1.00D+00 NBFU=   198
 Initial guess from the checkpoint file:  "c2f5h.chk"
 B after Tr=     0.000000   -0.000000   -0.000000
         Rot=    1.000000   -0.000000   -0.000000   -0.000000 Ang=   0.00 deg.
 Keep R1 ints in memory in canonical form, NReq=413232258.
 Requested convergence on RMS density matrix=1.00D-08 within  32 cycles.
 Requested convergence on MAX density matrix=1.00D-06.
 Requested convergence on             energy=1.00D-06.
 No special actions if energy rises.
 SCF Done:  E(RwB97XD) =  -576.060188579     A.U. after    1 cycles
            NFock=  1  Conv=0.21D-08     -V/T= 2.0025
 QCSCF skips out because SCF is already converged.
 DoSCS=F DFT=T ScalE2(SS,OS)=  1.000000  1.000000
 Range of M.O.s used for correlation:     1   198
 NBasis=   198 NAE=    29 NBE=    29 NFC=     0 NFV=     0
 NROrb=    198 NOA=    29 NOB=    29 NVA=   169 NVB=   169

 **** Warning!!: The largest alpha MO coefficient is  0.34092417D+02

 Symmetrizing basis deriv contribution to polar:
 IMax=3 JMax=2 DiffMx= 0.00D+00
 G2DrvN: will do     9 centers at a time, making    1 passes.
 Calling FoFCou, ICntrl=  3107 FMM=F I1Cent=   0 AccDes= 0.00D+00.
 End of G2Drv F.D. properties file   721 does not exist.
 End of G2Drv F.D. properties file   722 does not exist.
 End of G2Drv F.D. properties file   788 does not exist.
          IDoAtm=11111111
          Differentiating once with respect to electric field.
                with respect to dipole field.
          Differentiating once with respect to nuclear coordinates.
 Keep R1 ints in memory in canonical form, NReq=413087247.
          There are    27 degrees of freedom in the 1st order CPHF.  IDoFFX=6 NUNeed=     3.
     24 vectors produced by pass  0 Test12= 1.82D-14 3.70D-09 XBig12= 8.94D+00 8.79D-01.
 AX will form    24 AO Fock derivatives at one time.
     24 vectors produced by pass  1 Test12= 1.82D-14 3.70D-09 XBig12= 1.64D+00 2.22D-01.
     24 vectors produced by pass  2 Test12= 1.82D-14 3.70D-09 XBig12= 4.50D-02 3.64D-02.
     24 vectors produced by pass  3 Test12= 1.82D-14 3.70D-09 XBig12= 8.50D-04 5.21D-03.
     24 vectors produced by pass  4 Test12= 1.82D-14 3.70D-09 XBig12= 1.04D-05 4.73D-04.
     24 vectors produced by pass  5 Test12= 1.82D-14 3.70D-09 XBig12= 5.99D-08 4.64D-05.
     24 vectors produced by pass  6 Test12= 1.82D-14 3.70D-09 XBig12= 3.90D-10 4.14D-06.
      7 vectors produced by pass  7 Test12= 1.82D-14 3.70D-09 XBig12= 2.27D-12 2.56D-07.
      3 vectors produced by pass  8 Test12= 1.82D-14 3.70D-09 XBig12= 1.19D-14 1.40D-08.
 InvSVY:  IOpt=1 It=  1 EMax= 1.33D-15
 Solved reduced A of dimension   178 with    27 vectors.
 Isotropic polarizability for W=    0.000000       29.23 Bohr**3.
 End of Minotr F.D. properties file   721 does not exist.
 End of Minotr F.D. properties file   722 does not exist.
 End of Minotr F.D. properties file   788 does not exist.

 **********************************************************************

            Population analysis using the SCF density.

 **********************************************************************

 Orbital symmetries:
       Occupied  (A) (A) (A) (A) (A) (A) (A) (A) (A) (A) (A) (A)
                 (A) (A) (A) (A) (A) (A) (A) (A) (A) (A) (A) (A)
                 (A) (A) (A) (A) (A)
       Virtual   (A) (A) (A) (A) (A) (A) (A) (A) (A) (A) (A) (A)
                 (A) (A) (A) (A) (A) (A) (A) (A) (A) (A) (A) (A)
                 (A) (A) (A) (A) (A) (A) (A) (A) (A) (A) (A) (A)
                 (A) (A) (A) (A) (A) (A) (A) (A) (A) (A) (A) (A)
                 (A) (A) (A) (A) (A) (A) (A) (A) (A) (A) (A) (A)
                 (A) (A) (A) (A) (A) (A) (A) (A) (A) (A) (A) (A)
                 (A) (A) (A) (A) (A) (A) (A) (A) (A) (A) (A) (A)
                 (A) (A) (A) (A) (A) (A) (A) (A) (A) (A) (A) (A)
                 (A) (A) (A) (A) (A) (A) (A) (A) (A) (A) (A) (A)
                 (A) (A) (A) (A) (A) (A) (A) (A) (A) (A) (A) (A)
                 (A) (A) (A) (A) (A) (A) (A) (A) (A) (A) (A) (A)
                 (A) (A) (A) (A) (A) (A) (A) (A) (A) (A) (A) (A)
                 (A) (A) (A) (A) (A) (A) (A) (A) (A) (A) (A) (A)
                 (A) (A) (A) (A) (A) (A) (A) (A) (A) (A) (A) (A)
                 (A)
 The electronic state is 1-A.
 Alpha  occ. eigenvalues --  -24.87163 -24.87152 -24.87041 -24.85749 -24.85726
 Alpha  occ. eigenvalues --  -10.56893 -10.49396  -1.46170  -1.40652  -1.36871
 Alpha  occ. eigenvalues --   -1.36769  -1.34625  -0.90685  -0.80523  -0.73371
 Alpha  occ. eigenvalues --   -0.72788  -0.72730  -0.68030  -0.67743  -0.59545
 Alpha  occ. eigenvalues --   -0.59247  -0.58991  -0.56527  -0.55273  -0.54973
 Alpha  occ. eigenvalues --   -0.53312  -0.53067  -0.52822  -0.46380
 Alpha virt. eigenvalues --    0.06501   0.08982   0.09141   0.09349   0.12863
 Alpha virt. eigenvalues --    0.13361   0.13688   0.16658   0.17420   0.19525
 Alpha virt. eigenvalues --    0.22412   0.26363   0.27207   0.27383   0.28933
 Alpha virt. eigenvalues --    0.29852   0.32747   0.33256   0.33459   0.33801
 Alpha virt. eigenvalues --    0.35697   0.36143   0.37492   0.37818   0.40054
 Alpha virt. eigenvalues --    0.40103   0.41627   0.42830   0.43733   0.44070
 Alpha virt. eigenvalues --    0.44859   0.50076   0.50110   0.51170   0.51965
 Alpha virt. eigenvalues --    0.55958   0.60955   0.64904   0.68009   0.71796
 Alpha virt. eigenvalues --    0.75034   0.77411   0.83399   0.86452   0.94936
 Alpha virt. eigenvalues --    1.00214   1.03226   1.08677   1.09439   1.15232
 Alpha virt. eigenvalues --    1.20535   1.26074   1.26958   1.31346   1.32728
 Alpha virt. eigenvalues --    1.34210   1.37197   1.37933   1.39343   1.40752
 Alpha virt. eigenvalues --    1.43812   1.44356   1.45536   1.46420   1.46865
 Alpha virt. eigenvalues --    1.50610   1.51065   1.52260   1.52310   1.60341
 Alpha virt. eigenvalues --    1.61741   1.64297   1.90439   1.93870   1.97850
 Alpha virt. eigenvalues --    1.98059   2.02808   2.06606   2.07876   2.08590
 Alpha virt. eigenvalues --    2.10770   2.11620   2.14652   2.15866   2.19793
 Alpha virt. eigenvalues --    2.21524   2.25564   2.30180   2.33637   2.44715
 Alpha virt. eigenvalues --    2.51287   2.54712   2.63481   2.64770   2.65520
 Alpha virt. eigenvalues --    2.69780   2.74610   2.81144   2.86352   2.89817
 Alpha virt. eigenvalues --    3.02634   3.11126   3.13287   3.25503   3.45123
 Alpha virt. eigenvalues --    3.45839   3.49601   3.52296   3.53593   3.55703
 Alpha virt. eigenvalues --    3.58599   3.59142   3.61830   3.64445   3.81172
 Alpha virt. eigenvalues --    4.09477   4.10494   4.27596   4.32795   4.32997
 Alpha virt. eigenvalues --    4.44828   4.93289   6.38413   6.38829   6.39854
 Alpha virt. eigenvalues --    6.40214   6.43472   6.46009   6.46485   6.47354
 Alpha virt. eigenvalues --    6.50067   6.51578   6.54073   6.65862   6.83043
 Alpha virt. eigenvalues --    6.87178   6.88306   9.07770   9.10397   9.11086
 Alpha virt. eigenvalues --    9.11300   9.15452   9.17964   9.21284   9.21849
 Alpha virt. eigenvalues --    9.23389   9.24563   9.26284   9.26374   9.33988
 Alpha virt. eigenvalues --    9.35019   9.40566   9.47688   9.50753   9.63394
 Alpha virt. eigenvalues --    9.69233   9.73639   9.74399   9.75723   9.82257
 Alpha virt. eigenvalues --    9.88667   9.88923  23.96333  24.06055  66.92682
 Alpha virt. eigenvalues --   66.93910  66.94561  66.94684  67.00987
          Condensed to atoms (all electrons):
               1          2          3          4          5          6
     1  C    4.524138   0.216148  -0.087259  -0.090347   0.216206   0.345836
     2  F    0.216148   9.158354   0.016929   0.018430   0.008046  -0.088264
     3  F   -0.087259   0.016929   9.092382  -0.000578   0.016907   0.243547
     4  F   -0.090347   0.018430  -0.000578   9.115199   0.000152   0.252578
     5  F    0.216206   0.008046   0.016907   0.000152   9.158548  -0.088175
     6  C    0.345836  -0.088264   0.243547   0.252578  -0.088175   4.327560
     7  F   -0.090424   0.000149  -0.000581  -0.000362   0.018400   0.252638
     8  H    0.470291  -0.040200   0.004995   0.001800  -0.040256  -0.054876
               7          8
     1  C   -0.090424   0.470291
     2  F    0.000149  -0.040200
     3  F   -0.000581   0.004995
     4  F   -0.000362   0.001800
     5  F    0.018400  -0.040256
     6  C    0.252638  -0.054876
     7  F    9.115077   0.001833
     8  H    0.001833   0.501614
 Mulliken charges:
               1
     1  C    0.495411
     2  F   -0.289593
     3  F   -0.286342
     4  F   -0.296871
     5  F   -0.289828
     6  C    0.809155
     7  F   -0.296731
     8  H    0.154799
 Sum of Mulliken charges =  -0.00000
 Mulliken charges with hydrogens summed into heavy atoms:
               1
     1  C    0.650210
     2  F   -0.289593
     3  F   -0.286342
     4  F   -0.296871
     5  F   -0.289828
     6  C    0.809155
     7  F   -0.296731
 APT charges:
               1
     1  C    1.029959
     2  F   -0.501129
     3  F   -0.522252
     4  F   -0.529529
     5  F   -0.501360
     6  C    1.554782
     7  F   -0.529364
     8  H   -0.001108
 Sum of APT charges =  -0.00000
 APT charges with hydrogens summed into heavy atoms:
               1
     1  C    1.028851
     2  F   -0.501129
     3  F   -0.522252
     4  F   -0.529529
     5  F   -0.501360
     6  C    1.554782
     7  F   -0.529364
 Electronic spatial extent (au):  <R**2>=            596.3763
 Charge=              0.0000 electrons
 Dipole moment (field-independent basis, Debye):
    X=             -0.2573    Y=              0.0018    Z=              1.5677  Tot=              1.5886
 Quadrupole moment (field-independent basis, Debye-Ang):
   XX=            -38.3925   YY=            -38.7755   ZZ=            -34.6292
   XY=             -0.0073   XZ=             -1.8420   YZ=             -0.0002
 Traceless Quadrupole moment (field-independent basis, Debye-Ang):
   XX=             -1.1267   YY=             -1.5098   ZZ=              2.6365
   XY=             -0.0073   XZ=             -1.8420   YZ=             -0.0002
 Octapole moment (field-independent basis, Debye-Ang**2):
  XXX=              3.4987  YYY=             -0.0020  ZZZ=              1.0672  XYY=              1.7374
  XXY=              0.0045  XXZ=             -0.0985  XZZ=             -2.4667  YZZ=              0.0023
  YYZ=             -1.8340  XYZ=             -0.0010
 Hexadecapole moment (field-independent basis, Debye-Ang**3):
 XXXX=           -298.2667 YYYY=           -165.5862 ZZZZ=           -100.3171 XXXY=             -0.0217
 XXXZ=             -0.2347 YYYX=             -0.0107 YYYZ=             -0.0022 ZZZX=             -0.0803
 ZZZY=             -0.0031 XXYY=            -81.3328 XXZZ=            -65.1411 YYZZ=            -44.9561
 XXYZ=             -0.0000 YYXZ=              0.8293 ZZXY=             -0.0011
 N-N= 3.603812514584D+02 E-N=-2.090565899951D+03  KE= 5.746072836485D+02
  Exact polarizability:  29.242   0.005  30.096   0.414   0.001  28.360
 Approx polarizability:  28.642   0.005  33.278   1.270   0.001  30.721
 Calling FoFJK, ICntrl=    100127 FMM=F ISym2X=0 I1Cent= 0 IOpClX= 0 NMat=1 NMatS=1 NMatT=0.
 Full mass-weighted force constant matrix:
 Low frequencies ---  -10.8286   -8.3315   -5.1578   -0.0007    0.0010    0.0010
 Low frequencies ---   73.7163  212.0588  244.2112
 Diagonal vibrational polarizability:
        7.6340487      15.7706638       8.7101318
 Harmonic frequencies (cm**-1), IR intensities (KM/Mole), Raman scattering
 activities (A**4/AMU), depolarization ratios for plane and unpolarized
 incident light, reduced masses (AMU), force constants (mDyne/A),
 and normal coordinates:
                      1                      2                      3
                      A                      A                      A
 Frequencies --     73.7144               212.0588               244.2112
 Red. masses --     13.3999                18.6198                14.3342
 Frc consts  --      0.0429                 0.4933                 0.5037
 IR Inten    --      0.9177                 2.2035                 3.6169
  Atom  AN      X      Y      Z        X      Y      Z        X      Y      Z
     1   6    -0.00  -0.12  -0.00    -0.00  -0.16   0.00     0.03  -0.00  -0.09
     2   9     0.04   0.10   0.44     0.46   0.05  -0.13    -0.23  -0.01   0.22
     3   9     0.00  -0.32   0.00    -0.00  -0.01   0.00     0.65   0.00  -0.17
     4   9    -0.11   0.12  -0.24    -0.47   0.06   0.14    -0.13   0.03  -0.04
     5   9    -0.04   0.10  -0.44    -0.46   0.05   0.13    -0.24   0.01   0.23
     6   6     0.00  -0.04  -0.00    -0.00  -0.16   0.00     0.05  -0.00  -0.23
     7   9     0.11   0.12   0.24     0.47   0.06  -0.14    -0.13  -0.03  -0.04
     8   1     0.00  -0.55  -0.00    -0.00  -0.03   0.00     0.48   0.00  -0.06
                      4                      5                      6
                      A                      A                      A
 Frequencies --    362.4646               416.2463               522.6648
 Red. masses --     17.7350                15.3519                15.0601
 Frc consts  --      1.3728                 1.5672                 2.4240
 IR Inten    --      0.0537                 0.8759                 7.5070
  Atom  AN      X      Y      Z        X      Y      Z        X      Y      Z
     1   6    -0.17  -0.00  -0.03    -0.00  -0.29   0.00    -0.04   0.00   0.24
     2   9    -0.43  -0.16  -0.09     0.32  -0.19   0.01    -0.04  -0.18  -0.07
     3   9    -0.02   0.00   0.08    -0.00   0.43  -0.00     0.14   0.00   0.39
     4   9     0.45  -0.14   0.04     0.23   0.06  -0.29    -0.03   0.37  -0.29
     5   9    -0.43   0.16  -0.09    -0.32  -0.19  -0.01    -0.04   0.18  -0.07
     6   6     0.13   0.00   0.08    -0.00   0.05   0.00     0.05  -0.00   0.27
     7   9     0.45   0.14   0.03    -0.23   0.06   0.29    -0.03  -0.37  -0.29
     8   1    -0.22  -0.00  -0.03    -0.00  -0.41   0.00    -0.34   0.00   0.23
                      7                      8                      9
                      A                      A                      A
 Frequencies --    581.4426               584.7137               728.4829
 Red. masses --      9.8863                16.3601                12.1850
 Frc consts  --      1.9692                 3.2955                 3.8099
 IR Inten    --     14.5961                 0.4993                35.0051
  Atom  AN      X      Y      Z        X      Y      Z        X      Y      Z
     1   6     0.34  -0.00   0.08    -0.00   0.14  -0.00    -0.17  -0.00   0.37
     2   9    -0.00  -0.40  -0.04    -0.18   0.13  -0.02     0.12  -0.16  -0.03
     3   9    -0.11   0.00  -0.16     0.00   0.40  -0.00     0.20  -0.00   0.09
     4   9    -0.10   0.02   0.12    -0.27  -0.28  -0.33    -0.05  -0.37  -0.15
     5   9    -0.00   0.40  -0.04     0.18   0.13   0.02     0.12   0.16  -0.03
     6   6     0.10  -0.00  -0.10    -0.00  -0.34   0.00    -0.32   0.00   0.03
     7   9    -0.09  -0.02   0.12     0.27  -0.27   0.33    -0.05   0.37  -0.15
     8   1     0.66   0.00   0.11    -0.00   0.31  -0.00    -0.37  -0.00   0.37
                     10                     11                     12
                      A                      A                      A
 Frequencies --    874.0348              1152.1158              1154.2324
 Red. masses --      6.0607                 6.3997                 7.1405
 Frc consts  --      2.7279                 5.0050                 5.6049
 IR Inten    --     45.7718               123.1855               139.8699
  Atom  AN      X      Y      Z        X      Y      Z        X      Y      Z
     1   6     0.27  -0.00  -0.35     0.16   0.46   0.23     0.27  -0.31   0.37
     2   9    -0.03   0.00   0.03     0.01  -0.06   0.02    -0.15   0.24  -0.17
     3   9    -0.05   0.00   0.33    -0.00   0.01   0.02    -0.01  -0.01   0.03
     4   9    -0.05  -0.12  -0.08    -0.03  -0.01   0.00    -0.05  -0.06  -0.02
     5   9    -0.03  -0.00   0.03    -0.13  -0.24  -0.16    -0.05  -0.04  -0.05
     6   6    -0.02   0.00  -0.02     0.11  -0.13  -0.04     0.18   0.09  -0.06
     7   9    -0.05   0.12  -0.08    -0.03   0.05  -0.01    -0.05   0.03  -0.01
     8   1     0.74  -0.00  -0.32     0.25   0.68   0.23     0.40  -0.47   0.38
                     13                     14                     15
                      A                      A                      A
 Frequencies --   1202.9270              1221.9085              1319.1507
 Red. masses --      4.8329                13.1380                 3.2515
 Frc consts  --      4.1204                11.5573                 3.3337
 IR Inten    --    199.7699               412.0518               163.8385
  Atom  AN      X      Y      Z        X      Y      Z        X      Y      Z
     1   6     0.06   0.00  -0.10    -0.01   0.18   0.00     0.07  -0.00  -0.01
     2   9    -0.01  -0.01   0.03     0.06  -0.08   0.02    -0.02   0.03  -0.03
     3   9    -0.01  -0.00  -0.11     0.00  -0.06   0.00     0.03  -0.00  -0.13
     4   9    -0.09  -0.09  -0.06    -0.12  -0.23  -0.07     0.03   0.01  -0.02
     5   9    -0.02   0.01   0.03    -0.06  -0.08  -0.03    -0.02  -0.03  -0.03
     6   6     0.34   0.02   0.37    -0.02   0.89  -0.02    -0.23   0.00   0.34
     7   9    -0.08   0.09  -0.06     0.13  -0.24   0.07     0.03  -0.01  -0.02
     8   1    -0.81   0.00  -0.16     0.04  -0.06   0.00     0.90  -0.00   0.06
                     16                     17                     18
                      A                      A                      A
 Frequencies --   1376.7457              1452.6013              3118.4505
 Red. masses --      1.1994                 2.3042                 1.0881
 Frc consts  --      1.3394                 2.8646                 6.2346
 IR Inten    --      6.4333                 1.1243                14.3695
  Atom  AN      X      Y      Z        X      Y      Z        X      Y      Z
     1   6    -0.00  -0.12   0.00    -0.26   0.00   0.00     0.01   0.00  -0.08
     2   9    -0.00   0.01   0.02     0.03  -0.01  -0.01    -0.00   0.00   0.00
     3   9    -0.00  -0.00   0.00    -0.02   0.00   0.02    -0.00   0.00   0.00
     4   9     0.00  -0.00  -0.00    -0.02  -0.02  -0.01     0.00   0.00   0.00
     5   9     0.00   0.01  -0.02     0.03   0.01  -0.01    -0.00  -0.00   0.00
     6   6     0.00   0.03  -0.00     0.21  -0.00   0.01    -0.00   0.00  -0.00
     7   9    -0.00  -0.00   0.00    -0.02   0.02  -0.01     0.00  -0.00   0.00
     8   1     0.00   0.99   0.00     0.93  -0.00   0.12    -0.09  -0.00   0.99

 -------------------
 - Thermochemistry -
 -------------------
 Temperature   298.150 Kelvin.  Pressure   1.00000 Atm.
 Atom     1 has atomic number  6 and mass  12.00000
 Atom     2 has atomic number  9 and mass  18.99840
 Atom     3 has atomic number  9 and mass  18.99840
 Atom     4 has atomic number  9 and mass  18.99840
 Atom     5 has atomic number  9 and mass  18.99840
 Atom     6 has atomic number  6 and mass  12.00000
 Atom     7 has atomic number  9 and mass  18.99840
 Atom     8 has atomic number  1 and mass   1.00783
 Molecular mass:   119.99984 amu.
 Principal axes and moments of inertia in atomic units:
                           1         2         3
     Eigenvalues --   488.08644 746.74879 900.31810
           X            0.99987  -0.00001  -0.01597
           Y            0.00001   1.00000   0.00001
           Z            0.01597  -0.00001   0.99987
 This molecule is an asymmetric top.
 Rotational symmetry number  1.
 Warning -- assumption of classical behavior for rotation
           may cause significant error
 Rotational temperatures (Kelvin)      0.17746     0.11599     0.09620
 Rotational constants (GHZ):           3.69759     2.41680     2.00456
 Zero-point vibrational energy      99279.1 (Joules/Mol)
                                   23.72827 (Kcal/Mol)
 Warning -- explicit consideration of   8 degrees of freedom as
           vibrations may cause significant error
 Vibrational temperatures:    106.06   305.11   351.37   521.51   598.89
          (Kelvin)            752.00   836.57   841.27  1048.12  1257.54
                             1657.64  1660.68  1730.74  1758.05  1897.96
                             1980.83  2089.97  4486.75
 
 Zero-point correction=                           0.037813 (Hartree/Particle)
 Thermal correction to Energy=                    0.043915
 Thermal correction to Enthalpy=                  0.044860
 Thermal correction to Gibbs Free Energy=         0.007018
 Sum of electronic and zero-point Energies=           -576.022375
 Sum of electronic and thermal Energies=              -576.016273
 Sum of electronic and thermal Enthalpies=            -576.015329
 Sum of electronic and thermal Free Energies=         -576.053170
 
                     E (Thermal)             CV                S
                      KCal/Mol        Cal/Mol-Kelvin    Cal/Mol-Kelvin
 Total                   27.557             20.366             79.644
 Electronic               0.000              0.000              0.000
 Translational            0.889              2.981             40.261
 Rotational               0.889              2.981             27.286
 Vibrational             25.780             14.404             12.096
 Vibration     1          0.599              1.966              4.052
 Vibration     2          0.643              1.823              2.026
 Vibration     3          0.660              1.772              1.772
 Vibration     4          0.736              1.550              1.112
 Vibration     5          0.779              1.435              0.905
 Vibration     6          0.878              1.200              0.604
 Vibration     7          0.938              1.071              0.483
 Vibration     8          0.942              1.064              0.477
                       Q            Log10(Q)             Ln(Q)
 Total Bot       0.591383D-03         -3.228131         -7.433047
 Total V=0       0.146154D+15         14.164812         32.615685
 Vib (Bot)       0.558167D-16        -16.253235        -37.424458
 Vib (Bot)    1  0.279641D+01          0.446601          1.028338
 Vib (Bot)    2  0.935832D+00         -0.028802         -0.066319
 Vib (Bot)    3  0.801362D+00         -0.096171         -0.221442
 Vib (Bot)    4  0.504846D+00         -0.296841         -0.683501
 Vib (Bot)    5  0.423047D+00         -0.373612         -0.860273
 Vib (Bot)    6  0.308073D+00         -0.511347         -1.177419
 Vib (Bot)    7  0.261697D+00         -0.582202         -1.340569
 Vib (Bot)    8  0.259378D+00         -0.586067         -1.349469
 Vib (V=0)       0.137946D+02          1.139708          2.624274
 Vib (V=0)    1  0.334076D+01          0.523846          1.206199
 Vib (V=0)    2  0.156103D+01          0.193411          0.445345
 Vib (V=0)    3  0.144455D+01          0.159734          0.367800
 Vib (V=0)    4  0.121054D+01          0.082980          0.191068
 Vib (V=0)    5  0.115496D+01          0.062566          0.144063
 Vib (V=0)    6  0.108729D+01          0.036345          0.083688
 Vib (V=0)    7  0.106434D+01          0.027082          0.062359
 Vib (V=0)    8  0.106327D+01          0.026645          0.061352
 Electronic      0.100000D+01          0.000000          0.000000
 Translational   0.516684D+08          7.713225         17.760357
 Rotational      0.205059D+06          5.311879         12.231054
 ***** Axes restored to original set *****
 -------------------------------------------------------------------
 Center     Atomic                   Forces (Hartrees/Bohr)
 Number     Number              X              Y              Z
 -------------------------------------------------------------------
      1        6          -0.000122537    0.000314904    0.000211024
      2        9           0.000175075   -0.000195906   -0.000215458
      3        9          -0.000038292   -0.000029311   -0.000004119
      4        9          -0.000056494   -0.000070512   -0.000060919
      5        9          -0.000002534   -0.000032871    0.000013401
      6        6           0.000160842   -0.000091894   -0.000158001
      7        9          -0.000160906    0.000174251    0.000223679
      8        1           0.000044845   -0.000068662   -0.000009608
 -------------------------------------------------------------------
 Cartesian Forces:  Max     0.000314904 RMS     0.000138749
 FormGI is forming the generalized inverse of G from B-inverse, IUseBI=4.

 GradGradGradGradGradGradGradGradGradGradGradGradGradGradGradGradGradGrad
 Berny optimization.
 Internal  Forces:  Max     0.000333003 RMS     0.000096909
 Search for a local minimum.
 Step number   1 out of a maximum of    2
 All quantities printed in internal units (Hartrees-Bohrs-Radians)
 Second derivative matrix not updated -- analytic derivatives used.
 ITU=  0
     Eigenvalues ---    0.00274   0.06135   0.09435   0.09861   0.10611
     Eigenvalues ---    0.15352   0.18704   0.21731   0.23443   0.25245
     Eigenvalues ---    0.30041   0.34215   0.36160   0.37819   0.39277
     Eigenvalues ---    0.39440   0.47882   0.55072
 Angle between quadratic step and forces=  63.24 degrees.
 Linear search not attempted -- first point.
 Iteration  1 RMS(Cart)=  0.00059058 RMS(Int)=  0.00000026
 Iteration  2 RMS(Cart)=  0.00000025 RMS(Int)=  0.00000005
 Variable       Old X    -DE/DX   Delta X   Delta X   Delta X     New X
                                 (Linear)    (Quad)   (Total)
    R1        2.53942   0.00033   0.00000   0.00101   0.00101   2.54043
    R2        2.54082  -0.00003   0.00000  -0.00038  -0.00038   2.54044
    R3        2.90254   0.00009   0.00000   0.00018   0.00018   2.90271
    R4        2.06103   0.00004   0.00000   0.00007   0.00007   2.06111
    R5        2.50481  -0.00000   0.00000  -0.00010  -0.00010   2.50471
    R6        2.51839   0.00009   0.00000   0.00007   0.00007   2.51846
    R7        2.51763   0.00032   0.00000   0.00082   0.00082   2.51845
    A1        1.90100  -0.00000   0.00000   0.00009   0.00009   1.90109
    A2        1.90086   0.00005   0.00000  -0.00014  -0.00014   1.90072
    A3        1.91586  -0.00008   0.00000  -0.00089  -0.00089   1.91497
    A4        1.90041   0.00002   0.00000   0.00032   0.00032   1.90072
    A5        1.91456  -0.00001   0.00000   0.00041   0.00041   1.91497
    A6        1.93079   0.00003   0.00000   0.00021   0.00021   1.93100
    A7        1.94828   0.00004   0.00000   0.00020   0.00020   1.94848
    A8        1.91100   0.00005   0.00000   0.00023   0.00023   1.91123
    A9        1.91133   0.00002   0.00000  -0.00009  -0.00009   1.91123
   A10        1.90012  -0.00007   0.00000  -0.00021  -0.00021   1.89991
   A11        1.90010  -0.00004   0.00000  -0.00019  -0.00019   1.89991
   A12        1.89212  -0.00000   0.00000   0.00006   0.00006   1.89218
    D1       -1.03600  -0.00002   0.00000   0.00049   0.00049  -1.03551
    D2        1.06928  -0.00005   0.00000   0.00051   0.00051   1.06979
    D3       -3.14147  -0.00001   0.00000   0.00066   0.00066  -3.14081
    D4        1.03481   0.00002   0.00000   0.00071   0.00071   1.03551
    D5        3.14009  -0.00001   0.00000   0.00072   0.00072   3.14081
    D6       -1.07067   0.00003   0.00000   0.00088   0.00088  -1.06979
    D7        3.14005   0.00003   0.00000   0.00155   0.00155  -3.14159
    D8       -1.03786   0.00000   0.00000   0.00157   0.00157  -1.03629
    D9        1.03458   0.00004   0.00000   0.00172   0.00172   1.03629
         Item               Value     Threshold  Converged?
 Maximum Force            0.000333     0.000450     YES
 RMS     Force            0.000097     0.000300     YES
 Maximum Displacement     0.001388     0.001800     YES
 RMS     Displacement     0.000591     0.001200     YES
 Predicted change in Energy=-4.279013D-07
 Optimization completed.
    -- Stationary point found.
                           ----------------------------
                           !   Optimized Parameters   !
                           ! (Angstroms and Degrees)  !
 --------------------------                            --------------------------
 ! Name  Definition              Value          Derivative Info.                !
 --------------------------------------------------------------------------------
 ! R1    R(1,2)                  1.3438         -DE/DX =    0.0003              !
 ! R2    R(1,5)                  1.3445         -DE/DX =    0.0                 !
 ! R3    R(1,6)                  1.536          -DE/DX =    0.0001              !
 ! R4    R(1,8)                  1.0907         -DE/DX =    0.0                 !
 ! R5    R(3,6)                  1.3255         -DE/DX =    0.0                 !
 ! R6    R(4,6)                  1.3327         -DE/DX =    0.0001              !
 ! R7    R(6,7)                  1.3323         -DE/DX =    0.0003              !
 ! A1    A(2,1,5)              108.9192         -DE/DX =    0.0                 !
 ! A2    A(2,1,6)              108.9112         -DE/DX =    0.0                 !
 ! A3    A(2,1,8)              109.7707         -DE/DX =   -0.0001              !
 ! A4    A(5,1,6)              108.8853         -DE/DX =    0.0                 !
 ! A5    A(5,1,8)              109.6961         -DE/DX =    0.0                 !
 ! A6    A(6,1,8)              110.6259         -DE/DX =    0.0                 !
 ! A7    A(1,6,3)              111.6283         -DE/DX =    0.0                 !
 ! A8    A(1,6,4)              109.4924         -DE/DX =    0.0001              !
 ! A9    A(1,6,7)              109.5109         -DE/DX =    0.0                 !
 ! A10   A(3,6,4)              108.8689         -DE/DX =   -0.0001              !
 ! A11   A(3,6,7)              108.8677         -DE/DX =    0.0                 !
 ! A12   A(4,6,7)              108.4107         -DE/DX =    0.0                 !
 ! D1    D(2,1,6,3)            -59.3583         -DE/DX =    0.0                 !
 ! D2    D(2,1,6,4)             61.2654         -DE/DX =    0.0                 !
 ! D3    D(2,1,6,7)           -179.993          -DE/DX =    0.0                 !
 ! D4    D(5,1,6,3)             59.2901         -DE/DX =    0.0                 !
 ! D5    D(5,1,6,4)            179.9138         -DE/DX =    0.0                 !
 ! D6    D(5,1,6,7)            -61.3446         -DE/DX =    0.0                 !
 ! D7    D(8,1,6,3)           -180.0885         -DE/DX =    0.0                 !
 ! D8    D(8,1,6,4)            -59.4648         -DE/DX =    0.0                 !
 ! D9    D(8,1,6,7)             59.2768         -DE/DX =    0.0                 !
 --------------------------------------------------------------------------------
 GradGradGradGradGradGradGradGradGradGradGradGradGradGradGradGradGradGrad


 ----------------------------------------------------------------------

 Electric dipole moment (input orientation):
 (Debye = 10**-18 statcoulomb cm , SI units = C m)
                  (au)            (Debye)         (10**-30 SI)
   Tot        0.625012D+00      0.158862D+01      0.529907D+01
   x          0.183842D+00      0.467280D+00      0.155868D+01
   y         -0.298699D+00     -0.759216D+00     -0.253247D+01
   z          0.517321D+00      0.131490D+01      0.438603D+01

 Dipole polarizability, Alpha (input orientation).
 (esu units = cm**3 , SI units = C**2 m**2 J**-1)
 Alpha(0;0):
               (au)            (10**-24 esu)      (10**-40 SI)
   iso        0.292326D+02      0.433182D+01      0.481980D+01
   aniso      0.166548D+01      0.246799D+00      0.274601D+00
   xx         0.291179D+02      0.431482D+01      0.480089D+01
   yx         0.213313D+00      0.316097D-01      0.351705D-01
   yy         0.296954D+02      0.440041D+01      0.489611D+01
   zx        -0.474628D+00     -0.703327D-01     -0.782556D-01
   zy         0.692490D+00      0.102616D+00      0.114176D+00
   zz         0.288844D+02      0.428023D+01      0.476240D+01

 ----------------------------------------------------------------------

 Dipole orientation:
     6          1.55894418          0.39694821          1.09892824
     9          3.13158281         -1.45288443          0.35488208
     9         -0.84425303          0.02767453         -2.66225820
     9         -1.98221022         -2.21347854          0.55935077
     9          2.50533162          2.63322771          0.35114705
     6         -1.02413264          0.00035160         -0.16406411
     9         -2.60230213          1.82399059          0.55856581
     1          1.37496051          0.37195909          3.15158160

 Electric dipole moment (dipole orientation):
 (Debye = 10**-18 statcoulomb cm , SI units = C m)
                  (au)            (Debye)         (10**-30 SI)
   Tot        0.625012D+00      0.158862D+01      0.529907D+01
   x          0.000000D+00      0.000000D+00      0.000000D+00
   y          0.000000D+00      0.000000D+00      0.000000D+00
   z          0.625012D+00      0.158862D+01      0.529907D+01

 Dipole polarizability, Alpha (dipole orientation).
 (esu units = cm**3 , SI units = C**2 m**2 J**-1)
 Alpha(0;0):
               (au)            (10**-24 esu)      (10**-40 SI)
   iso        0.292326D+02      0.433182D+01      0.481980D+01
   aniso      0.166548D+01      0.246799D+00      0.274601D+00
   xx         0.293670D+02      0.435174D+01      0.484197D+01
   yx        -0.107367D+00     -0.159102D-01     -0.177025D-01
   yy         0.300798D+02      0.445736D+01      0.495948D+01
   zx        -0.248442D+00     -0.368152D-01     -0.409625D-01
   zy        -0.403541D-01     -0.597986D-02     -0.665349D-02
   zz         0.282509D+02      0.418635D+01      0.465795D+01

 ----------------------------------------------------------------------
 1\1\GINC-CCLEARCR\Freq\RwB97XD\6-311+G(2d,2p)\C2H1F5\RAPPE\02-Jun-2024
 \0\\#N Geom=AllCheck Guess=TCheck SCRF=Check GenChk RwB97XD/6-311+G(2d
 ,2p) Freq\\Title Card Required\\0,1\C,0.973113509,-0.030661252,0.33906
 24037\F,1.5748212324,-0.6350491325,-0.6994349724\F,-0.8388731833,0.651
 7344249,-1.0276565021\F,-1.0023106057,-1.2470846315,-0.0062533372\F,1.
 4248360286,1.2324767272,0.4297787921\C,-0.5418157751,-0.0000282153,0.0
 876384495\F,-1.1507113498,0.597421748,1.1109920963\H,1.1988471439,-0.5
 688336688,1.2604400701\\Version=EM64M-G16RevA.03\State=1-A\HF=-576.060
 1886\RMSD=2.090e-09\RMSF=1.387e-04\ZeroPoint=0.0378134\Thermal=0.04391
 55\Dipole=0.183842,-0.2986987,0.5173208\DipoleDeriv=0.8903044,0.06746,
 -0.1826558,0.0925969,1.261081,0.2777109,-0.2239457,0.2744321,0.9384917
 ,-0.4694472,0.1778667,0.2452879,0.1111145,-0.4147924,-0.1935698,0.2489
 216,-0.2918294,-0.6191463,-0.392374,0.1080606,-0.1943949,0.0620424,-0.
 4307278,0.2700299,-0.1183421,0.2761232,-0.743653,-0.4354066,-0.287527,
 -0.0282882,-0.1816398,-0.8635458,-0.0375115,-0.0249325,-0.0494094,-0.2
 896353,-0.4055727,-0.2551428,-0.0426313,-0.2202891,-0.8365725,-0.12571
 96,0.0063184,-0.0233929,-0.261934,1.2987229,-0.0035853,-0.0453146,0.03
 01786,1.6878492,0.00152,-0.1014939,-0.0029433,1.6777737,-0.4992597,0.1
 711757,0.2866707,0.1197771,-0.4153079,-0.2269868,0.19344,-0.2223681,-0
 .6735249,0.0130329,0.0216921,-0.0386738,-0.0137807,0.0120162,0.0345271
 ,0.0200343,0.0393879,-0.0283719\Polar=29.1178762,0.2133128,29.6954122,
 -0.4746283,0.6924901,28.8844191\Quadrupole=-0.4190992,-0.5125684,0.931
 6676,-0.8382918,1.4702953,-1.1223881\PG=C01 [X(C2H1F5)]\NImag=0\\0.545
 44067,-0.00116214,0.54240100,0.00785027,-0.08387710,0.63325402,-0.1319
 4623,0.03491231,0.08344581,0.13458385,0.04411268,-0.09265278,-0.061322
 18,-0.06470116,0.13417756,0.09034174,-0.04901451,-0.22022925,-0.124117
 39,0.11946733,0.26474605,-0.00387867,0.02438301,-0.04114261,0.00141157
 ,-0.00062928,0.00187278,0.08735900,0.00061247,-0.00748924,0.01659553,-
 0.00107630,0.00156638,-0.00063035,-0.03788996,0.16303120,-0.00186401,0
 .01973457,-0.03033089,-0.00205969,0.00010030,0.00767208,0.06351580,-0.
 14216968,0.32314538,-0.00302552,-0.04147967,-0.00274304,-0.00094694,0.
 00090400,0.00117803,0.01740353,0.00055714,0.00601488,0.11156371,-0.002
 28150,-0.02710615,-0.00394943,-0.00145354,0.00512318,0.00326065,-0.008
 06279,-0.06063995,0.03722621,0.10902229,0.36788946,-0.00052261,-0.0094
 4050,0.00463843,-0.00183162,0.00224010,0.00262637,0.01181659,0.0488184
 2,-0.00300746,0.00757822,0.02430557,0.08155653,-0.11121597,-0.07545712
 ,0.00171061,0.01734324,0.01409635,-0.00227675,0.00123163,0.00188502,0.
 00023621,-0.01244158,-0.00619830,-0.00264113,0.10458608,-0.08667494,-0
 .25755057,0.02117151,0.00628745,-0.04971441,-0.03971259,-0.00170502,0.
 00621051,-0.00311159,-0.00597159,0.00025461,-0.00068716,0.11088048,0.3
 6315939,-0.00178084,0.00916061,-0.07446997,-0.00634886,-0.04775816,-0.
 00523680,0.00153780,-0.00198254,0.00321148,-0.00217710,-0.00167270,0.0
 0068919,0.00130805,0.02318007,0.06425892,-0.20487699,0.00081152,-0.023
 86780,-0.01238754,0.00637259,0.00335952,-0.11335599,0.03940700,-0.0702
 0912,-0.13366647,-0.09287572,-0.01195794,-0.00613384,-0.00349389,-0.00
 396806,0.62647030,0.01247765,-0.04324014,0.01535974,0.02061045,-0.0086
 7155,-0.01132471,0.03200180,-0.12160502,0.08233389,-0.07890277,-0.2302
 3567,-0.01641842,-0.04532621,-0.03113893,-0.00815075,-0.00549869,0.543
 29664,-0.04317724,0.01378826,-0.06356769,0.04345017,-0.01294577,-0.016
 84186,-0.05799336,0.08334021,-0.21953349,-0.01180769,-0.01712098,-0.07
 652543,0.00163344,-0.00285544,-0.00063869,0.01984696,-0.00649955,0.553
 95698,-0.00873114,0.02264382,0.03810026,-0.01398906,0.00319427,0.00321
 532,0.01734312,-0.00550189,0.00865871,0.02072910,0.00344398,-0.0043060
 0,-0.00091287,-0.00243912,-0.00074164,-0.15678210,0.04868057,0.0749601
 6,0.14189477,0.00281240,-0.00477848,-0.01509461,0.00363201,0.00061854,
 0.00040413,-0.00743245,0.01847759,0.00687673,0.01485444,-0.05638615,-0
 .04857105,0.00140025,0.00540392,0.00215031,0.05527202,-0.11129735,-0.0
 6052318,-0.06966109,0.14802492,0.00385503,-0.01216809,-0.01195874,0.00
 332991,-0.00061470,0.00185818,0.02027563,-0.00333343,-0.08212815,0.002
 00811,-0.04115753,-0.01038850,-0.00014781,0.00297724,0.00230212,0.0873
 1855,-0.06023537,-0.17320619,-0.11886850,0.11465701,0.27200544,-0.0817
 6615,0.03534826,-0.06335350,0.00593112,-0.00334945,0.02642675,-0.00751
 417,0.00200652,-0.00429278,0.00038417,-0.00159442,0.00186449,0.0075433
 1,-0.01688335,0.01217065,0.00073262,0.01595720,-0.02691244,0.00044819,
 -0.00087758,0.00222908,0.07424091,0.03010338,-0.10958363,0.11111656,0.
 00178878,0.00955309,-0.02244996,-0.00066530,0.00044853,-0.00099043,0.0
 0101616,0.00110066,-0.00024695,-0.00128047,-0.03662452,0.02507316,0.00
 000517,0.00289203,0.00281645,-0.00036054,-0.00006299,-0.00012513,-0.03
 060718,0.13227683,-0.05470234,0.11181676,-0.23733590,0.00413168,0.0008
 3309,-0.03459476,0.00011736,-0.00063816,0.00097105,-0.00005142,-0.0008
 9180,0.00041088,0.00017738,-0.00096204,0.00988375,-0.00052211,0.004935
 18,-0.00364363,-0.00101829,0.00010066,0.00151585,0.05186775,-0.1151936
 9,0.26279274\\0.00012254,-0.00031490,-0.00021102,-0.00017507,0.0001959
 1,0.00021546,0.00003829,0.00002931,0.00000412,0.00005649,0.00007051,0.
 00006092,0.00000253,0.00003287,-0.00001340,-0.00016084,0.00009189,0.00
 015800,0.00016091,-0.00017425,-0.00022368,-0.00004484,0.00006866,0.000
 00961\\\@


 We're simply so accustomed to the marvels of everyday thought
 that we never wonder about it.
 -- Marvin Minsky in "Why people think computers are smart"
 Job cpu time:       0 days  1 hours 17 minutes 23.2 seconds.
 Elapsed time:       0 days  0 hours  3 minutes 16.0 seconds.
 File lengths (MBytes):  RWF=     41 Int=      0 D2E=      0 Chk=      4 Scr=      1
 Normal termination of Gaussian 16 at Sun Jun  2 07:39:51 2024.
