 Entering Gaussian System, Link 0=/applications/g16/g16/g16
 Initial command:
 /applications/g16/g16/l1.exe "/scratch/g98/Gau-80629.inp" -scrdir="/scratch/g98/"
 Entering Link 1 = /applications/g16/g16/l1.exe PID=     80630.
  
 Copyright (c) 1988,1990,1992,1993,1995,1998,2003,2009,2016,
            Gaussian, Inc.  All Rights Reserved.
  
 This is part of the Gaussian(R) 16 program.  It is based on
 the Gaussian(R) 09 system (copyright 2009, Gaussian, Inc.),
 the Gaussian(R) 03 system (copyright 2003, Gaussian, Inc.),
 the Gaussian(R) 98 system (copyright 1998, Gaussian, Inc.),
 the Gaussian(R) 94 system (copyright 1995, Gaussian, Inc.),
 the Gaussian 92(TM) system (copyright 1992, Gaussian, Inc.),
 the Gaussian 90(TM) system (copyright 1990, Gaussian, Inc.),
 the Gaussian 88(TM) system (copyright 1988, Gaussian, Inc.),
 the Gaussian 86(TM) system (copyright 1986, Carnegie Mellon
 University), and the Gaussian 82(TM) system (copyright 1983,
 Carnegie Mellon University). Gaussian is a federally registered
 trademark of Gaussian, Inc.
  
 This software contains proprietary and confidential information,
 including trade secrets, belonging to Gaussian, Inc.
  
 This software is provided under written license and may be
 used, copied, transmitted, or stored only in accord with that
 written license.
  
 The following legend is applicable only to US Government
 contracts under FAR:
  
                    RESTRICTED RIGHTS LEGEND
  
 Use, reproduction and disclosure by the US Government is
 subject to restrictions as set forth in subparagraphs (a)
 and (c) of the Commercial Computer Software - Restricted
 Rights clause in FAR 52.227-19.
  
 Gaussian, Inc.
 340 Quinnipiac St., Bldg. 40, Wallingford CT 06492
  
  
 ---------------------------------------------------------------
 Warning -- This program may not be used in any manner that
 competes with the business of Gaussian, Inc. or will provide
 assistance to any competitor of Gaussian, Inc.  The licensee
 of this program is prohibited from giving any competitor of
 Gaussian, Inc. access to this program.  By using this program,
 the user acknowledges that Gaussian, Inc. is engaged in the
 business of creating and licensing software in the field of
 computational chemistry and represents and warrants to the
 licensee that it is not a competitor of Gaussian, Inc. and that
 it will not use this program in any manner prohibited above.
 ---------------------------------------------------------------
  

 Cite this work as:
 Gaussian 16, Revision A.03,
 M. J. Frisch, G. W. Trucks, H. B. Schlegel, G. E. Scuseria, 
 M. A. Robb, J. R. Cheeseman, G. Scalmani, V. Barone, 
 G. A. Petersson, H. Nakatsuji, X. Li, M. Caricato, A. V. Marenich, 
 J. Bloino, B. G. Janesko, R. Gomperts, B. Mennucci, H. P. Hratchian, 
 J. V. Ortiz, A. F. Izmaylov, J. L. Sonnenberg, D. Williams-Young, 
 F. Ding, F. Lipparini, F. Egidi, J. Goings, B. Peng, A. Petrone, 
 T. Henderson, D. Ranasinghe, V. G. Zakrzewski, J. Gao, N. Rega, 
 G. Zheng, W. Liang, M. Hada, M. Ehara, K. Toyota, R. Fukuda, 
 J. Hasegawa, M. Ishida, T. Nakajima, Y. Honda, O. Kitao, H. Nakai, 
 T. Vreven, K. Throssell, J. A. Montgomery, Jr., J. E. Peralta, 
 F. Ogliaro, M. J. Bearpark, J. J. Heyd, E. N. Brothers, K. N. Kudin, 
 V. N. Staroverov, T. A. Keith, R. Kobayashi, J. Normand, 
 K. Raghavachari, A. P. Rendell, J. C. Burant, S. S. Iyengar, 
 J. Tomasi, M. Cossi, J. M. Millam, M. Klene, C. Adamo, R. Cammi, 
 J. W. Ochterski, R. L. Martin, K. Morokuma, O. Farkas, 
 J. B. Foresman, and D. J. Fox, Gaussian, Inc., Wallingford CT, 2016.
 
 ******************************************
 Gaussian 16:  EM64M-G16RevA.03 25-Dec-2016
                 6-Feb-2021 
 ******************************************
 %mem=24GB
 %nprocshared=8
 Will use up to    8 processors via shared memory.
 %chk=1_hexane.chk
 ----------------------------------------------
 # freq wb97xd/6-311+g(2d,2p) geom=connectivity
 ----------------------------------------------
 1/10=4,30=1,38=1,57=2/1,3;
 2/12=2,17=6,18=5,40=1/2;
 3/5=4,6=6,7=212,11=2,25=1,30=1,71=2,74=-58,140=1/1,2,3;
 4//1;
 5/5=2,38=5,98=1/2;
 8/6=4,10=90,11=11/1;
 11/6=1,8=1,9=11,15=111,16=1/1,2,10;
 10/6=1/2;
 6/7=2,8=2,9=2,10=2,28=1/1;
 7/8=1,10=1,25=1/1,2,3,16;
 1/10=4,30=1/3;
 99//99;
 -------------------
 Title Card Required
 -------------------
 Symbolic Z-matrix:
 Charge =  0 Multiplicity = 1
 C                     0.44299  -0.39399   0.09141 
 F                     0.42122  -1.02344   1.27361 
 F                     0.57903  -1.30165  -0.88349 
 C                    -0.91215   0.35351  -0.10972 
 F                    -0.89141   1.49549   0.58885 
 F                    -1.05033   0.64587  -1.41425 
 C                    -2.15898  -0.47499   0.323 
 F                    -2.26206  -0.45562   1.66244 
 F                    -2.0058   -1.73817  -0.08213 
 C                    -3.46464   0.08259  -0.30174 
 O                    -4.10251  -0.51456  -1.1085 
 O                    -3.74517   1.28161   0.1965 
 H                    -4.55746   1.59505  -0.21855 
 C                     1.67805   0.55946   0.0705 
 C                     3.03859  -0.16944  -0.13758 
 F                     1.74134   1.21063   1.23661 
 F                     1.54075   1.44892  -0.92329 
 F                     3.15924  -1.18161   0.71281 
 F                     3.14636  -0.62572  -1.37629 
 F                     4.02118   0.69482   0.08285 
 

 GradGradGradGradGradGradGradGradGradGradGradGradGradGradGradGradGradGrad
 Berny optimization.
 Initialization pass.
 Trust Radius=3.00D-01 FncErr=1.00D-07 GrdErr=1.00D-07 EigMax=2.50D+02 EigMin=1.00D-04
 Number of steps in this run=      2 maximum allowed number of steps=      2.
 GradGradGradGradGradGradGradGradGradGradGradGradGradGradGradGradGradGrad

                          Input orientation:                          
 ---------------------------------------------------------------------
 Center     Atomic      Atomic             Coordinates (Angstroms)
 Number     Number       Type             X           Y           Z
 ---------------------------------------------------------------------
      1          6           0        0.442992   -0.393990    0.091414
      2          9           0        0.421219   -1.023445    1.273610
      3          9           0        0.579028   -1.301646   -0.883493
      4          6           0       -0.912152    0.353507   -0.109718
      5          9           0       -0.891407    1.495488    0.588850
      6          9           0       -1.050329    0.645874   -1.414254
      7          6           0       -2.158982   -0.474987    0.323003
      8          9           0       -2.262059   -0.455619    1.662436
      9          9           0       -2.005797   -1.738165   -0.082126
     10          6           0       -3.464639    0.082589   -0.301741
     11          8           0       -4.102510   -0.514561   -1.108503
     12          8           0       -3.745168    1.281608    0.196497
     13          1           0       -4.557460    1.595051   -0.218546
     14          6           0        1.678053    0.559461    0.070496
     15          6           0        3.038595   -0.169435   -0.137583
     16          9           0        1.741339    1.210630    1.236608
     17          9           0        1.540746    1.448918   -0.923289
     18          9           0        3.159241   -1.181614    0.712808
     19          9           0        3.146356   -0.625715   -1.376290
     20          9           0        4.021182    0.694816    0.082848
 ---------------------------------------------------------------------
                    Distance matrix (angstroms):
                    1          2          3          4          5
     1  C    0.000000
     2  F    1.339506   0.000000
     3  F    1.338951   2.180686   0.000000
     4  C    1.560648   2.363783   2.358363   0.000000
     5  F    2.366050   2.921799   3.486249   1.338861   0.000000
     6  F    2.361855   3.489512   2.594098   1.344018   2.181634
     7  C    2.613515   2.803907   3.104142   1.558279   2.358006
     8  F    3.128771   2.770125   3.907594   2.370119   2.614975
     9  F    2.798837   2.870410   2.741178   2.360490   3.485482
    10  C    3.956170   4.336466   4.313442   2.573997   3.067729
    11  O    4.702757   5.137855   4.752571   3.453910   4.151203
    12  O    4.512134   4.881826   5.151529   2.996851   2.888536
    13  H    5.390443   5.819819   5.934351   3.852473   3.755229
    14  C    1.560411   2.352171   2.362556   2.604622   2.783337
    15  C    2.615343   3.093777   2.808514   3.985304   4.329502
    16  F    2.360504   2.595222   3.486736   3.096493   2.726185
    17  F    2.372972   3.491745   2.914119   2.806872   2.864280
    18  F    2.895599   2.799336   3.036459   4.428249   4.856953
    19  F    3.084806   3.821849   2.700168   4.362862   4.966368
    20  F    3.740189   4.162940   4.094887   4.948874   5.003063
                    6          7          8          9         10
     6  F    0.000000
     7  C    2.345955   0.000000
     8  F    3.485340   1.343533   0.000000
     9  F    2.893290   1.335370   2.180388   0.000000
    10  C    2.717327   1.551108   2.365134   2.343415   0.000000
    11  O    3.279619   2.414141   3.326986   2.635690   1.189257
    12  O    3.203254   2.370151   2.714138   3.496008   1.328377
    13  H    3.825000   3.214192   3.607244   4.199991   1.867812
    14  C    3.107413   3.982045   4.369112   4.344322   5.178151
    15  C    4.360495   5.226883   5.605257   5.282980   6.510186
    16  F    3.890942   4.346088   4.357168   4.947270   5.544475
    17  F    2.756736   4.352314   4.977405   4.841799   5.225615
    18  F    5.058121   5.379105   5.551518   5.255405   6.819333
    19  F    4.385265   5.572874   6.205944   5.427438   6.735102
    20  F    5.288094   6.294485   6.580100   6.501622   7.520655
                   11         12         13         14         15
    11  O    0.000000
    12  O    2.248764   0.000000
    13  H    2.334409   0.964534   0.000000
    14  C    5.996538   5.472540   6.327528   0.000000
    15  C    7.215066   6.945256   7.798719   1.557453   0.000000
    16  F    6.528890   5.584678   6.476119   1.337103   2.340054
    17  F    5.977951   5.405812   6.140532   1.340744   2.340930
    18  F    7.516326   7.348803   8.253773   2.374410   1.327489
    19  F    7.254662   7.321519   8.100676   2.377761   1.324462
    20  F    8.299174   7.789315   8.631012   2.347068   1.327026
                   16         17         18         19         20
    16  F    0.000000
    17  F    2.182241   0.000000
    18  F    2.829778   3.495145   0.000000
    19  F    3.489050   2.662197   2.161833   0.000000
    20  F    2.606705   2.780925   2.158884   2.153650   0.000000
 Stoichiometry    C6HF11O2
 Framework group  C1[X(C6HF11O2)]
 Deg. of freedom    54
 Full point group                 C1      NOp   1
 Largest Abelian subgroup         C1      NOp   1
 Largest concise Abelian subgroup C1      NOp   1
                         Standard orientation:                         
 ---------------------------------------------------------------------
 Center     Atomic      Atomic             Coordinates (Angstroms)
 Number     Number       Type             X           Y           Z
 ---------------------------------------------------------------------
      1          6           0        0.442992   -0.393990    0.091414
      2          9           0        0.421219   -1.023445    1.273610
      3          9           0        0.579028   -1.301646   -0.883493
      4          6           0       -0.912152    0.353507   -0.109718
      5          9           0       -0.891407    1.495488    0.588850
      6          9           0       -1.050329    0.645874   -1.414254
      7          6           0       -2.158982   -0.474987    0.323003
      8          9           0       -2.262059   -0.455619    1.662436
      9          9           0       -2.005797   -1.738165   -0.082126
     10          6           0       -3.464639    0.082589   -0.301741
     11          8           0       -4.102510   -0.514561   -1.108503
     12          8           0       -3.745168    1.281608    0.196497
     13          1           0       -4.557460    1.595051   -0.218546
     14          6           0        1.678053    0.559461    0.070496
     15          6           0        3.038595   -0.169435   -0.137583
     16          9           0        1.741339    1.210630    1.236608
     17          9           0        1.540746    1.448918   -0.923289
     18          9           0        3.159241   -1.181614    0.712808
     19          9           0        3.146356   -0.625715   -1.376290
     20          9           0        4.021182    0.694816    0.082848
 ---------------------------------------------------------------------
 Rotational constants (GHZ):           0.8789005           0.2367062           0.2301429
 Standard basis: 6-311+G(2d,2p) (5D, 7F)
 There are   560 symmetry adapted cartesian basis functions of A   symmetry.
 There are   522 symmetry adapted basis functions of A   symmetry.
   522 basis functions,   809 primitive gaussians,   560 cartesian basis functions
    76 alpha electrons       76 beta electrons
       nuclear repulsion energy      1885.1062099417 Hartrees.
 NAtoms=   20 NActive=   20 NUniq=   20 SFac= 1.00D+00 NAtFMM=   60 NAOKFM=F Big=F
 Integral buffers will be    131072 words long.
 Raffenetti 2 integral format.
 Two-electron integral symmetry is turned on.
 Nuclear repulsion after empirical dispersion term =     1885.0926733352 Hartrees.
 One-electron integrals computed using PRISM.
 NBasis=   522 RedAO= T EigKep=  3.84D-06  NBF=   522
 NBsUse=   522 1.00D-06 EigRej= -1.00D+00 NBFU=   522
 ExpMin= 4.38D-02 ExpMax= 1.14D+04 ExpMxC= 1.72D+03 IAcc=3 IRadAn=         5 AccDes= 0.00D+00
 Harris functional with IExCor= 4639 and IRadAn=       5 diagonalized for initial guess.
 HarFok:  IExCor= 4639 AccDes= 0.00D+00 IRadAn=         5 IDoV= 1 UseB2=F ITyADJ=14
 ICtDFT=  3500011 ScaDFX=  1.000000  1.000000  1.000000  1.000000
 FoFCou: FMM=F IPFlag=           0 FMFlag=      100000 FMFlg1=           0
         NFxFlg=           0 DoJE=T BraDBF=F KetDBF=T FulRan=T
         wScrn=  0.000000 ICntrl=       500 IOpCl=  0 I1Cent=   200000004 NGrid=           0
         NMat0=    1 NMatS0=      1 NMatT0=    0 NMatD0=    1 NMtDS0=    0 NMtDT0=    0
 Petite list used in FoFCou.
 Requested convergence on RMS density matrix=1.00D-08 within 128 cycles.
 Requested convergence on MAX density matrix=1.00D-06.
 Requested convergence on             energy=1.00D-06.
 No special actions if energy rises.
 SCF Done:  E(RwB97XD) =  -1478.01645939     A.U. after   15 cycles
            NFock= 15  Conv=0.30D-08     -V/T= 2.0026
 DoSCS=F DFT=T ScalE2(SS,OS)=  1.000000  1.000000
 Range of M.O.s used for correlation:     1   522
 NBasis=   522 NAE=    76 NBE=    76 NFC=     0 NFV=     0
 NROrb=    522 NOA=    76 NOB=    76 NVA=   446 NVB=   446

 **** Warning!!: The largest alpha MO coefficient is  0.10272576D+03

 Symmetrizing basis deriv contribution to polar:
 IMax=3 JMax=2 DiffMx= 0.00D+00
 G2DrvN: will do    21 centers at a time, making    1 passes.
 Calling FoFCou, ICntrl=  3107 FMM=F I1Cent=   0 AccDes= 0.00D+00.
 End of G2Drv F.D. properties file   721 does not exist.
 End of G2Drv F.D. properties file   722 does not exist.
 End of G2Drv F.D. properties file   788 does not exist.
          IDoAtm=11111111111111111111
          Differentiating once with respect to electric field.
                with respect to dipole field.
          Differentiating once with respect to nuclear coordinates.
 CalDSu exits because no D1Ps are significant.
          There are    63 degrees of freedom in the 1st order CPHF.  IDoFFX=6 NUNeed=     3.
     60 vectors produced by pass  0 Test12= 5.38D-14 1.59D-09 XBig12= 2.76D+01 1.53D+00.
 AX will form    60 AO Fock derivatives at one time.
     60 vectors produced by pass  1 Test12= 5.38D-14 1.59D-09 XBig12= 5.24D+00 3.59D-01.
     60 vectors produced by pass  2 Test12= 5.38D-14 1.59D-09 XBig12= 2.14D-01 5.46D-02.
     60 vectors produced by pass  3 Test12= 5.38D-14 1.59D-09 XBig12= 4.44D-03 8.64D-03.
     60 vectors produced by pass  4 Test12= 5.38D-14 1.59D-09 XBig12= 7.56D-05 7.73D-04.
     60 vectors produced by pass  5 Test12= 5.38D-14 1.59D-09 XBig12= 8.13D-07 6.84D-05.
     60 vectors produced by pass  6 Test12= 5.38D-14 1.59D-09 XBig12= 6.33D-09 6.27D-06.
     37 vectors produced by pass  7 Test12= 5.38D-14 1.59D-09 XBig12= 4.08D-11 3.97D-07.
      4 vectors produced by pass  8 Test12= 5.38D-14 1.59D-09 XBig12= 2.50D-13 3.95D-08.
      3 vectors produced by pass  9 Test12= 5.38D-14 1.59D-09 XBig12= 2.15D-15 4.41D-09.
 InvSVY:  IOpt=1 It=  1 EMax= 2.21D-15
 Solved reduced A of dimension   464 with    63 vectors.
 Isotropic polarizability for W=    0.000000       84.81 Bohr**3.
 End of Minotr F.D. properties file   721 does not exist.
 End of Minotr F.D. properties file   722 does not exist.
 End of Minotr F.D. properties file   788 does not exist.

 **********************************************************************

            Population analysis using the SCF density.

 **********************************************************************

 Orbital symmetries:
       Occupied  (A) (A) (A) (A) (A) (A) (A) (A) (A) (A) (A) (A)
                 (A) (A) (A) (A) (A) (A) (A) (A) (A) (A) (A) (A)
                 (A) (A) (A) (A) (A) (A) (A) (A) (A) (A) (A) (A)
                 (A) (A) (A) (A) (A) (A) (A) (A) (A) (A) (A) (A)
                 (A) (A) (A) (A) (A) (A) (A) (A) (A) (A) (A) (A)
                 (A) (A) (A) (A) (A) (A) (A) (A) (A) (A) (A) (A)
                 (A) (A) (A) (A)
       Virtual   (A) (A) (A) (A) (A) (A) (A) (A) (A) (A) (A) (A)
                 (A) (A) (A) (A) (A) (A) (A) (A) (A) (A) (A) (A)
                 (A) (A) (A) (A) (A) (A) (A) (A) (A) (A) (A) (A)
                 (A) (A) (A) (A) (A) (A) (A) (A) (A) (A) (A) (A)
                 (A) (A) (A) (A) (A) (A) (A) (A) (A) (A) (A) (A)
                 (A) (A) (A) (A) (A) (A) (A) (A) (A) (A) (A) (A)
                 (A) (A) (A) (A) (A) (A) (A) (A) (A) (A) (A) (A)
                 (A) (A) (A) (A) (A) (A) (A) (A) (A) (A) (A) (A)
                 (A) (A) (A) (A) (A) (A) (A) (A) (A) (A) (A) (A)
                 (A) (A) (A) (A) (A) (A) (A) (A) (A) (A) (A) (A)
                 (A) (A) (A) (A) (A) (A) (A) (A) (A) (A) (A) (A)
                 (A) (A) (A) (A) (A) (A) (A) (A) (A) (A) (A) (A)
                 (A) (A) (A) (A) (A) (A) (A) (A) (A) (A) (A) (A)
                 (A) (A) (A) (A) (A) (A) (A) (A) (A) (A) (A) (A)
                 (A) (A) (A) (A) (A) (A) (A) (A) (A) (A) (A) (A)
                 (A) (A) (A) (A) (A) (A) (A) (A) (A) (A) (A) (A)
                 (A) (A) (A) (A) (A) (A) (A) (A) (A) (A) (A) (A)
                 (A) (A) (A) (A) (A) (A) (A) (A) (A) (A) (A) (A)
                 (A) (A) (A) (A) (A) (A) (A) (A) (A) (A) (A) (A)
                 (A) (A) (A) (A) (A) (A) (A) (A) (A) (A) (A) (A)
                 (A) (A) (A) (A) (A) (A) (A) (A) (A) (A) (A) (A)
                 (A) (A) (A) (A) (A) (A) (A) (A) (A) (A) (A) (A)
                 (A) (A) (A) (A) (A) (A) (A) (A) (A) (A) (A) (A)
                 (A) (A) (A) (A) (A) (A) (A) (A) (A) (A) (A) (A)
                 (A) (A) (A) (A) (A) (A) (A) (A) (A) (A) (A) (A)
                 (A) (A) (A) (A) (A) (A) (A) (A) (A) (A) (A) (A)
                 (A) (A) (A) (A) (A) (A) (A) (A) (A) (A) (A) (A)
                 (A) (A) (A) (A) (A) (A) (A) (A) (A) (A) (A) (A)
                 (A) (A) (A) (A) (A) (A) (A) (A) (A) (A) (A) (A)
                 (A) (A) (A) (A) (A) (A) (A) (A) (A) (A) (A) (A)
                 (A) (A) (A) (A) (A) (A) (A) (A) (A) (A) (A) (A)
                 (A) (A) (A) (A) (A) (A) (A) (A) (A) (A) (A) (A)
                 (A) (A) (A) (A) (A) (A) (A) (A) (A) (A) (A) (A)
                 (A) (A) (A) (A) (A) (A) (A) (A) (A) (A) (A) (A)
                 (A) (A) (A) (A) (A) (A) (A) (A) (A) (A) (A) (A)
                 (A) (A) (A) (A) (A) (A) (A) (A) (A) (A) (A) (A)
                 (A) (A) (A) (A) (A) (A) (A) (A) (A) (A) (A) (A)
                 (A) (A)
 The electronic state is 1-A.
 Alpha  occ. eigenvalues --  -24.88089 -24.88031 -24.87963 -24.87962 -24.87936
 Alpha  occ. eigenvalues --  -24.87919 -24.87886 -24.87865 -24.87839 -24.86937
 Alpha  occ. eigenvalues --  -24.86916 -19.34679 -19.28935 -10.58433 -10.53088
 Alpha  occ. eigenvalues --  -10.52930 -10.52760 -10.51971 -10.47185  -1.47473
 Alpha  occ. eigenvalues --   -1.44999  -1.43256  -1.42590  -1.42009  -1.38425
 Alpha  occ. eigenvalues --   -1.37737  -1.37655  -1.36957  -1.36595  -1.35968
 Alpha  occ. eigenvalues --   -1.27049  -1.18132  -0.95804  -0.93194  -0.89037
 Alpha  occ. eigenvalues --   -0.83569  -0.79866  -0.77735  -0.75777  -0.75090
 Alpha  occ. eigenvalues --   -0.74321  -0.73300  -0.72732  -0.72492  -0.71072
 Alpha  occ. eigenvalues --   -0.70799  -0.69471  -0.68392  -0.68087  -0.62511
 Alpha  occ. eigenvalues --   -0.61854  -0.61373  -0.60970  -0.60428  -0.60029
 Alpha  occ. eigenvalues --   -0.59500  -0.58921  -0.58753  -0.58584  -0.57547
 Alpha  occ. eigenvalues --   -0.57324  -0.56937  -0.56102  -0.55740  -0.55136
 Alpha  occ. eigenvalues --   -0.54979  -0.54476  -0.54052  -0.53905  -0.53689
 Alpha  occ. eigenvalues --   -0.53311  -0.52157  -0.49275  -0.45975  -0.45082
 Alpha  occ. eigenvalues --   -0.41177
 Alpha virt. eigenvalues --    0.01434   0.04973   0.06808   0.07663   0.08042
 Alpha virt. eigenvalues --    0.09486   0.09808   0.10489   0.10786   0.11988
 Alpha virt. eigenvalues --    0.12488   0.12644   0.12914   0.13177   0.13925
 Alpha virt. eigenvalues --    0.15004   0.15568   0.16404   0.16608   0.17267
 Alpha virt. eigenvalues --    0.17917   0.18159   0.19896   0.20263   0.21163
 Alpha virt. eigenvalues --    0.21801   0.22034   0.23157   0.23852   0.24178
 Alpha virt. eigenvalues --    0.24398   0.25540   0.26162   0.27270   0.27696
 Alpha virt. eigenvalues --    0.27772   0.28783   0.29366   0.30036   0.30257
 Alpha virt. eigenvalues --    0.30723   0.31457   0.31613   0.32045   0.32718
 Alpha virt. eigenvalues --    0.32984   0.33272   0.33822   0.34481   0.34775
 Alpha virt. eigenvalues --    0.35176   0.35684   0.36089   0.37342   0.37563
 Alpha virt. eigenvalues --    0.38082   0.38388   0.38475   0.38774   0.39684
 Alpha virt. eigenvalues --    0.40424   0.41013   0.41888   0.42301   0.42840
 Alpha virt. eigenvalues --    0.43275   0.43714   0.44122   0.44408   0.45136
 Alpha virt. eigenvalues --    0.45286   0.45976   0.46388   0.46655   0.47530
 Alpha virt. eigenvalues --    0.48684   0.49120   0.49813   0.50227   0.51063
 Alpha virt. eigenvalues --    0.51485   0.52219   0.52646   0.52929   0.53264
 Alpha virt. eigenvalues --    0.54610   0.55328   0.55863   0.56849   0.57493
 Alpha virt. eigenvalues --    0.57872   0.59231   0.59744   0.61179   0.63533
 Alpha virt. eigenvalues --    0.64167   0.65595   0.66587   0.67423   0.69429
 Alpha virt. eigenvalues --    0.69559   0.70608   0.72099   0.72682   0.73862
 Alpha virt. eigenvalues --    0.74302   0.75329   0.76394   0.78694   0.79947
 Alpha virt. eigenvalues --    0.80779   0.81714   0.82203   0.83488   0.85130
 Alpha virt. eigenvalues --    0.87396   0.87970   0.90946   0.92144   0.94795
 Alpha virt. eigenvalues --    0.95390   0.99002   1.01472   1.02359   1.04194
 Alpha virt. eigenvalues --    1.06625   1.08435   1.10212   1.10645   1.11491
 Alpha virt. eigenvalues --    1.12328   1.14315   1.15551   1.15928   1.16759
 Alpha virt. eigenvalues --    1.18610   1.19834   1.20979   1.22671   1.23970
 Alpha virt. eigenvalues --    1.24617   1.27174   1.28395   1.29495   1.30954
 Alpha virt. eigenvalues --    1.33483   1.33986   1.36046   1.37399   1.38353
 Alpha virt. eigenvalues --    1.39253   1.39907   1.41161   1.41865   1.42078
 Alpha virt. eigenvalues --    1.42881   1.43560   1.44449   1.44782   1.45270
 Alpha virt. eigenvalues --    1.45965   1.46360   1.47065   1.47760   1.48157
 Alpha virt. eigenvalues --    1.49153   1.49951   1.50258   1.51338   1.51612
 Alpha virt. eigenvalues --    1.52768   1.53091   1.53622   1.54084   1.54684
 Alpha virt. eigenvalues --    1.55844   1.56702   1.57342   1.57703   1.58646
 Alpha virt. eigenvalues --    1.58952   1.60152   1.61424   1.62416   1.63606
 Alpha virt. eigenvalues --    1.64668   1.65505   1.66880   1.67674   1.69943
 Alpha virt. eigenvalues --    1.72141   1.74258   1.75534   1.77658   1.79554
 Alpha virt. eigenvalues --    1.83718   1.84155   1.88581   1.91991   1.93679
 Alpha virt. eigenvalues --    1.98666   2.01300   2.02343   2.03419   2.03860
 Alpha virt. eigenvalues --    2.05040   2.06153   2.07527   2.08645   2.08933
 Alpha virt. eigenvalues --    2.09688   2.11226   2.12631   2.13045   2.13580
 Alpha virt. eigenvalues --    2.14745   2.15370   2.16404   2.17752   2.18283
 Alpha virt. eigenvalues --    2.20800   2.21399   2.22261   2.24598   2.26034
 Alpha virt. eigenvalues --    2.27396   2.29440   2.29990   2.33317   2.33673
 Alpha virt. eigenvalues --    2.34911   2.35193   2.36961   2.39055   2.40113
 Alpha virt. eigenvalues --    2.40323   2.41512   2.44371   2.45432   2.48394
 Alpha virt. eigenvalues --    2.48850   2.52633   2.53082   2.54890   2.57972
 Alpha virt. eigenvalues --    2.59151   2.59650   2.61335   2.63091   2.64719
 Alpha virt. eigenvalues --    2.67450   2.68865   2.70653   2.72008   2.74706
 Alpha virt. eigenvalues --    2.75901   2.77371   2.79968   2.82201   2.84167
 Alpha virt. eigenvalues --    2.84878   2.87973   2.89508   2.90809   2.91444
 Alpha virt. eigenvalues --    2.96319   2.97959   3.03233   3.06328   3.08626
 Alpha virt. eigenvalues --    3.16241   3.18530   3.20093   3.24794   3.26302
 Alpha virt. eigenvalues --    3.31030   3.39828   3.40470   3.43237   3.47883
 Alpha virt. eigenvalues --    3.48781   3.49949   3.51611   3.52062   3.52730
 Alpha virt. eigenvalues --    3.55395   3.55959   3.57040   3.59992   3.61093
 Alpha virt. eigenvalues --    3.62236   3.64029   3.65506   3.67849   3.70033
 Alpha virt. eigenvalues --    3.71812   3.74276   3.75765   3.76807   3.78620
 Alpha virt. eigenvalues --    3.80103   3.82717   3.83351   3.84160   3.85351
 Alpha virt. eigenvalues --    3.91534   3.93336   3.96973   4.06275   4.08538
 Alpha virt. eigenvalues --    4.12205   4.26089   4.31107   4.32448   4.35280
 Alpha virt. eigenvalues --    4.37113   4.37580   4.38850   4.41029   4.42102
 Alpha virt. eigenvalues --    4.43062   4.49444   4.51846   5.11332   5.15365
 Alpha virt. eigenvalues --    5.32482   5.62845   5.99158   6.31936   6.41097
 Alpha virt. eigenvalues --    6.42826   6.44168   6.44608   6.45086   6.46835
 Alpha virt. eigenvalues --    6.48403   6.48641   6.50367   6.51461   6.52111
 Alpha virt. eigenvalues --    6.52501   6.52516   6.53560   6.54028   6.55088
 Alpha virt. eigenvalues --    6.55530   6.56480   6.57313   6.60241   6.62796
 Alpha virt. eigenvalues --    6.63826   6.64955   6.70072   6.74390   6.75152
 Alpha virt. eigenvalues --    6.76414   6.83026   6.87397   6.88751   6.89519
 Alpha virt. eigenvalues --    6.91644   6.93229   6.93615   6.95262   7.01062
 Alpha virt. eigenvalues --    7.05027   7.15338   7.18373   7.24936   7.29075
 Alpha virt. eigenvalues --    7.44819   7.52961   9.08564   9.09316   9.10350
 Alpha virt. eigenvalues --    9.10987   9.11309   9.12238   9.12504   9.14903
 Alpha virt. eigenvalues --    9.17803   9.17977   9.19245   9.19449   9.20761
 Alpha virt. eigenvalues --    9.21481   9.21788   9.22182   9.23428   9.24575
 Alpha virt. eigenvalues --    9.25758   9.26123   9.26363   9.27011   9.28004
 Alpha virt. eigenvalues --    9.28478   9.29075   9.29365   9.30156   9.34911
 Alpha virt. eigenvalues --    9.35555   9.39763   9.42238   9.44172   9.44893
 Alpha virt. eigenvalues --    9.46441   9.47178   9.51235   9.62331   9.64410
 Alpha virt. eigenvalues --    9.65637   9.66520   9.68522   9.68785   9.73232
 Alpha virt. eigenvalues --    9.73477   9.76233   9.77420   9.78188   9.78666
 Alpha virt. eigenvalues --    9.81251   9.82309   9.83648   9.86090   9.89300
 Alpha virt. eigenvalues --    9.90367   9.92146  23.94931  23.97599  23.99674
 Alpha virt. eigenvalues --   24.03587  24.07699  24.20847  50.06309  50.14300
 Alpha virt. eigenvalues --   66.93414  66.94540  66.95235  66.96316  66.98186
 Alpha virt. eigenvalues --   66.99780  67.00963  67.01529  67.02313  67.06229
 Alpha virt. eigenvalues --   67.07413
          Condensed to atoms (all electrons):
               1          2          3          4          5          6
     1  C   16.489002   0.339270   0.452321  -8.895888  -0.152692  -0.165667
     2  F    0.339270   9.090204   0.003949  -0.163346   0.011891   0.000031
     3  F    0.452321   0.003949   9.087026  -0.178939  -0.000065   0.026008
     4  C   -8.895888  -0.163346  -0.178939  16.392314   0.379227   0.414141
     5  F   -0.152692   0.011891  -0.000065   0.379227   9.082662   0.007371
     6  F   -0.165667   0.000031   0.026008   0.414141   0.007371   9.086731
     7  C    2.403071   0.004194  -0.013486  -4.702288  -0.120303  -0.186667
     8  F   -0.034689   0.013097  -0.001070  -0.080434   0.020139   0.000305
     9  F   -0.024891   0.016554   0.009383  -0.090314  -0.000261   0.010237
    10  C   -1.233977   0.026877  -0.012117   1.308511  -0.032387   0.059168
    11  O    0.013000   0.000092  -0.000309  -0.108022   0.000805   0.005338
    12  O    0.037250  -0.000212  -0.000077  -0.030436   0.005882   0.003267
    13  H   -0.005189   0.000005  -0.000008   0.011672   0.000033  -0.000541
    14  C   -5.033979  -0.095969  -0.202751   2.651381  -0.005774  -0.007369
    15  C    1.621344  -0.018061   0.048892  -1.353162   0.025848  -0.014193
    16  F   -0.093597   0.022651   0.000367   0.010865   0.013072  -0.000805
    17  F   -0.132250  -0.000646   0.011352   0.014785   0.015076   0.008028
    18  F   -0.035861   0.006425   0.007738   0.059382  -0.000085  -0.000100
    19  F    0.009976  -0.002604   0.005995  -0.013708   0.000148  -0.000551
    20  F    0.032797  -0.001056   0.000334   0.023168  -0.000113   0.000014
               7          8          9         10         11         12
     1  C    2.403071  -0.034689  -0.024891  -1.233977   0.013000   0.037250
     2  F    0.004194   0.013097   0.016554   0.026877   0.000092  -0.000212
     3  F   -0.013486  -0.001070   0.009383  -0.012117  -0.000309  -0.000077
     4  C   -4.702288  -0.080434  -0.090314   1.308511  -0.108022  -0.030436
     5  F   -0.120303   0.020139  -0.000261  -0.032387   0.000805   0.005882
     6  F   -0.186667   0.000305   0.010237   0.059168   0.005338   0.003267
     7  C   10.066278   0.316203   0.298648  -1.616420   0.091114  -0.111138
     8  F    0.316203   9.092190  -0.003283  -0.081383  -0.005383   0.012280
     9  F    0.298648  -0.003283   9.130488  -0.122080   0.000476   0.005182
    10  C   -1.616420  -0.081383  -0.122080   6.393848   0.416159   0.354968
    11  O    0.091114  -0.005383   0.000476   0.416159   8.032381  -0.094440
    12  O   -0.111138   0.012280   0.005182   0.354968  -0.094440   7.919001
    13  H   -0.051727  -0.001351  -0.000042   0.042223   0.014576   0.234563
    14  C   -0.881183   0.000221   0.036378   0.020123  -0.001405   0.001173
    15  C    0.040352  -0.001352   0.000171  -0.057907  -0.000031   0.000408
    16  F   -0.008196  -0.000763   0.000044   0.001006  -0.000008   0.000038
    17  F    0.039255   0.000005  -0.000073   0.002761   0.000005  -0.000035
    18  F    0.003663   0.000000  -0.000005   0.000422  -0.000000  -0.000000
    19  F    0.001251  -0.000006   0.000065   0.000330   0.000000   0.000000
    20  F   -0.000051   0.000003  -0.000003   0.000053   0.000000  -0.000001
              13         14         15         16         17         18
     1  C   -0.005189  -5.033979   1.621344  -0.093597  -0.132250  -0.035861
     2  F    0.000005  -0.095969  -0.018061   0.022651  -0.000646   0.006425
     3  F   -0.000008  -0.202751   0.048892   0.000367   0.011352   0.007738
     4  C    0.011672   2.651381  -1.353162   0.010865   0.014785   0.059382
     5  F    0.000033  -0.005774   0.025848   0.013072   0.015076  -0.000085
     6  F   -0.000541  -0.007369  -0.014193  -0.000805   0.008028  -0.000100
     7  C   -0.051727  -0.881183   0.040352  -0.008196   0.039255   0.003663
     8  F   -0.001351   0.000221  -0.001352  -0.000763   0.000005   0.000000
     9  F   -0.000042   0.036378   0.000171   0.000044  -0.000073  -0.000005
    10  C    0.042223   0.020123  -0.057907   0.001006   0.002761   0.000422
    11  O    0.014576  -0.001405  -0.000031  -0.000008   0.000005  -0.000000
    12  O    0.234563   0.001173   0.000408   0.000038  -0.000035  -0.000000
    13  H    0.467327  -0.000575  -0.000032  -0.000004  -0.000004  -0.000000
    14  C   -0.000575  10.577155  -1.935084   0.363004   0.324087  -0.082332
    15  C   -0.000032  -1.935084   6.151128  -0.164748  -0.166898   0.225728
    16  F   -0.000004   0.363004  -0.164748   9.068755   0.003545   0.015999
    17  F   -0.000004   0.324087  -0.166898   0.003545   9.113197   0.001497
    18  F   -0.000000  -0.082332   0.225728   0.015999   0.001497   9.074662
    19  F    0.000000  -0.071423   0.284110  -0.000642   0.021258   0.006221
    20  F   -0.000000  -0.102207   0.186771   0.022372   0.019838   0.003318
              19         20
     1  C    0.009976   0.032797
     2  F   -0.002604  -0.001056
     3  F    0.005995   0.000334
     4  C   -0.013708   0.023168
     5  F    0.000148  -0.000113
     6  F   -0.000551   0.000014
     7  C    0.001251  -0.000051
     8  F   -0.000006   0.000003
     9  F    0.000065  -0.000003
    10  C    0.000330   0.000053
    11  O    0.000000   0.000000
    12  O    0.000000  -0.000001
    13  H    0.000000  -0.000000
    14  C   -0.071423  -0.102207
    15  C    0.284110   0.186771
    16  F   -0.000642   0.022372
    17  F    0.021258   0.019838
    18  F    0.006221   0.003318
    19  F    9.037655  -0.008228
    20  F   -0.008228   9.113513
 Mulliken charges:
               1
     1  C    0.410650
     2  F   -0.253346
     3  F   -0.244544
     4  C    0.351091
     5  F   -0.250474
     6  F   -0.244746
     7  C    0.427430
     8  F   -0.244730
     9  F   -0.266673
    10  C    0.529821
    11  O   -0.364347
    12  O   -0.337673
    13  H    0.289073
    14  C    0.446530
    15  C    1.126717
    16  F   -0.252954
    17  F   -0.274785
    18  F   -0.286672
    19  F   -0.269847
    20  F   -0.290523
 Sum of Mulliken charges =  -0.00000
 Mulliken charges with hydrogens summed into heavy atoms:
               1
     1  C    0.410650
     2  F   -0.253346
     3  F   -0.244544
     4  C    0.351091
     5  F   -0.250474
     6  F   -0.244746
     7  C    0.427430
     8  F   -0.244730
     9  F   -0.266673
    10  C    0.529821
    11  O   -0.364347
    12  O   -0.048600
    14  C    0.446530
    15  C    1.126717
    16  F   -0.252954
    17  F   -0.274785
    18  F   -0.286672
    19  F   -0.269847
    20  F   -0.290523
 APT charges:
               1
     1  C    0.913046
     2  F   -0.451670
     3  F   -0.453381
     4  C    0.887003
     5  F   -0.450696
     6  F   -0.462534
     7  C    0.940036
     8  F   -0.473980
     9  F   -0.451181
    10  C    1.071798
    11  O   -0.694017
    12  O   -0.680314
    13  H    0.318295
    14  C    0.906614
    15  C    1.559763
    16  F   -0.462863
    17  F   -0.464044
    18  F   -0.502921
    19  F   -0.500015
    20  F   -0.548939
 Sum of APT charges =  -0.00000
 APT charges with hydrogens summed into heavy atoms:
               1
     1  C    0.913046
     2  F   -0.451670
     3  F   -0.453381
     4  C    0.887003
     5  F   -0.450696
     6  F   -0.462534
     7  C    0.940036
     8  F   -0.473980
     9  F   -0.451181
    10  C    1.071798
    11  O   -0.694017
    12  O   -0.362019
    14  C    0.906614
    15  C    1.559763
    16  F   -0.462863
    17  F   -0.464044
    18  F   -0.502921
    19  F   -0.500015
    20  F   -0.548939
 Electronic spatial extent (au):  <R**2>=           4502.8510
 Charge=             -0.0000 electrons
 Dipole moment (field-independent basis, Debye):
    X=             -1.3538    Y=              1.7950    Z=              0.2595  Tot=              2.2632
 Quadrupole moment (field-independent basis, Debye-Ang):
   XX=            -93.0939   YY=           -101.4502   ZZ=           -104.6869
   XY=             -9.8650   XZ=             -2.1105   YZ=             -2.4738
 Traceless Quadrupole moment (field-independent basis, Debye-Ang):
   XX=              6.6498   YY=             -1.7065   ZZ=             -4.9433
   XY=             -9.8650   XZ=             -2.1105   YZ=             -2.4738
 Octapole moment (field-independent basis, Debye-Ang**2):
  XXX=            -27.9558  YYY=              2.9684  ZZZ=              3.8729  XYY=             -0.3108
  XXY=             46.4429  XXZ=             12.2816  XZZ=             17.9047  YZZ=              0.7546
  YYZ=             -0.5947  XYZ=             10.1458
 Hexadecapole moment (field-independent basis, Debye-Ang**3):
 XXXX=          -3433.7536 YYYY=           -591.2698 ZZZZ=           -487.1066 XXXY=           -245.9471
 XXXZ=            -70.9433 YYYX=            -25.0173 YYYZ=             -5.2600 ZZZX=            -16.1158
 ZZZY=             -2.0046 XXYY=           -665.0260 XXZZ=           -741.8664 YYZZ=           -181.8826
 XXYZ=            -44.7203 YYXZ=              0.9267 ZZXY=             -3.9900
 N-N= 1.885092673335D+03 E-N=-7.277661061044D+03  KE= 1.474161887552D+03
  Exact polarizability:  96.611  -0.835  79.725   4.150   3.425  78.080
 Approx polarizability:  87.075   1.258  93.811   4.744   6.490  97.648
 Calling FoFJK, ICntrl=    100127 FMM=F ISym2X=0 I1Cent= 0 IOpClX= 0 NMat=1 NMatS=1 NMatT=0.
 Full mass-weighted force constant matrix:
 Low frequencies ---   -4.8086   -2.1858    0.0006    0.0008    0.0009    4.8855
 Low frequencies ---   31.9741   40.9797   47.0084
 Diagonal vibrational polarizability:
       36.9734170      27.7313914      54.4906891
 Harmonic frequencies (cm**-1), IR intensities (KM/Mole), Raman scattering
 activities (A**4/AMU), depolarization ratios for plane and unpolarized
 incident light, reduced masses (AMU), force constants (mDyne/A),
 and normal coordinates:
                      1                      2                      3
                      A                      A                      A
 Frequencies --     31.9726                40.9692                47.0001
 Red. masses --     13.2570                16.7201                15.2454
 Frc consts  --      0.0080                 0.0165                 0.0198
 IR Inten    --      0.9627                 0.2752                 0.6504
  Atom  AN      X      Y      Z        X      Y      Z        X      Y      Z
     1   6     0.00  -0.01  -0.05    -0.00  -0.02  -0.19    -0.01   0.04  -0.03
     2   9     0.03   0.00  -0.04    -0.03  -0.18  -0.27     0.04  -0.05  -0.08
     3   9    -0.01  -0.01  -0.04     0.03   0.10  -0.30    -0.10   0.13  -0.12
     4   6    -0.01  -0.02  -0.03    -0.01  -0.00  -0.14    -0.01   0.08   0.13
     5   9    -0.03  -0.03  -0.01     0.05   0.04  -0.21    -0.00  -0.05   0.35
     6   9    -0.01   0.01  -0.02    -0.10  -0.08  -0.14    -0.03   0.33   0.19
     7   6    -0.00  -0.04  -0.05     0.03   0.03   0.01    -0.00  -0.02  -0.01
     8   9     0.08  -0.21  -0.04     0.17   0.06   0.02    -0.12  -0.10  -0.02
     9   9    -0.06   0.01  -0.23    -0.02   0.02   0.02     0.10   0.01  -0.06
    10   6    -0.02   0.08   0.10    -0.06  -0.00   0.17     0.00  -0.08  -0.07
    11   8     0.01   0.28  -0.07    -0.31  -0.14   0.47    -0.11  -0.24   0.14
    12   8    -0.07  -0.06   0.42     0.15   0.14  -0.04     0.13   0.07  -0.36
    13   1    -0.08   0.02   0.50     0.07   0.10   0.09     0.12   0.03  -0.37
    14   6    -0.00  -0.00  -0.08    -0.01  -0.02  -0.01     0.02  -0.00  -0.04
    15   6     0.02   0.00   0.09     0.03   0.02   0.13     0.01  -0.04   0.01
    16   9    -0.07   0.13  -0.15    -0.15  -0.06   0.02     0.03   0.04  -0.06
    17   9     0.04  -0.12  -0.19     0.08   0.01  -0.00     0.05  -0.03  -0.07
    18   9     0.04   0.17   0.29    -0.04   0.00   0.12     0.06   0.13   0.19
    19   9     0.07  -0.24   0.18     0.18   0.04   0.13    -0.06  -0.27   0.09
    20   9    -0.01   0.08  -0.06    -0.02   0.04   0.26     0.01   0.02  -0.21
                      4                      5                      6
                      A                      A                      A
 Frequencies --     54.9602                63.6901                89.7700
 Red. masses --     13.9596                17.9226                14.2102
 Frc consts  --      0.0248                 0.0428                 0.0675
 IR Inten    --      0.7077                 0.0629                 0.3054
  Atom  AN      X      Y      Z        X      Y      Z        X      Y      Z
     1   6     0.02  -0.07   0.12     0.01   0.13   0.05    -0.01   0.13   0.02
     2   9     0.01   0.06   0.18     0.04   0.27   0.13    -0.10   0.16   0.04
     3   9     0.08  -0.17   0.23     0.01   0.03   0.14     0.03   0.09   0.06
     4   6     0.02  -0.10  -0.01    -0.01   0.07   0.03    -0.00   0.11  -0.11
     5   9    -0.01  -0.08  -0.04    -0.09   0.03   0.09    -0.07   0.16  -0.19
     6   9     0.12  -0.15  -0.03     0.00   0.13   0.04     0.05   0.01  -0.14
     7   6    -0.03  -0.06  -0.10     0.03  -0.05  -0.06     0.05   0.03  -0.10
     8   9    -0.03  -0.22  -0.10     0.03  -0.21  -0.05     0.13  -0.04  -0.09
     9   9    -0.13  -0.01  -0.27     0.10   0.01  -0.20     0.14   0.07  -0.18
    10   6    -0.02   0.12   0.01    -0.04  -0.08   0.05    -0.07  -0.10   0.05
    11   8    -0.29   0.10   0.23    -0.13  -0.13   0.17    -0.11  -0.19   0.14
    12   8     0.31   0.26  -0.14     0.01  -0.05   0.01    -0.17  -0.15   0.11
    13   1     0.29   0.34  -0.04    -0.05  -0.09   0.11    -0.28  -0.26   0.24
    14   6    -0.02  -0.00   0.05     0.03   0.09  -0.10     0.05   0.05   0.11
    15   6     0.01   0.07  -0.04    -0.02  -0.07   0.02    -0.03  -0.07  -0.01
    16   9     0.02  -0.01   0.05     0.06   0.29  -0.21     0.13  -0.10   0.19
    17   9    -0.11   0.00   0.07     0.09  -0.06  -0.24     0.12   0.20   0.23
    18   9     0.12   0.08  -0.04    -0.31  -0.24  -0.14    -0.02  -0.00   0.08
    19   9    -0.06   0.07  -0.04     0.10   0.13  -0.04    -0.22  -0.20   0.02
    20   9    -0.03   0.13  -0.11     0.08  -0.27   0.34     0.08  -0.14  -0.22
                      7                      8                      9
                      A                      A                      A
 Frequencies --    144.0631               170.0468               196.4373
 Red. masses --     11.5537                17.3721                15.1915
 Frc consts  --      0.1413                 0.2960                 0.3454
 IR Inten    --      1.0117                 0.0775                 0.3986
  Atom  AN      X      Y      Z        X      Y      Z        X      Y      Z
     1   6     0.01   0.06  -0.03    -0.07  -0.12   0.02     0.12  -0.09   0.02
     2   9     0.06   0.00  -0.06    -0.19  -0.08   0.04     0.25  -0.21  -0.05
     3   9     0.05   0.12  -0.08    -0.11  -0.18   0.07     0.27   0.01  -0.05
     4   6    -0.01  -0.06   0.01     0.11   0.11  -0.05     0.12  -0.12   0.00
     5   9    -0.06  -0.02  -0.06     0.24   0.07   0.02     0.17  -0.18   0.11
     6   9    -0.11  -0.15  -0.00     0.21   0.22  -0.02     0.36  -0.01   0.00
     7   6     0.07  -0.12   0.08     0.19   0.10  -0.05    -0.03   0.05  -0.09
     8   9     0.10  -0.14   0.08     0.31   0.07  -0.04    -0.04   0.20  -0.09
     9   9     0.08  -0.12   0.07     0.32   0.13  -0.10    -0.17   0.00   0.02
    10   6     0.18   0.01   0.01     0.14  -0.03   0.03    -0.10   0.03  -0.03
    11   8     0.20   0.13  -0.09     0.16  -0.08   0.06    -0.15  -0.05   0.06
    12   8     0.36   0.07  -0.05     0.09  -0.04   0.04    -0.21  -0.03   0.04
    13   1     0.50   0.25  -0.17     0.05  -0.08   0.08    -0.33  -0.16   0.16
    14   6    -0.05   0.13   0.01    -0.16  -0.10   0.01    -0.01   0.12   0.02
    15   6    -0.14   0.01   0.01    -0.15   0.02   0.01    -0.08   0.06   0.01
    16   9    -0.06   0.11   0.02    -0.24  -0.05  -0.02    -0.02   0.19  -0.02
    17   9    -0.05   0.16   0.04    -0.30  -0.18  -0.05    -0.13   0.09   0.00
    18   9    -0.29   0.03   0.06    -0.12   0.01  -0.00    -0.26   0.07   0.06
    19   9    -0.24  -0.07   0.03    -0.15   0.04   0.00    -0.19   0.00   0.02
    20   9    -0.00  -0.14  -0.05    -0.23   0.08   0.03     0.09  -0.12  -0.04
                     10                     11                     12
                      A                      A                      A
 Frequencies --    206.8522               228.9701               244.9035
 Red. masses --     17.2527                17.3105                14.6017
 Frc consts  --      0.4349                 0.5347                 0.5160
 IR Inten    --      2.8907                 0.6841                 1.0371
  Atom  AN      X      Y      Z        X      Y      Z        X      Y      Z
     1   6    -0.01  -0.01  -0.18     0.02  -0.04   0.00     0.02  -0.02  -0.05
     2   9    -0.08   0.33   0.00     0.06  -0.01   0.01     0.39   0.08   0.02
     3   9     0.04  -0.29   0.09     0.04  -0.05   0.01    -0.27  -0.14   0.03
     4   6    -0.00  -0.08  -0.17     0.02   0.02   0.09     0.01  -0.01   0.06
     5   9     0.05  -0.27   0.16     0.29   0.10  -0.06     0.01   0.02   0.00
     6   9    -0.07   0.28  -0.07    -0.19  -0.16   0.07     0.04  -0.08   0.04
     7   6     0.01  -0.10  -0.08    -0.02   0.10   0.10    -0.00   0.06   0.08
     8   9     0.14   0.16  -0.08    -0.17  -0.16   0.08     0.25  -0.13   0.10
     9   9    -0.14  -0.19   0.16     0.10   0.19  -0.15    -0.21   0.11  -0.13
    10   6     0.00  -0.06  -0.02    -0.01   0.06   0.03    -0.01   0.08   0.06
    11   8    -0.09   0.04  -0.02     0.10  -0.06   0.02     0.20  -0.09   0.02
    12   8     0.14  -0.06   0.08    -0.17   0.06  -0.07    -0.24   0.12  -0.19
    13   1     0.15   0.05   0.14    -0.18  -0.07  -0.15    -0.21  -0.08  -0.39
    14   6    -0.00   0.03  -0.16    -0.01   0.01  -0.12    -0.01   0.01  -0.08
    15   6    -0.01   0.04  -0.07    -0.00   0.03  -0.12    -0.03   0.01   0.02
    16   9    -0.03  -0.25   0.01     0.27  -0.18  -0.02    -0.27  -0.12   0.01
    17   9     0.08   0.28   0.06    -0.33   0.15   0.06     0.24   0.14   0.01
    18   9    -0.21   0.11   0.05    -0.33   0.14   0.07    -0.01  -0.00  -0.01
    19   9     0.20  -0.08  -0.01     0.36  -0.14  -0.02    -0.07   0.01   0.00
    20   9    -0.02   0.03   0.01    -0.02   0.02   0.02    -0.04   0.01   0.03
                     13                     14                     15
                      A                      A                      A
 Frequencies --    251.7121               257.6142               292.1945
 Red. masses --     18.4165                14.8236                18.2658
 Frc consts  --      0.6875                 0.5796                 0.9188
 IR Inten    --      0.0860                 0.1530                 4.2809
  Atom  AN      X      Y      Z        X      Y      Z        X      Y      Z
     1   6     0.04  -0.05  -0.13    -0.00  -0.00   0.00    -0.01  -0.08  -0.02
     2   9    -0.06   0.11  -0.03    -0.31  -0.02  -0.02    -0.09  -0.08  -0.02
     3   9     0.23  -0.19   0.04     0.30   0.02   0.02    -0.32  -0.17   0.02
     4   6     0.03  -0.03  -0.02    -0.03  -0.04  -0.08     0.00   0.04  -0.00
     5   9     0.52  -0.05  -0.01     0.05  -0.11   0.07    -0.06   0.05  -0.04
     6   9    -0.37  -0.01   0.02    -0.25   0.10  -0.01    -0.04   0.04  -0.00
     7   6    -0.02   0.04   0.04    -0.01   0.01   0.06     0.01  -0.00  -0.01
     8   9    -0.33  -0.06   0.01     0.40  -0.07   0.09    -0.02  -0.00  -0.01
     9   9     0.17   0.08  -0.05    -0.32   0.02  -0.08     0.02  -0.00  -0.00
    10   6    -0.01   0.01  -0.01    -0.01   0.05   0.06     0.01  -0.01  -0.01
    11   8    -0.03  -0.00   0.01     0.19  -0.07  -0.01    -0.00  -0.00   0.00
    12   8    -0.03  -0.02   0.05    -0.20   0.11  -0.18     0.03  -0.02   0.01
    13   1    -0.06  -0.03   0.11    -0.13  -0.04  -0.43     0.02  -0.01   0.04
    14   6     0.01   0.03   0.02     0.02   0.01   0.09     0.06   0.03  -0.01
    15   6    -0.02   0.02   0.08     0.04   0.00   0.03     0.25   0.15   0.02
    16   9    -0.28   0.07   0.01     0.14   0.14   0.01    -0.22   0.02   0.01
    17   9     0.29   0.02  -0.04    -0.11  -0.10   0.00    -0.24   0.02   0.03
    18   9     0.10  -0.03  -0.01     0.08  -0.01   0.01     0.03   0.18   0.09
    19   9    -0.28   0.11   0.02    -0.05   0.04   0.01     0.05   0.18  -0.01
    20   9     0.05  -0.04  -0.02     0.10  -0.05  -0.03     0.68  -0.29  -0.07
                     16                     17                     18
                      A                      A                      A
 Frequencies --    316.1956               323.9528               351.9905
 Red. masses --     18.4347                17.8819                17.9350
 Frc consts  --      1.0859                 1.1057                 1.3092
 IR Inten    --      0.0548                 0.2108                 0.2980
  Atom  AN      X      Y      Z        X      Y      Z        X      Y      Z
     1   6     0.09  -0.00  -0.00    -0.01   0.00   0.01    -0.02  -0.12   0.03
     2   9     0.39   0.05   0.04     0.36   0.03   0.03    -0.06  -0.30  -0.05
     3   9     0.39  -0.02   0.06    -0.32  -0.01  -0.02    -0.02  -0.24   0.13
     4   6    -0.09   0.02  -0.01    -0.03  -0.00  -0.06    -0.08  -0.05   0.04
     5   9    -0.33  -0.01   0.04     0.26  -0.01  -0.06    -0.28  -0.12   0.13
     6   9    -0.30   0.08   0.02    -0.32   0.05  -0.03    -0.17  -0.14   0.03
     7   6     0.02   0.07  -0.04    -0.01  -0.05  -0.12     0.02   0.05  -0.01
     8   9     0.09   0.17  -0.04     0.19   0.12  -0.12     0.16   0.15  -0.01
     9   9     0.27   0.10  -0.05    -0.03  -0.09  -0.03     0.35   0.11  -0.06
    10   6    -0.05   0.06  -0.03    -0.08  -0.10  -0.13    -0.08   0.06  -0.02
    11   8    -0.10   0.10  -0.03    -0.22   0.05  -0.14    -0.12   0.13  -0.05
    12   8    -0.06   0.07  -0.04     0.08  -0.12  -0.00    -0.11   0.08  -0.06
    13   1    -0.06   0.04  -0.05     0.10   0.04   0.09    -0.09   0.03  -0.14
    14   6    -0.07  -0.04   0.01     0.02   0.00   0.06     0.08  -0.02  -0.01
    15   6     0.03  -0.09  -0.01    -0.02  -0.01   0.12    -0.04   0.09  -0.01
    16   9    -0.30  -0.10   0.05     0.38   0.07   0.01     0.26  -0.04  -0.01
    17   9    -0.29  -0.04   0.04    -0.20  -0.06   0.05     0.35  -0.05  -0.07
    18   9     0.15  -0.13  -0.05     0.15  -0.03   0.08    -0.24   0.17   0.09
    19   9     0.09  -0.16   0.02    -0.22   0.07   0.09    -0.09   0.19  -0.05
    20   9     0.03  -0.09  -0.01    -0.04   0.00   0.18     0.00   0.07  -0.03
                     19                     20                     21
                      A                      A                      A
 Frequencies --    370.1272               371.1307               383.5333
 Red. masses --     14.6708                16.7290                17.7312
 Frc consts  --      1.1842                 1.3576                 1.5367
 IR Inten    --      2.1631                 0.1338                 0.1951
  Atom  AN      X      Y      Z        X      Y      Z        X      Y      Z
     1   6     0.07   0.00  -0.06     0.07  -0.02   0.01     0.01   0.11  -0.04
     2   9     0.13   0.06  -0.03     0.15  -0.07  -0.02    -0.05   0.41   0.10
     3   9     0.07  -0.05  -0.02     0.21  -0.07   0.07     0.00   0.32  -0.23
     4   6     0.03   0.00  -0.05    -0.01   0.13  -0.03     0.04  -0.07   0.02
     5   9    -0.22  -0.00  -0.03     0.00   0.30  -0.28     0.08  -0.18   0.19
     6   9    -0.10   0.08  -0.03     0.07   0.38   0.02     0.11  -0.27  -0.02
     7   6     0.07   0.06  -0.05    -0.08  -0.07   0.08     0.02  -0.01   0.01
     8   9    -0.26   0.16  -0.08     0.00  -0.32   0.10     0.09  -0.02   0.01
     9   9    -0.22   0.07  -0.17    -0.06  -0.13   0.25     0.14  -0.02   0.05
    10   6     0.25   0.05   0.06    -0.14  -0.05   0.00    -0.07   0.05  -0.02
    11   8     0.36  -0.24   0.21    -0.16   0.10  -0.11    -0.12   0.11  -0.03
    12   8     0.15  -0.01   0.15    -0.05  -0.00  -0.07    -0.15   0.06  -0.07
    13   1    -0.01  -0.12   0.37     0.09   0.12  -0.26    -0.16  -0.05  -0.13
    14   6     0.04  -0.07  -0.02     0.03  -0.07  -0.00     0.00  -0.09  -0.02
    15   6    -0.02   0.04   0.04    -0.02   0.05   0.00     0.01   0.04   0.02
    16   9     0.15  -0.21   0.04     0.05  -0.21   0.07    -0.03  -0.35   0.11
    17   9    -0.03  -0.18  -0.11     0.05  -0.21  -0.12    -0.07  -0.28  -0.18
    18   9    -0.06   0.09   0.10    -0.15   0.11   0.08    -0.04   0.11   0.11
    19   9    -0.19   0.14   0.00    -0.09   0.14  -0.03    -0.11   0.16  -0.02
    20   9     0.00   0.01   0.07     0.02   0.01  -0.03     0.10  -0.05   0.01
                     22                     23                     24
                      A                      A                      A
 Frequencies --    393.8383               459.9515               506.9362
 Red. masses --     15.9183                12.5516                 4.6153
 Frc consts  --      1.4547                 1.5645                 0.6988
 IR Inten    --      1.7674                 4.3934                 8.7540
  Atom  AN      X      Y      Z        X      Y      Z        X      Y      Z
     1   6    -0.00  -0.04  -0.21    -0.04   0.01  -0.04    -0.05  -0.03  -0.05
     2   9    -0.04   0.11  -0.16    -0.10  -0.02  -0.07     0.06   0.07  -0.00
     3   9    -0.01  -0.23  -0.08     0.16  -0.04   0.04    -0.01  -0.04  -0.06
     4   6     0.01  -0.04  -0.13    -0.06   0.07   0.16    -0.09  -0.03  -0.07
     5   9    -0.14  -0.14  -0.01    -0.01   0.17   0.07    -0.00  -0.10  -0.02
     6   9     0.19   0.07  -0.14     0.11  -0.12   0.14     0.07   0.06  -0.09
     7   6     0.01   0.01   0.07    -0.10   0.04   0.11    -0.12   0.01   0.10
     8   9    -0.14  -0.21   0.07     0.08   0.10   0.16    -0.04   0.04   0.15
     9   9     0.22   0.00   0.17    -0.10   0.14  -0.15     0.03   0.12  -0.09
    10   6    -0.00   0.14   0.12    -0.12  -0.20  -0.03    -0.13  -0.11   0.12
    11   8     0.09   0.08   0.10    -0.12  -0.04  -0.16     0.02  -0.03  -0.06
    12   8    -0.21   0.20  -0.05     0.19  -0.18   0.02     0.06  -0.04   0.04
    13   1    -0.20  -0.03  -0.26     0.43   0.29  -0.10     0.54   0.46  -0.52
    14   6    -0.00   0.03  -0.11    -0.04   0.02  -0.20    -0.03  -0.02   0.07
    15   6    -0.00  -0.03   0.07    -0.01  -0.01  -0.03    -0.01  -0.02   0.04
    16   9     0.22   0.03  -0.14     0.02  -0.18  -0.15     0.03   0.07   0.04
    17   9    -0.18   0.19   0.03    -0.03   0.19  -0.12     0.00  -0.07   0.06
    18   9     0.25  -0.03   0.05     0.18   0.10   0.06    -0.03  -0.05   0.03
    19   9    -0.23  -0.03   0.06    -0.15  -0.02  -0.05     0.06   0.07   0.02
    20   9    -0.03  -0.05   0.23     0.01  -0.10   0.21     0.00  -0.00  -0.11
                     25                     26                     27
                      A                      A                      A
 Frequencies --    533.0931               546.8358               569.8686
 Red. masses --     16.0111                 6.0546                11.8034
 Frc consts  --      2.6809                 1.0667                 2.2584
 IR Inten    --     11.2840                 8.8644                37.7967
  Atom  AN      X      Y      Z        X      Y      Z        X      Y      Z
     1   6     0.13   0.03  -0.17     0.02  -0.01  -0.10     0.10  -0.15  -0.05
     2   9    -0.04   0.12  -0.22     0.01   0.10  -0.09    -0.08   0.12   0.12
     3   9    -0.01  -0.20  -0.04     0.03  -0.12  -0.07     0.02  -0.08  -0.25
     4   6     0.09   0.09   0.05     0.04   0.07   0.05     0.10  -0.13   0.16
     5   9    -0.07   0.11   0.12    -0.04   0.10   0.08    -0.05   0.07  -0.21
     6   9     0.03  -0.11   0.03     0.01  -0.08   0.04     0.02   0.07   0.34
     7   6     0.05   0.06   0.06     0.05   0.07   0.00     0.08  -0.18   0.05
     8   9     0.01  -0.03   0.08     0.03  -0.07   0.00    -0.02   0.19   0.05
     9   9    -0.07   0.10   0.01    -0.06   0.07   0.07     0.04  -0.21  -0.21
    10   6    -0.00  -0.05  -0.09     0.05   0.02  -0.13     0.07  -0.01   0.08
    11   8    -0.11   0.01  -0.07    -0.06  -0.01  -0.03    -0.04   0.13   0.06
    12   8     0.06  -0.09  -0.03     0.06  -0.04  -0.03    -0.12  -0.00  -0.05
    13   1    -0.10  -0.13   0.25    -0.40  -0.33   0.65     0.08  -0.14  -0.55
    14   6     0.15   0.08   0.07    -0.00  -0.08   0.03     0.07  -0.10  -0.02
    15   6     0.13   0.19   0.11    -0.03  -0.11   0.06     0.05   0.00   0.03
    16   9     0.05   0.01   0.17     0.01   0.08  -0.07     0.01   0.04  -0.14
    17   9    -0.07  -0.11  -0.07    -0.03  -0.03   0.13     0.00   0.01   0.14
    18   9    -0.18  -0.18  -0.33    -0.00  -0.08   0.18    -0.05  -0.05   0.01
    19   9    -0.11  -0.20   0.32     0.07   0.18  -0.04    -0.05   0.02   0.03
    20   9     0.17   0.34  -0.02    -0.10  -0.06  -0.15     0.01   0.07  -0.02
                     28                     29                     30
                      A                      A                      A
 Frequencies --    588.5261               607.7697               617.6692
 Red. masses --      3.6587                 5.5977                 6.0424
 Frc consts  --      0.7466                 1.2183                 1.3582
 IR Inten    --     28.9273                45.9568                16.1884
  Atom  AN      X      Y      Z        X      Y      Z        X      Y      Z
     1   6     0.00  -0.09   0.03    -0.07   0.01   0.05    -0.00   0.11  -0.06
     2   9    -0.00   0.01   0.14    -0.01  -0.06   0.05     0.01   0.03  -0.18
     3   9    -0.00   0.02  -0.11    -0.00   0.08   0.06    -0.04  -0.03   0.10
     4   6    -0.01  -0.07  -0.03    -0.06  -0.08  -0.00     0.01  -0.03  -0.00
     5   9    -0.03  -0.09  -0.08     0.02  -0.09  -0.10     0.02  -0.03  -0.04
     6   9    -0.01   0.07  -0.01     0.02   0.06   0.03     0.04   0.02   0.02
     7   6    -0.02   0.06   0.05    -0.04  -0.03   0.04     0.04  -0.11   0.10
     8   9     0.01  -0.04   0.10     0.00   0.03   0.07    -0.04   0.09   0.16
     9   9     0.00   0.12   0.02     0.03  -0.00  -0.04     0.01  -0.09  -0.14
    10   6    -0.00   0.00  -0.08     0.00   0.01  -0.01     0.06  -0.03   0.04
    11   8    -0.03  -0.02  -0.05     0.01   0.01  -0.02    -0.03   0.11   0.01
    12   8     0.08  -0.01  -0.04     0.04   0.03  -0.05    -0.01  -0.02  -0.10
    13   1    -0.43  -0.30   0.75    -0.45  -0.35   0.63    -0.47  -0.58   0.37
    14   6     0.01  -0.04   0.02    -0.07   0.07  -0.09    -0.02   0.10   0.08
    15   6     0.02   0.04  -0.06    -0.02  -0.00   0.13    -0.06  -0.02  -0.06
    16   9    -0.00   0.03  -0.03     0.03  -0.12  -0.04     0.00   0.06   0.21
    17   9     0.04  -0.03   0.07    -0.03   0.14  -0.16    -0.01  -0.07  -0.08
    18   9    -0.02   0.09  -0.05     0.02  -0.18   0.02     0.05   0.09   0.01
    19   9    -0.03  -0.08  -0.05     0.02   0.12   0.19     0.06  -0.04  -0.10
    20   9     0.03   0.02   0.09     0.04   0.03  -0.14    -0.07  -0.10   0.03
                     31                     32                     33
                      A                      A                      A
 Frequencies --    656.9038               680.6236               713.7003
 Red. masses --      9.7242                 5.6237                10.8950
 Frc consts  --      2.4723                 1.5349                 3.2697
 IR Inten    --     82.9109               115.1096                 7.2344
  Atom  AN      X      Y      Z        X      Y      Z        X      Y      Z
     1   6    -0.12  -0.08  -0.06     0.10  -0.01   0.02    -0.08  -0.21   0.02
     2   9    -0.01   0.08  -0.02    -0.04  -0.02   0.04     0.02  -0.05   0.28
     3   9     0.02  -0.13  -0.14    -0.05   0.00  -0.02     0.05  -0.14  -0.27
     4   6    -0.12  -0.12   0.12     0.15  -0.09   0.00    -0.06   0.16  -0.05
     5   9    -0.00   0.02  -0.11    -0.06  -0.12  -0.10    -0.01   0.20   0.19
     6   9     0.05  -0.02   0.28    -0.03   0.04   0.07    -0.02  -0.03  -0.20
     7   6    -0.14   0.04  -0.10     0.15   0.11   0.01     0.02  -0.02   0.00
     8   9     0.08  -0.03  -0.18    -0.01  -0.06   0.01    -0.03   0.01  -0.02
     9   9     0.06   0.01   0.08    -0.05   0.18   0.07    -0.04  -0.05  -0.02
    10   6    -0.15   0.09  -0.07     0.18   0.02  -0.14     0.12  -0.09   0.14
    11   8     0.08  -0.19  -0.05    -0.11   0.06   0.06     0.01   0.16   0.07
    12   8     0.03   0.15   0.11    -0.04  -0.18   0.02    -0.00  -0.10  -0.10
    13   1     0.07   0.55   0.34     0.42   0.06  -0.71    -0.12  -0.56  -0.22
    14   6    -0.13   0.14   0.06     0.03   0.10  -0.00    -0.13   0.09   0.02
    15   6    -0.10   0.04  -0.01    -0.02  -0.03   0.00    -0.13   0.07   0.02
    16   9     0.06   0.07   0.23    -0.00   0.00   0.11     0.06   0.03   0.12
    17   9     0.02  -0.00  -0.14    -0.02   0.06  -0.12     0.04   0.08  -0.14
    18   9     0.07   0.06  -0.06     0.03  -0.03   0.04     0.07   0.06  -0.09
    19   9     0.07  -0.02   0.03     0.03   0.02  -0.02     0.06   0.02   0.12
    20   9    -0.02  -0.11  -0.01    -0.07  -0.05  -0.02    -0.04  -0.13  -0.04
                     34                     35                     36
                      A                      A                      A
 Frequencies --    748.5379               780.4081               822.4112
 Red. masses --     11.6290                 7.9142                11.9751
 Frc consts  --      3.8390                 2.8399                 4.7721
 IR Inten    --     28.3402                21.8913                44.0884
  Atom  AN      X      Y      Z        X      Y      Z        X      Y      Z
     1   6    -0.24   0.06  -0.03    -0.09   0.00  -0.01     0.39   0.04   0.02
     2   9     0.05   0.06  -0.16     0.01   0.02  -0.03    -0.06  -0.02   0.00
     3   9     0.04   0.07   0.12     0.01  -0.00   0.00    -0.07   0.03   0.03
     4   6    -0.13  -0.05   0.03    -0.13  -0.03   0.02     0.33   0.00  -0.04
     5   9     0.02  -0.07  -0.07     0.02  -0.04  -0.05    -0.05  -0.05  -0.02
     6   9     0.04  -0.00   0.11     0.02  -0.02   0.12    -0.06  -0.00   0.04
     7   6     0.01   0.04  -0.02    -0.09   0.06  -0.06     0.10   0.04  -0.03
     8   9     0.01  -0.02  -0.08     0.01  -0.03  -0.24    -0.04  -0.01  -0.10
     9   9    -0.02   0.10   0.05    -0.02   0.15   0.09    -0.02   0.07   0.03
    10   6     0.20  -0.01  -0.01    -0.03  -0.21   0.37    -0.33  -0.22   0.36
    11   8    -0.02   0.12   0.10     0.08   0.18   0.03     0.05   0.01  -0.14
    12   8    -0.01  -0.15  -0.05     0.07  -0.10  -0.15     0.07   0.09  -0.07
    13   1     0.06  -0.39  -0.39    -0.20  -0.68  -0.06    -0.16   0.05   0.34
    14   6    -0.23  -0.14   0.01     0.00   0.02   0.00     0.21   0.01  -0.02
    15   6    -0.19   0.14   0.03     0.11  -0.06  -0.02    -0.10   0.05   0.01
    16   9     0.05  -0.05  -0.19    -0.00   0.02   0.04    -0.04  -0.03  -0.05
    17   9     0.07  -0.13   0.20    -0.01   0.01  -0.02    -0.02  -0.00   0.02
    18   9     0.04   0.20  -0.24    -0.03  -0.09   0.11     0.04   0.13  -0.13
    19   9     0.05   0.02   0.27    -0.04  -0.03  -0.14     0.04   0.06   0.19
    20   9     0.04  -0.15  -0.03     0.07   0.13   0.04    -0.18  -0.20  -0.06
                     37                     38                     39
                      A                      A                      A
 Frequencies --   1000.4366              1128.4870              1160.3179
 Red. masses --     11.4827                13.1105                10.9338
 Frc consts  --      6.7713                 9.8370                 8.6731
 IR Inten    --     10.5201                59.9847                 1.6463
  Atom  AN      X      Y      Z        X      Y      Z        X      Y      Z
     1   6    -0.22  -0.07  -0.01     0.40  -0.14   0.09     0.06   0.37  -0.10
     2   9     0.04   0.01  -0.01    -0.05   0.05  -0.08    -0.02  -0.10   0.13
     3   9     0.02   0.02   0.02    -0.06   0.04   0.03     0.00  -0.12  -0.08
     4   6     0.34   0.06  -0.07     0.21  -0.32   0.07    -0.17  -0.02   0.12
     5   9    -0.05  -0.02  -0.00    -0.02   0.14   0.06     0.03  -0.01  -0.02
     6   9    -0.04  -0.01   0.04    -0.04   0.05  -0.11     0.03   0.02  -0.06
     7   6     0.50   0.08   0.01    -0.39  -0.07  -0.02     0.16  -0.27   0.24
     8   9    -0.07  -0.01   0.03     0.04   0.01  -0.02     0.00   0.02  -0.14
     9   9    -0.06  -0.03  -0.01     0.05   0.04   0.01    -0.03   0.14   0.02
    10   6    -0.16  -0.13   0.11    -0.02   0.13  -0.01     0.11  -0.17  -0.05
    11   8    -0.05  -0.04  -0.12     0.05   0.03   0.07    -0.08  -0.06  -0.09
    12   8    -0.01   0.11   0.01     0.02  -0.12  -0.05    -0.03   0.22   0.11
    13   1    -0.00   0.31   0.14     0.02  -0.02   0.04    -0.09  -0.38  -0.26
    14   6    -0.50  -0.02   0.05    -0.31   0.26   0.06     0.02   0.36  -0.05
    15   6    -0.16   0.03   0.02    -0.32   0.20   0.01    -0.16  -0.01   0.03
    16   9     0.06   0.00  -0.01     0.03  -0.07  -0.10    -0.01  -0.08  -0.08
    17   9     0.06   0.00  -0.01     0.05  -0.08   0.06     0.00  -0.14   0.11
    18   9     0.01  -0.07   0.05     0.05  -0.12   0.08     0.02  -0.03   0.02
    19   9     0.02  -0.05  -0.10     0.04  -0.06  -0.10     0.02  -0.01  -0.04
    20   9     0.18   0.10   0.03     0.11   0.05   0.01     0.04   0.03   0.00
                     40                     41                     42
                      A                      A                      A
 Frequencies --   1173.2859              1191.0911              1198.6229
 Red. masses --     12.8741                 4.7440                 7.6998
 Frc consts  --     10.4418                 3.9654                 6.5177
 IR Inten    --    216.7381               165.2945                98.0852
  Atom  AN      X      Y      Z        X      Y      Z        X      Y      Z
     1   6    -0.03  -0.38  -0.13     0.01  -0.04   0.29    -0.03   0.10   0.15
     2   9    -0.01   0.08  -0.08    -0.00   0.06  -0.11    -0.02   0.00  -0.02
     3   9    -0.00   0.15   0.13     0.01  -0.03  -0.05     0.02  -0.06  -0.06
     4   6     0.04  -0.24   0.39     0.02   0.03   0.08     0.02   0.11   0.43
     5   9    -0.01   0.07   0.01     0.01  -0.01  -0.01     0.00  -0.10  -0.07
     6   9    -0.01   0.08  -0.23    -0.02   0.00  -0.03    -0.02   0.03  -0.15
     7   6     0.06  -0.13   0.39    -0.03  -0.14  -0.27     0.07   0.05  -0.11
     8   9     0.02   0.02  -0.21    -0.00   0.00   0.10     0.00   0.00   0.02
     9   9    -0.02   0.07  -0.01    -0.01   0.08   0.03    -0.00  -0.05   0.00
    10   6     0.07  -0.12  -0.03     0.06  -0.10  -0.00    -0.10   0.09   0.05
    11   8    -0.06  -0.04  -0.06    -0.03  -0.05  -0.06     0.05   0.05   0.06
    12   8    -0.01   0.13   0.07     0.02   0.16   0.10    -0.01  -0.14  -0.10
    13   1    -0.06  -0.21  -0.12    -0.06  -0.70  -0.45     0.05   0.57   0.36
    14   6    -0.03  -0.26  -0.17    -0.02  -0.07  -0.00    -0.02   0.08  -0.36
    15   6     0.18   0.07   0.02     0.01   0.00  -0.11    -0.05  -0.10  -0.04
    16   9     0.02   0.10   0.13    -0.00   0.01   0.01    -0.00   0.04   0.09
    17   9    -0.00   0.06  -0.03     0.01   0.03  -0.02     0.01  -0.08   0.09
    18   9    -0.02   0.01  -0.01     0.00  -0.01   0.02     0.01   0.00  -0.00
    19   9    -0.02   0.01   0.02    -0.01   0.01   0.04    -0.01   0.02   0.04
    20   9    -0.06  -0.04  -0.01     0.01   0.00   0.01     0.03   0.03   0.01
                     43                     44                     45
                      A                      A                      A
 Frequencies --   1212.6923              1222.4879              1226.9740
 Red. masses --      7.6332                12.2051                13.1770
 Frc consts  --      6.6139                10.7468                11.6879
 IR Inten    --     63.7072               160.8949               308.8432
  Atom  AN      X      Y      Z        X      Y      Z        X      Y      Z
     1   6    -0.07   0.09   0.39    -0.14  -0.14   0.14     0.04  -0.07   0.09
     2   9     0.01   0.05  -0.11     0.00   0.02  -0.05     0.00   0.04  -0.06
     3   9     0.00  -0.08  -0.09     0.01   0.04   0.01     0.00  -0.03  -0.03
     4   6    -0.04  -0.25  -0.13    -0.20  -0.26  -0.24    -0.14   0.36   0.27
     5   9     0.01   0.09   0.05     0.02   0.13   0.07     0.00  -0.19  -0.10
     6   9    -0.00   0.03  -0.03     0.01   0.00   0.06     0.01  -0.00  -0.05
     7   6     0.12  -0.05   0.26     0.27   0.04  -0.13     0.03   0.27   0.20
     8   9    -0.01   0.01  -0.11    -0.03  -0.01   0.07     0.01  -0.01  -0.08
     9   9    -0.00   0.02  -0.01    -0.02   0.01   0.01    -0.00  -0.15  -0.04
    10   6    -0.03   0.03  -0.00    -0.03  -0.01   0.03     0.03  -0.05  -0.02
    11   8     0.01   0.02   0.02    -0.00   0.01  -0.01    -0.01   0.00  -0.01
    12   8    -0.03  -0.07  -0.06    -0.01  -0.01  -0.02    -0.00   0.01   0.01
    13   1     0.03   0.57   0.36     0.02   0.24   0.11    -0.00   0.03   0.02
    14   6     0.05  -0.03   0.15     0.12   0.26  -0.35     0.07   0.06   0.38
    15   6     0.01  -0.17  -0.27     0.21   0.48   0.03    -0.02   0.50  -0.28
    16   9    -0.02  -0.02  -0.04    -0.01  -0.01   0.03    -0.01  -0.08  -0.13
    17   9    -0.00   0.04  -0.04     0.02  -0.14   0.14     0.01   0.02  -0.05
    18   9    -0.00   0.02   0.01     0.02  -0.13   0.07     0.03  -0.17   0.13
    19   9    -0.02   0.05   0.11    -0.01  -0.04  -0.04     0.01  -0.04   0.01
    20   9     0.03   0.03   0.02    -0.15  -0.12  -0.03    -0.06  -0.08   0.01
                     46                     47                     48
                      A                      A                      A
 Frequencies --   1234.3211              1258.4965              1266.7337
 Red. masses --      7.6440                12.8890                 8.3791
 Frc consts  --      6.8616                12.0275                 7.9217
 IR Inten    --     48.2264               540.0362                66.9302
  Atom  AN      X      Y      Z        X      Y      Z        X      Y      Z
     1   6    -0.07   0.02  -0.16    -0.01  -0.04   0.40    -0.06  -0.22  -0.15
     2   9     0.01  -0.00   0.03    -0.00   0.07  -0.13    -0.00   0.02  -0.01
     3   9     0.00   0.00   0.02     0.01  -0.06  -0.08    -0.01   0.07   0.07
     4   6    -0.07  -0.14   0.24    -0.06  -0.02   0.08    -0.12  -0.22   0.12
     5   9     0.01   0.05  -0.00     0.00  -0.03  -0.01    -0.00   0.06   0.02
     6   9     0.00   0.03  -0.09    -0.01   0.02  -0.05     0.00   0.02  -0.05
     7   6     0.19  -0.28  -0.27     0.04   0.22   0.12     0.13   0.35  -0.13
     8   9    -0.01   0.02   0.08    -0.00  -0.01  -0.04    -0.01  -0.02   0.07
     9   9    -0.02   0.13   0.05     0.00  -0.09  -0.03    -0.00  -0.12  -0.02
    10   6    -0.08   0.06   0.05     0.01  -0.04  -0.00    -0.03  -0.04   0.03
    11   8     0.04   0.04   0.04    -0.02  -0.01  -0.02    -0.02  -0.02  -0.04
    12   8    -0.03  -0.08  -0.08     0.01   0.03   0.02     0.04   0.05   0.05
    13   1     0.03   0.57   0.35    -0.01  -0.14  -0.08    -0.00  -0.51  -0.33
    14   6     0.06   0.00   0.36     0.06   0.09   0.12     0.21   0.26   0.10
    15   6     0.09   0.05   0.08     0.05  -0.08   0.73    -0.17  -0.28  -0.15
    16   9    -0.00  -0.06  -0.11    -0.00  -0.07  -0.10    -0.02  -0.04  -0.05
    17   9    -0.02   0.05  -0.07    -0.02   0.04  -0.04    -0.02  -0.04   0.02
    18   9    -0.02   0.02  -0.02    -0.03   0.13  -0.14     0.01   0.04  -0.01
    19   9     0.01  -0.02  -0.04     0.03  -0.07  -0.23     0.01   0.04   0.07
    20   9    -0.04  -0.03  -0.01    -0.03  -0.01  -0.05     0.06   0.07   0.02
                     49                     50                     51
                      A                      A                      A
 Frequencies --   1293.8792              1326.9992              1375.0635
 Red. masses --      8.1545                 9.7756                 7.0538
 Frc consts  --      8.0433                10.1422                 7.8581
 IR Inten    --     73.2436                31.1827                86.4439
  Atom  AN      X      Y      Z        X      Y      Z        X      Y      Z
     1   6    -0.35   0.21  -0.04    -0.37  -0.28   0.05     0.09  -0.24   0.01
     2   9     0.02  -0.04   0.04     0.03   0.04  -0.05    -0.01   0.03  -0.04
     3   9     0.03  -0.06  -0.04     0.03   0.05   0.03    -0.01   0.04   0.03
     4   6     0.43  -0.14   0.09     0.27   0.21  -0.07    -0.00   0.19  -0.04
     5   9    -0.03   0.03   0.01    -0.02  -0.04  -0.01    -0.00  -0.04  -0.02
     6   9    -0.04   0.02  -0.05    -0.02  -0.02   0.03     0.00  -0.02   0.03
     7   6    -0.21   0.10   0.03    -0.12  -0.26   0.06    -0.06  -0.08  -0.00
     8   9     0.02  -0.00  -0.01     0.01   0.02  -0.04     0.00   0.00  -0.00
     9   9     0.02  -0.04  -0.01    -0.00   0.08   0.01    -0.00   0.02   0.00
    10   6    -0.05   0.05   0.00     0.06  -0.03  -0.02     0.14  -0.15  -0.02
    11   8    -0.00  -0.02  -0.01     0.00   0.02   0.02    -0.01   0.03   0.02
    12   8     0.05  -0.00   0.03    -0.04  -0.00  -0.02    -0.07   0.04  -0.02
    13   1    -0.00  -0.53  -0.31    -0.01   0.40   0.25    -0.01   0.59   0.35
    14   6    -0.02   0.16   0.07     0.42   0.15  -0.03    -0.22   0.33   0.05
    15   6     0.31   0.04  -0.05    -0.33   0.01   0.05     0.33  -0.22  -0.06
    16   9    -0.00  -0.04  -0.05    -0.03  -0.02  -0.02     0.01  -0.05  -0.05
    17   9     0.00  -0.04   0.02    -0.03  -0.02   0.02     0.02  -0.06   0.04
    18   9    -0.02   0.00  -0.00     0.03  -0.02   0.01    -0.03   0.06  -0.03
    19   9    -0.02   0.01   0.03     0.03  -0.01  -0.04    -0.03   0.04   0.06
    20   9    -0.09  -0.05  -0.01     0.05   0.04   0.01    -0.06  -0.01  -0.00
                     52                     53                     54
                      A                      A                      A
 Frequencies --   1426.8761              1896.4054              3833.7456
 Red. masses --      4.1780                11.5071                 1.0644
 Frc consts  --      5.0117                24.3825                 9.2177
 IR Inten    --     31.6877               336.8602               119.7675
  Atom  AN      X      Y      Z        X      Y      Z        X      Y      Z
     1   6     0.02  -0.11   0.03     0.00   0.01   0.00    -0.00   0.00  -0.00
     2   9     0.00   0.02  -0.02    -0.00  -0.00   0.00     0.00  -0.00   0.00
     3   9    -0.00   0.02   0.01     0.00  -0.00  -0.00     0.00  -0.00  -0.00
     4   6    -0.04   0.13  -0.03    -0.01   0.00   0.01    -0.00  -0.00  -0.00
     5   9     0.00  -0.03  -0.01     0.00  -0.00  -0.00     0.00  -0.00   0.00
     6   9     0.01  -0.01   0.02    -0.00  -0.00  -0.00     0.00  -0.00   0.00
     7   6     0.11  -0.14   0.10    -0.04   0.02  -0.02     0.00  -0.00   0.00
     8   9    -0.01   0.01  -0.04    -0.00   0.00  -0.00     0.00  -0.00   0.00
     9   9    -0.01   0.03   0.00     0.01  -0.01  -0.00     0.00  -0.00   0.00
    10   6    -0.24   0.31   0.00     0.43   0.38   0.53    -0.00   0.00  -0.00
    11   8     0.02  -0.05  -0.01    -0.27  -0.25  -0.34    -0.00  -0.00  -0.00
    12   8     0.10  -0.10   0.01    -0.02  -0.05  -0.05    -0.05   0.02  -0.03
    13   1     0.03  -0.74  -0.42     0.01   0.32   0.19     0.84  -0.35   0.41
    14   6    -0.03   0.10   0.01    -0.00  -0.00   0.00    -0.00  -0.00  -0.00
    15   6     0.06  -0.05  -0.01    -0.00   0.00   0.00    -0.00   0.00   0.00
    16   9     0.00  -0.01  -0.01     0.00  -0.00  -0.00     0.00   0.00   0.00
    17   9     0.00  -0.02   0.01     0.00   0.00  -0.00     0.00   0.00  -0.00
    18   9    -0.00   0.01  -0.01     0.00  -0.00   0.00     0.00  -0.00   0.00
    19   9    -0.01   0.01   0.01     0.00  -0.00  -0.00     0.00  -0.00  -0.00
    20   9    -0.01  -0.00  -0.00     0.00  -0.00  -0.00     0.00   0.00   0.00

 -------------------
 - Thermochemistry -
 -------------------
 Temperature   298.150 Kelvin.  Pressure   1.00000 Atm.
 Atom     1 has atomic number  6 and mass  12.00000
 Atom     2 has atomic number  9 and mass  18.99840
 Atom     3 has atomic number  9 and mass  18.99840
 Atom     4 has atomic number  6 and mass  12.00000
 Atom     5 has atomic number  9 and mass  18.99840
 Atom     6 has atomic number  9 and mass  18.99840
 Atom     7 has atomic number  6 and mass  12.00000
 Atom     8 has atomic number  9 and mass  18.99840
 Atom     9 has atomic number  9 and mass  18.99840
 Atom    10 has atomic number  6 and mass  12.00000
 Atom    11 has atomic number  8 and mass  15.99491
 Atom    12 has atomic number  8 and mass  15.99491
 Atom    13 has atomic number  1 and mass   1.00783
 Atom    14 has atomic number  6 and mass  12.00000
 Atom    15 has atomic number  6 and mass  12.00000
 Atom    16 has atomic number  9 and mass  18.99840
 Atom    17 has atomic number  9 and mass  18.99840
 Atom    18 has atomic number  9 and mass  18.99840
 Atom    19 has atomic number  9 and mass  18.99840
 Atom    20 has atomic number  9 and mass  18.99840
 Molecular mass:   313.98009 amu.
 Principal axes and moments of inertia in atomic units:
                           1         2         3
     Eigenvalues --  2053.407787624.393857841.82849
           X            0.99997  -0.00647   0.00286
           Y            0.00646   0.99997   0.00304
           Z           -0.00288  -0.00302   0.99999
 This molecule is an asymmetric top.
 Rotational symmetry number  1.
 Warning -- assumption of classical behavior for rotation
           may cause significant error
 Rotational temperatures (Kelvin)      0.04218     0.01136     0.01105
 Rotational constants (GHZ):           0.87890     0.23671     0.23014
 Zero-point vibrational energy     233822.5 (Joules/Mol)
                                   55.88493 (Kcal/Mol)
 Warning -- explicit consideration of  30 degrees of freedom as
           vibrations may cause significant error
 Vibrational temperatures:     46.00    58.95    67.62    79.08    91.64
          (Kelvin)            129.16   207.27   244.66   282.63   297.61
                              329.44   352.36   362.16   370.65   420.40
                              454.93   466.10   506.44   532.53   533.97
                              551.82   566.65   661.77   729.37   767.00
                              786.77   819.91   846.76   874.45   888.69
                              945.14   979.27  1026.86  1076.98  1122.83
                             1183.27  1439.41  1623.64  1669.44  1688.10
                             1713.71  1724.55  1744.79  1758.89  1765.34
                             1775.91  1810.70  1822.55  1861.60  1909.26
                             1978.41  2052.96  2728.50  5515.90
 
 Zero-point correction=                           0.089058 (Hartree/Particle)
 Thermal correction to Energy=                    0.106477
 Thermal correction to Enthalpy=                  0.107421
 Thermal correction to Gibbs Free Energy=         0.042177
 Sum of electronic and zero-point Energies=          -1477.927401
 Sum of electronic and thermal Energies=             -1477.909983
 Sum of electronic and thermal Enthalpies=           -1477.909038
 Sum of electronic and thermal Free Energies=        -1477.974282
 
                     E (Thermal)             CV                S
                      KCal/Mol        Cal/Mol-Kelvin    Cal/Mol-Kelvin
 Total                   66.815             61.728            137.317
 Electronic               0.000              0.000              0.000
 Translational            0.889              2.981             43.129
 Rotational               0.889              2.981             33.173
 Vibrational             65.038             55.766             61.016
 Vibration     1          0.594              1.983              5.703
 Vibration     2          0.594              1.981              5.212
 Vibration     3          0.595              1.979              4.940
 Vibration     4          0.596              1.976              4.630
 Vibration     5          0.597              1.972              4.339
 Vibration     6          0.602              1.956              3.665
 Vibration     7          0.616              1.909              2.749
 Vibration     8          0.625              1.879              2.435
 Vibration     9          0.636              1.845              2.166
 Vibration    10          0.641              1.830              2.071
 Vibration    11          0.652              1.797              1.887
 Vibration    12          0.660              1.771              1.767
 Vibration    13          0.664              1.760              1.719
 Vibration    14          0.667              1.750              1.678
 Vibration    15          0.688              1.688              1.461
 Vibration    16          0.703              1.643              1.330
 Vibration    17          0.709              1.628              1.290
 Vibration    18          0.729              1.571              1.157
 Vibration    19          0.742              1.534              1.079
 Vibration    20          0.743              1.531              1.075
 Vibration    21          0.753              1.505              1.025
 Vibration    22          0.761              1.483              0.986
 Vibration    23          0.818              1.339              0.766
 Vibration    24          0.862              1.235              0.641
 Vibration    25          0.888              1.177              0.580
 Vibration    26          0.902              1.147              0.551
 Vibration    27          0.926              1.096              0.504
 Vibration    28          0.946              1.056              0.470
 Vibration    29          0.967              1.015              0.436
 Vibration    30          0.977              0.995              0.420
                       Q            Log10(Q)             Ln(Q)
 Total Bot       0.398003D-19        -19.400114        -44.670413
 Total V=0       0.366290D+22         21.563825         49.652541
 Vib (Bot)       0.458864D-34        -34.338316        -79.066894
 Vib (Bot)    1  0.647490D+01          0.811233          1.867934
 Vib (Bot)    2  0.504983D+01          0.703277          1.619354
 Vib (Bot)    3  0.439959D+01          0.643412          1.481510
 Vib (Bot)    4  0.375942D+01          0.575121          1.324264
 Vib (Bot)    5  0.324087D+01          0.510661          1.175841
 Vib (Bot)    6  0.229044D+01          0.359919          0.828745
 Vib (Bot)    7  0.140987D+01          0.149178          0.343495
 Vib (Bot)    8  0.118510D+01          0.073755          0.169828
 Vib (Bot)    9  0.101643D+01          0.007077          0.016295
 Vib (Bot)   10  0.961387D+00         -0.017102         -0.039379
 Vib (Bot)   11  0.860578D+00         -0.065210         -0.150151
 Vib (Bot)   12  0.798840D+00         -0.097540         -0.224595
 Vib (Bot)   13  0.774745D+00         -0.110841         -0.255221
 Vib (Bot)   14  0.754844D+00         -0.122143         -0.281244
 Vib (Bot)   15  0.653686D+00         -0.184631         -0.425128
 Vib (Bot)   16  0.595858D+00         -0.224857         -0.517752
 Vib (Bot)   17  0.578900D+00         -0.237397         -0.546626
 Vib (Bot)   18  0.523482D+00         -0.281099         -0.647253
 Vib (Bot)   19  0.491839D+00         -0.308177         -0.709604
 Vib (Bot)   20  0.490173D+00         -0.309651         -0.712998
 Vib (Bot)   21  0.470252D+00         -0.327669         -0.754486
 Vib (Bot)   22  0.454593D+00         -0.342377         -0.788352
 Vib (Bot)   23  0.369810D+00         -0.432021         -0.994766
 Vib (Bot)   24  0.322207D+00         -0.491865         -1.132561
 Vib (Bot)   25  0.299136D+00         -0.524131         -1.206856
 Vib (Bot)   26  0.287853D+00         -0.540829         -1.245304
 Vib (Bot)   27  0.270106D+00         -0.568465         -1.308940
 Vib (Bot)   28  0.256707D+00         -0.590562         -1.359820
 Vib (Bot)   29  0.243719D+00         -0.613111         -1.411740
 Vib (Bot)   30  0.237344D+00         -0.624622         -1.438245
 Vib (V=0)       0.422302D+07          6.625623         15.256061
 Vib (V=0)    1  0.699418D+01          0.844737          1.945079
 Vib (V=0)    2  0.557452D+01          0.746207          1.718206
 Vib (V=0)    3  0.492791D+01          0.692662          1.594914
 Vib (V=0)    4  0.429252D+01          0.632713          1.456875
 Vib (V=0)    5  0.377921D+01          0.577401          1.329515
 Vib (V=0)    6  0.284438D+01          0.453988          1.045346
 Vib (V=0)    7  0.199590D+01          0.300139          0.691096
 Vib (V=0)    8  0.178626D+01          0.251945          0.580124
 Vib (V=0)    9  0.163275D+01          0.212920          0.490267
 Vib (V=0)   10  0.158363D+01          0.199655          0.459723
 Vib (V=0)   11  0.149529D+01          0.174724          0.402318
 Vib (V=0)   12  0.144241D+01          0.159090          0.366319
 Vib (V=0)   13  0.142208D+01          0.152924          0.352120
 Vib (V=0)   14  0.140542D+01          0.147807          0.340338
 Vib (V=0)   15  0.132299D+01          0.121555          0.279891
 Vib (V=0)   16  0.127785D+01          0.106479          0.245177
 Vib (V=0)   17  0.126493D+01          0.102068          0.235020
 Vib (V=0)   18  0.122390D+01          0.087746          0.202043
 Vib (V=0)   19  0.120136D+01          0.079673          0.183454
 Vib (V=0)   20  0.120019D+01          0.079251          0.182482
 Vib (V=0)   21  0.118639D+01          0.074229          0.170919
 Vib (V=0)   22  0.117576D+01          0.070320          0.161917
 Vib (V=0)   23  0.112190D+01          0.049954          0.115023
 Vib (V=0)   24  0.109483D+01          0.039345          0.090595
 Vib (V=0)   25  0.108265D+01          0.034489          0.079413
 Vib (V=0)   26  0.107694D+01          0.032191          0.074124
 Vib (V=0)   27  0.106829D+01          0.028691          0.066062
 Vib (V=0)   28  0.106205D+01          0.026144          0.060200
 Vib (V=0)   29  0.105624D+01          0.023761          0.054712
 Vib (V=0)   30  0.105347D+01          0.022623          0.052092
 Electronic      0.100000D+01          0.000000          0.000000
 Translational   0.218679D+09          8.339807         19.203115
 Rotational      0.396638D+07          6.598395         15.193365
 ***** Axes restored to original set *****
 -------------------------------------------------------------------
 Center     Atomic                   Forces (Hartrees/Bohr)
 Number     Number              X              Y              Z
 -------------------------------------------------------------------
      1        6          -0.000012928   -0.000026796    0.000012186
      2        9          -0.000004003    0.000009917   -0.000010976
      3        9          -0.000000545    0.000002111    0.000000203
      4        6          -0.000006243    0.000017914    0.000005829
      5        9           0.000010450   -0.000015688   -0.000001060
      6        9          -0.000000226   -0.000002119    0.000001170
      7        6          -0.000003201   -0.000010916   -0.000005127
      8        9           0.000001055    0.000002206    0.000000707
      9        9           0.000000559    0.000007097   -0.000001320
     10        6          -0.000001077    0.000005032    0.000004315
     11        8           0.000000756    0.000001310   -0.000002937
     12        8          -0.000001466    0.000004501   -0.000002912
     13        1           0.000006568   -0.000000030    0.000003640
     14        6           0.000026185    0.000049468    0.000032116
     15        6           0.000005899   -0.000029787   -0.000017650
     16        9          -0.000019978   -0.000014927   -0.000027706
     17        9          -0.000002289    0.000004453   -0.000001676
     18        9           0.000009309    0.000006263   -0.000011770
     19        9           0.000004596    0.000008671    0.000027856
     20        9          -0.000013421   -0.000018679   -0.000004888
 -------------------------------------------------------------------
 Cartesian Forces:  Max     0.000049468 RMS     0.000013474

 GradGradGradGradGradGradGradGradGradGradGradGradGradGradGradGradGradGrad
 Berny optimization.
 Search for a local minimum.
 Step number   1 out of a maximum of    2
 All quantities printed in internal units (Hartrees-Bohrs-Radians)
 Second derivative matrix not updated -- analytic derivatives used.
 ITU=  0
     Eigenvalues ---    0.00052   0.00105   0.00137   0.00164   0.00276
     Eigenvalues ---    0.00452   0.00982   0.01871   0.02228   0.02441
     Eigenvalues ---    0.03025   0.03488   0.03943   0.04507   0.04543
     Eigenvalues ---    0.05908   0.06119   0.06987   0.07259   0.08358
     Eigenvalues ---    0.09050   0.09691   0.09934   0.10491   0.13560
     Eigenvalues ---    0.16986   0.18566   0.20265   0.21595   0.23358
     Eigenvalues ---    0.25102   0.26950   0.27775   0.33204   0.34504
     Eigenvalues ---    0.38716   0.43345   0.52188   0.64776   0.71760
     Eigenvalues ---    0.73416   0.73790   0.75546   0.75929   0.77059
     Eigenvalues ---    0.77947   0.79515   0.81074   0.81804   0.83519
     Eigenvalues ---    0.87454   0.94711   1.14873   1.82028
 Angle between quadratic step and forces=  82.03 degrees.
 Linear search not attempted -- first point.
 B after Tr=    -0.000015   -0.000013   -0.000009
         Rot=    1.000000    0.000003    0.000002   -0.000003 Ang=   0.00 deg.
 Variable       Old X    -DE/DX   Delta X   Delta X   Delta X     New X
                                 (Linear)    (Quad)   (Total)
    X1        0.83713  -0.00001   0.00000  -0.00001  -0.00002   0.83711
    Y1       -0.74453  -0.00003   0.00000  -0.00003  -0.00003  -0.74457
    Z1        0.17275   0.00001   0.00000   0.00004   0.00004   0.17279
    X2        0.79599  -0.00000   0.00000   0.00008   0.00007   0.79606
    Y2       -1.93403   0.00001   0.00000   0.00024   0.00024  -1.93379
    Z2        2.40677  -0.00001   0.00000   0.00015   0.00016   2.40693
    X3        1.09420  -0.00000   0.00000   0.00003   0.00003   1.09424
    Y3       -2.45975   0.00000   0.00000  -0.00016  -0.00018  -2.45993
    Z3       -1.66956   0.00000   0.00000   0.00019   0.00020  -1.66936
    X4       -1.72372  -0.00001   0.00000  -0.00004  -0.00006  -1.72377
    Y4        0.66803   0.00002   0.00000  -0.00010  -0.00013   0.66790
    Z4       -0.20734   0.00001   0.00000   0.00010   0.00009  -0.20725
    X5       -1.68452   0.00001   0.00000   0.00001  -0.00003  -1.68454
    Y5        2.82606  -0.00002   0.00000  -0.00032  -0.00034   2.82572
    Z5        1.11277  -0.00000   0.00000   0.00039   0.00036   1.11313
    X6       -1.98483  -0.00000   0.00000  -0.00001  -0.00003  -1.98486
    Y6        1.22052  -0.00000   0.00000   0.00016   0.00011   1.22064
    Z6       -2.67255   0.00000   0.00000   0.00016   0.00013  -2.67242
    X7       -4.07988  -0.00000   0.00000  -0.00004  -0.00005  -4.07994
    Y7       -0.89760  -0.00001   0.00000  -0.00024  -0.00028  -0.89787
    Z7        0.61039  -0.00001   0.00000  -0.00018  -0.00020   0.61019
    X8       -4.27467   0.00000   0.00000  -0.00002  -0.00004  -4.27472
    Y8       -0.86100   0.00000   0.00000  -0.00072  -0.00075  -0.86174
    Z8        3.14155   0.00000   0.00000  -0.00016  -0.00018   3.14137
    X9       -3.79041   0.00000   0.00000  -0.00008  -0.00007  -3.79048
    Y9       -3.28466   0.00001   0.00000  -0.00007  -0.00011  -3.28476
    Z9       -0.15520  -0.00000   0.00000  -0.00066  -0.00067  -0.15586
   X10       -6.54722  -0.00000   0.00000  -0.00000  -0.00002  -6.54724
   Y10        0.15607   0.00001   0.00000   0.00011   0.00005   0.15612
   Z10       -0.57021   0.00000   0.00000   0.00007   0.00004  -0.57017
   X11       -7.75262   0.00000   0.00000  -0.00027  -0.00027  -7.75289
   Y11       -0.97238   0.00000   0.00000   0.00033   0.00025  -0.97213
   Z11       -2.09477  -0.00000   0.00000   0.00012   0.00009  -2.09468
   X12       -7.07734  -0.00000   0.00000   0.00043   0.00040  -7.07694
   Y12        2.42189   0.00000   0.00000   0.00017   0.00011   2.42200
   Z12        0.37133  -0.00000   0.00000   0.00017   0.00013   0.37145
   X13       -8.61235   0.00001   0.00000   0.00049   0.00045  -8.61190
   Y13        3.01421  -0.00000   0.00000   0.00047   0.00040   3.01461
   Z13       -0.41299   0.00000   0.00000   0.00032   0.00027  -0.41272
   X14        3.17106   0.00003   0.00000  -0.00003  -0.00005   3.17101
   Y14        1.05723   0.00005   0.00000   0.00017   0.00018   1.05741
   Z14        0.13322   0.00003   0.00000  -0.00016  -0.00016   0.13305
   X15        5.74211   0.00001   0.00000   0.00000  -0.00001   5.74210
   Y15       -0.32019  -0.00003   0.00000  -0.00001   0.00001  -0.32017
   Z15       -0.25999  -0.00002   0.00000   0.00010   0.00011  -0.25988
   X16        3.29065  -0.00002   0.00000  -0.00034  -0.00038   3.29027
   Y16        2.28776  -0.00001   0.00000   0.00053   0.00055   2.28831
   Z16        2.33685  -0.00003   0.00000  -0.00046  -0.00047   2.33638
   X17        2.91159  -0.00000   0.00000   0.00001  -0.00002   2.91157
   Y17        2.73806   0.00000   0.00000  -0.00019  -0.00019   2.73787
   Z17       -1.74476  -0.00000   0.00000  -0.00050  -0.00052  -1.74528
   X18        5.97010   0.00001   0.00000   0.00009   0.00008   5.97018
   Y18       -2.23293   0.00001   0.00000   0.00025   0.00029  -2.23264
   Z18        1.34701  -0.00001   0.00000   0.00036   0.00038   1.34739
   X19        5.94575   0.00000   0.00000   0.00007   0.00008   5.94583
   Y19       -1.18243   0.00001   0.00000  -0.00032  -0.00031  -1.18274
   Z19       -2.60081   0.00003   0.00000   0.00030   0.00031  -2.60050
   X20        7.59893  -0.00001   0.00000  -0.00003  -0.00006   7.59888
   Y20        1.31301  -0.00002   0.00000   0.00006   0.00010   1.31311
   Z20        0.15656  -0.00000   0.00000  -0.00012  -0.00011   0.15645
         Item               Value     Threshold  Converged?
 Maximum Force            0.000049     0.000450     YES
 RMS     Force            0.000013     0.000300     YES
 Maximum Displacement     0.000746     0.001800     YES
 RMS     Displacement     0.000256     0.001200     YES
 Predicted change in Energy=-1.309485D-08
 Optimization completed.
    -- Stationary point found.
 GradGradGradGradGradGradGradGradGradGradGradGradGradGradGradGradGradGrad


 ----------------------------------------------------------------------

 Electric dipole moment (input orientation):
 (Debye = 10**-18 statcoulomb cm , SI units = C m)
                  (au)            (Debye)         (10**-30 SI)
   Tot        0.890400D+00      0.226317D+01      0.754912D+01
   x         -0.532612D+00     -0.135376D+01     -0.451567D+01
   y          0.706194D+00      0.179497D+01      0.598736D+01
   z          0.102106D+00      0.259528D+00      0.865691D+00

 Dipole polarizability, Alpha (input orientation).
 (esu units = cm**3 , SI units = C**2 m**2 J**-1)
 Alpha(0;0):
               (au)            (10**-24 esu)      (10**-40 SI)
   iso        0.848055D+02      0.125669D+02      0.139825D+02
   aniso      0.201144D+02      0.298065D+01      0.331642D+01
   xx         0.966114D+02      0.143163D+02      0.159291D+02
   yx        -0.834939D+00     -0.123725D+00     -0.137663D+00
   yy         0.797255D+02      0.118141D+02      0.131450D+02
   zx         0.415017D+01      0.614991D+00      0.684270D+00
   zy         0.342504D+01      0.507538D+00      0.564713D+00
   zz         0.780797D+02      0.115702D+02      0.128736D+02

 ----------------------------------------------------------------------

 Dipole orientation:
     6          0.35486224         -0.10508625         -1.07144464
     9          1.15698860         -2.41268327         -1.73406201
     9         -1.30262741          0.71822174         -2.79685974
     6         -1.01010415         -0.27815353          1.53713262
     9          0.72465348         -0.36827094          3.37664360
     9         -2.42687586          1.80663121          1.84882209
     6         -2.78715827         -2.61163045          1.79856725
     9         -1.38977148         -4.68610515          2.23437139
     9         -4.06452228         -2.92120441         -0.35560945
     6         -4.72022245         -2.26635685          3.97475736
     8         -6.93092502         -2.06187099          3.62597008
     8         -3.55261093         -2.25157752          6.19689810
     1         -4.81193916         -2.02478373          7.49493880
     6          2.68281208          1.70460022         -1.04305366
     6          3.60710108          2.51064082         -3.71853125
     9          4.60589985          0.54386509          0.11406863
     9          2.09866105          3.81592376          0.22989994
     9          3.90907924          0.49979551         -5.18765885
     9          1.97817653          4.07820528         -4.79263760
     9          5.81216828          3.68209551         -3.48613851

 Electric dipole moment (dipole orientation):
 (Debye = 10**-18 statcoulomb cm , SI units = C m)
                  (au)            (Debye)         (10**-30 SI)
   Tot        0.890400D+00      0.226317D+01      0.754912D+01
   x          0.000000D+00      0.000000D+00      0.000000D+00
   y          0.000000D+00      0.000000D+00      0.000000D+00
   z          0.890400D+00      0.226317D+01      0.754912D+01

 Dipole polarizability, Alpha (dipole orientation).
 (esu units = cm**3 , SI units = C**2 m**2 J**-1)
 Alpha(0;0):
               (au)            (10**-24 esu)      (10**-40 SI)
   iso        0.848055D+02      0.125669D+02      0.139825D+02
   aniso      0.201144D+02      0.298065D+01      0.331642D+01
   xx         0.915544D+02      0.135670D+02      0.150953D+02
   yx         0.382050D+01      0.566139D+00      0.629915D+00
   yy         0.762705D+02      0.113021D+02      0.125753D+02
   zx        -0.657807D+01     -0.974769D+00     -0.108458D+01
   zy        -0.402545D+01     -0.596510D+00     -0.663707D+00
   zz         0.865917D+02      0.128316D+02      0.142770D+02

 ----------------------------------------------------------------------
 1\1\GINC-CCLEARN2\Freq\RwB97XD\6-311+G(2d,2p)\C6H1F11O2\RAPPE\06-Feb-2
 021\0\\# freq wb97xd/6-311+g(2d,2p) geom=connectivity\\Title Card Requ
 ired\\0,1\C,0.442992,-0.39399,0.091414\F,0.421219,-1.023445,1.27361\F,
 0.579028,-1.301646,-0.883493\C,-0.912152,0.353507,-0.109718\F,-0.89140
 7,1.495488,0.58885\F,-1.050329,0.645874,-1.414254\C,-2.158982,-0.47498
 7,0.323003\F,-2.262059,-0.455619,1.662436\F,-2.005797,-1.738165,-0.082
 126\C,-3.464639,0.082589,-0.301741\O,-4.10251,-0.514561,-1.108503\O,-3
 .745168,1.281608,0.196497\H,-4.55746,1.595051,-0.218546\C,1.678053,0.5
 59461,0.070496\C,3.038595,-0.169435,-0.137583\F,1.741339,1.21063,1.236
 608\F,1.540746,1.448918,-0.923289\F,3.159241,-1.181614,0.712808\F,3.14
 6356,-0.625715,-1.37629\F,4.021182,0.694816,0.082848\\Version=EM64M-G1
 6RevA.03\State=1-A\HF=-1478.0164594\RMSD=2.984e-09\RMSF=1.347e-05\Zero
 Point=0.0890583\Thermal=0.1064768\Dipole=-0.5326121,0.7061941,0.102106
 \DipoleDeriv=0.6949114,-0.0253619,-0.0615382,-0.0963532,0.8990039,0.01
 02289,-0.0216028,0.0296512,1.1452234,-0.3275242,-0.0117459,-0.0002906,
 -0.0139436,-0.3785463,0.2947663,0.0136744,0.2104292,-0.6489394,-0.3484
 295,0.0430816,0.0399393,0.072884,-0.5130235,-0.316673,0.0633151,-0.237
 7692,-0.4986899,0.6876541,0.0006624,0.0608441,-0.0232348,0.897105,0.11
 99251,0.0433776,0.1002621,1.0762512,-0.3366093,-0.011817,-0.003247,-0.
 0309905,-0.6571489,-0.2851281,-0.0137817,-0.193065,-0.3583295,-0.36672
 25,0.0182019,-0.0554351,0.0270962,-0.2670761,0.1885718,-0.0702631,0.10
 07356,-0.7538037,0.6260513,-0.0626745,-0.0825342,0.0454328,1.0501651,0
 .043892,-0.1837855,0.0875911,1.1438927,-0.3357495,-0.0039013,0.0502688
 ,0.0008795,-0.2472094,0.070232,0.0664983,0.0004666,-0.8389797,-0.31551
 53,0.0525415,0.0240267,0.0773442,-0.7695421,-0.16305,0.0280636,-0.0893
 634,-0.2684869,1.0305185,-0.0897783,0.2973897,-0.3008808,1.3888127,0.5
 738792,0.4864235,0.6003883,0.7960619,-0.7752049,-0.1907949,-0.3338451,
 0.0232463,-0.6561522,-0.1921587,-0.3373222,-0.3383174,-0.6506947,-0.52
 08032,0.3372722,0.1196372,0.2435396,-1.0975782,-0.3448902,0.0158448,-0
 .2325498,-0.4225605,0.3163417,-0.0509195,-0.0598147,-0.0577353,0.35730
 82,-0.0218894,-0.067517,-0.0228403,0.2812356,0.6222301,-0.0603521,0.06
 0604,0.1974499,0.9163967,-0.0184914,0.070503,-0.0322223,1.1812143,1.60
 88468,0.1976496,0.0333857,-0.0198803,1.4975262,-0.0188691,-0.0059582,-
 0.0347132,1.5729153,-0.3194436,-0.0200357,-0.0217395,-0.0465057,-0.401
 8737,-0.3076491,-0.0475853,-0.2210875,-0.6672715,-0.3323562,0.0348812,
 -0.0364968,0.0268593,-0.5254452,0.3391665,-0.0283963,0.2478915,-0.5343
 314,-0.3789961,0.1157273,-0.0775241,0.0782373,-0.6331995,0.3148778,-0.
 0171033,0.2800385,-0.4965675,-0.3717838,0.0648653,0.1236666,0.0646685,
 -0.3414336,-0.2223887,0.0704447,-0.1913196,-0.7868263,-0.8574158,-0.33
 75018,-0.0772967,-0.2681135,-0.518089,-0.064352,-0.0648295,-0.0642063,
 -0.2713133\Polar=96.6113876,-0.8349394,79.7254823,4.1501662,3.4250393,
 78.0796904\Quadrupole=4.9439297,-1.2687394,-3.6751904,-7.3344152,-1.56
 91148,-1.8392152\PG=C01 [X(C6H1F11O2)]\NImag=0\\0.51127127,-0.00479303
 ,0.55662997,-0.00024202,-0.00243685,0.52996498,-0.07947201,-0.00149777
 ,-0.00038864,0.07208716,0.00106365,-0.14370781,0.10015382,0.00381379,0
 .14836705,-0.00094951,0.11465461,-0.22037575,-0.00511019,-0.14074138,0
 .33784016,-0.08173856,0.01628904,0.01185377,0.01015990,-0.00045696,0.0
 0637832,0.07774210,0.01461300,-0.20202724,-0.10460415,-0.00043122,0.02
 522966,-0.00657524,-0.02258618,0.22935505,0.01499894,-0.11906682,-0.16
 125591,0.00717635,-0.02016003,-0.07581416,-0.02522356,0.16808729,0.253
 96137,-0.17031451,0.02012400,-0.00344879,0.01094550,-0.00540650,0.0024
 2946,0.00547832,0.00303870,0.00134475,0.51406631,0.01951017,-0.0870344
 3,0.01010760,0.01441374,-0.00649203,0.01048833,0.02345207,-0.01954619,
 -0.01057876,-0.00251544,0.55379302,-0.00760982,0.01528878,-0.04340108,
 -0.02604204,0.02645097,-0.02534233,0.02142832,-0.02783690,-0.01497626,
 0.00402840,-0.00616646,0.52218271,0.01092017,0.02541405,0.01539981,-0.
 00143317,0.00087466,-0.00230245,-0.00711771,0.00686133,0.00267213,-0.0
 7971842,-0.00014430,0.00123632,0.07256998,-0.00624443,-0.02714651,-0.0
 2513512,0.00194283,-0.00007886,0.00447659,0.00889315,-0.00586327,-0.00
 174335,0.00086202,-0.25860293,-0.07910924,0.00465588,0.31966056,0.0005
 1564,-0.00920303,-0.00425299,0.00157988,-0.00191384,0.00421424,0.00189
 354,-0.00089557,0.00094239,0.00007060,-0.09407983,-0.10727210,0.002398
 07,0.15226525,0.16619936,0.00508014,0.00923843,-0.03038174,-0.00709849
 ,0.00678468,-0.00620757,-0.00064836,0.00067973,-0.00135403,-0.08073840
 ,0.00867866,-0.01762308,0.01003863,-0.00351383,-0.00531014,0.07117092,
 0.00163391,-0.00158797,0.01958812,0.00454244,-0.00297896,0.00324278,0.
 00132348,0.00059093,0.00253975,0.00457546,-0.09318025,0.06246603,-0.00
 391466,0.01117776,-0.04412625,-0.00774186,0.08836764,-0.00212468,0.002
 62971,-0.03265333,-0.00576443,0.00404142,-0.00200007,0.00077420,0.0012
 0446,0.00706600,-0.01816923,0.07770539,-0.25840453,-0.00626493,-0.0310
 0189,-0.06152015,0.02878432,-0.07010764,0.38494955,-0.03080468,-0.0181
 5378,0.00909417,0.00355519,0.00006585,0.00031246,0.00218077,0.00129080
 ,0.00005093,-0.16527357,-0.02584417,0.01088588,0.00851911,0.00073134,-
 0.00061228,0.01016610,0.00658151,-0.00687967,0.48550037,0.01066373,0.0
 3099651,-0.00440142,-0.00218339,-0.00456052,0.00230445,-0.00220532,-0.
 00772016,-0.00355779,-0.02540959,-0.08347823,0.02099969,-0.02424336,-0
 .03240912,-0.00574802,-0.00693055,0.00093755,0.00386473,-0.01611716,0.
 56274067,-0.00194921,-0.00777674,0.01717331,0.00233588,0.00191166,-0.0
 0625207,-0.00174306,-0.00051179,-0.00222646,0.01463150,0.02547248,-0.0
 5216659,-0.01242771,-0.02605446,-0.00465046,0.02512120,0.02335697,-0.0
 3635377,0.01069626,-0.00245107,0.52135696,0.00225683,0.00132080,-0.003
 16839,-0.00588528,0.00111026,0.00180810,-0.00010795,0.00001588,0.00038
 279,0.00703357,-0.00158111,0.02870243,-0.00020378,-0.00011112,0.001042
 15,-0.00508114,-0.00546779,0.00768629,-0.07408154,-0.00079313,0.008899
 70,0.06413742,0.00000085,-0.00286477,0.00076451,0.00104093,0.00132351,
 -0.00122692,0.00013632,0.00076929,0.00015750,0.00024672,0.00131950,0.0
 1446856,-0.00126053,0.00213188,0.00366343,-0.00369297,-0.00227676,0.00
 433579,-0.00105815,-0.07093712,0.01591455,-0.00246181,0.07397887,-0.00
 041430,0.00476503,-0.00703983,-0.00039530,-0.00226462,0.00490495,0.000
 44623,0.00079160,0.00167740,0.00356381,-0.00661459,-0.03600266,-0.0006
 0294,0.00270934,0.00571206,0.00581334,0.00471380,-0.00442552,0.0143258
 8,0.03379362,-0.28633552,-0.02580518,0.00542700,0.40026644,0.00341534,
 0.00488351,0.00004630,-0.00184359,-0.00110447,-0.00075586,-0.00586360,
 -0.00254963,0.00065996,0.01214837,-0.02374223,-0.00707412,-0.00520740,
 -0.00731023,-0.00045760,-0.00080680,-0.00045695,0.00191556,-0.07765072
 ,0.01710019,0.00086285,0.00816560,0.00688304,0.00827345,0.07618113,0.0
 0165881,-0.00718741,-0.00076979,-0.00018871,0.00242103,-0.00084023,-0.
 00067870,0.00457738,0.00232519,0.00970795,-0.03667670,-0.01900880,-0.0
 0899848,-0.00850189,0.00041538,-0.00199354,0.00075870,0.00555487,0.020
 59902,-0.29331697,-0.03522544,0.00606714,-0.00981522,-0.04253675,-0.03
 719585,0.38493795,-0.00007933,-0.00136433,-0.00336151,-0.00101049,-0.0
 0082350,0.00093858,0.00244902,0.00181002,0.00126481,-0.00283651,-0.001
 21371,0.00228586,0.00062055,0.00119253,0.00120350,-0.00041976,-0.00090
 567,0.00338987,0.00599130,-0.05248803,-0.07817600,0.00907220,-0.056286
 14,-0.04045890,-0.00936480,0.10126752,0.10637977,-0.00139525,0.0017806
 5,0.00038329,0.00099966,-0.00023218,0.00002233,0.00081938,-0.00075345,
 -0.00054346,-0.02892207,-0.00384256,-0.00364926,0.00190248,0.00288146,
 0.00097648,0.00141349,0.00148678,-0.00298766,-0.14756092,0.03697805,-0
 .02908361,0.01146358,-0.00361344,0.01091963,-0.00199877,0.00158382,-0.
 00354372,0.62849555,-0.00188520,-0.00585638,0.00268979,0.00027893,-0.0
 0014671,-0.00035728,-0.00005126,0.00016375,-0.00001192,-0.01816416,0.0
 2853819,-0.00620837,0.00343843,-0.00807811,-0.00251103,0.00147304,-0.0
 0293848,0.00003915,0.01702883,-0.08145344,0.03235591,0.00339488,0.0041
 9152,-0.00655603,0.03571711,-0.04003194,0.00237119,0.03714109,0.669309
 56,0.00067749,0.00610656,-0.00083405,-0.00025047,-0.00015291,-0.000133
 68,0.00034175,-0.00187335,-0.00139738,0.00558242,-0.00877144,0.0190940
 1,0.00120892,0.00076978,-0.00124832,-0.00195645,0.00024138,-0.00522382
 ,-0.00340615,0.02901199,-0.07177616,-0.02958778,0.00944909,-0.04112376
 ,0.00378300,-0.01773506,0.00295034,0.30466908,0.28872570,0.61223203,0.
 00039932,-0.00283190,0.00016414,-0.00035621,0.00014187,0.00004081,-0.0
 0043084,0.00077163,0.00059228,0.00002442,0.00642522,-0.00345261,-0.000
 26444,-0.00104519,-0.00009307,-0.00073732,-0.00121702,0.00202698,-0.01
 387355,-0.02162723,-0.02736956,-0.00608011,0.00360270,-0.01213486,0.00
 053237,0.00039712,0.00046259,-0.32296824,-0.17016128,-0.27604072,0.311
 75223,0.00015780,0.00000638,-0.00057213,0.00002250,0.00023000,0.000048
 32,0.00004770,0.00046693,0.00027685,0.00214668,-0.00491553,-0.00014033
 ,-0.00076746,0.00244325,0.00084833,-0.00026913,0.00067766,0.00030071,0
 .00178504,0.00449231,-0.00937106,-0.00126436,0.00115625,0.00192292,0.0
 0251563,0.00672490,0.00470212,-0.17989456,-0.26839597,-0.24260119,0.20
 832979,0.30706304,-0.00019786,-0.00385076,0.00004446,0.00002011,0.0001
 0227,0.00021911,-0.00028050,0.00123882,0.00097065,-0.00238092,0.006197
 18,-0.00921537,-0.00054332,0.00011118,0.00075600,0.00193884,-0.0002531
 7,0.00381553,-0.03156923,-0.02316113,-0.00646397,0.00049698,0.00217291
 ,-0.00221975,0.00345958,0.00240341,0.00231917,-0.28130397,-0.23671254,
 -0.41271285,0.32362139,0.31075418,0.44293183,0.00081195,-0.00059233,0.
 00020341,-0.00036142,-0.00000431,-0.00009150,-0.00042115,0.00012692,0.
 00014026,0.00185453,0.00154993,-0.00146873,-0.00481773,-0.00119285,-0.
 00062340,-0.00104264,-0.00024518,0.00110671,-0.00193195,0.02857997,0.0
 1200621,-0.00182277,0.00107581,-0.00450465,-0.00748533,0.00930731,-0.0
 0136936,-0.13067010,0.07800146,-0.00232455,0.03437114,-0.02538880,-0.0
 1126458,0.47793226,-0.00013435,0.00073024,-0.00080307,0.00020857,0.000
 31521,0.00001875,0.00026066,0.00044271,0.00019729,0.00042983,-0.009275
 22,0.00128274,-0.00037312,0.00490517,0.00117878,-0.00015528,0.00179051
 ,-0.00030362,0.00862627,-0.01780622,-0.01507740,0.00106657,0.00004313,
 0.00522297,0.00480482,-0.00273762,0.00162112,0.05654369,-0.27383804,-0
 .08259899,-0.01660844,-0.05541059,-0.06161739,-0.19678602,0.43328347,0
 .00001849,-0.00049120,-0.00034416,0.00002862,-0.00007587,0.00023614,-0
 .00003821,0.00028807,0.00031211,-0.00019999,0.00015085,-0.00314936,-0.
 00082166,0.00063546,0.00094247,0.00083095,-0.00045512,0.00128312,-0.00
 569138,0.00472039,0.00586211,-0.00019556,0.00089313,0.00394432,-0.0024
 7947,0.00515748,0.00087871,-0.01391943,-0.06688470,-0.11414437,-0.0067
 5891,-0.06773713,-0.01437818,0.20455932,0.08406627,0.24010698,-0.00016
 687,0.00032738,-0.00010382,0.00008592,-0.00011611,0.00012331,0.0000769
 7,-0.00010138,-0.00001628,0.00015834,-0.00015711,-0.00059765,-0.000137
 22,-0.00004861,0.00010598,0.00037565,-0.00026083,0.00043634,0.00274455
 ,0.00259106,-0.00034227,0.00003547,-0.00075104,-0.00028300,-0.00021585
 ,0.00004390,0.00013310,-0.01200008,0.01496214,-0.00355517,-0.00190462,
 -0.00754234,-0.00147711,-0.36626126,0.14177867,-0.17527830,0.37717345,
 0.00023585,-0.00005646,-0.00001757,-0.00010339,0.00001812,-0.00000689,
 -0.00009149,0.00003598,0.00001866,0.00081086,-0.00052464,-0.00000249,-
 0.00053605,0.00031221,0.00015756,-0.00028084,-0.00007998,0.00009659,0.
 00175045,-0.00336662,-0.00457161,-0.00103456,0.00070922,-0.00037854,0.
 00097793,-0.00147785,0.00005193,0.05036101,-0.02297660,0.02053336,-0.0
 0676402,0.00563737,0.00192439,0.10535721,-0.08199794,0.03965718,-0.150
 68122,0.10374820,-0.00002724,-0.00017882,0.00014666,-0.00000670,0.0000
 8151,-0.00010764,-0.00000151,0.00003814,-0.00002673,-0.00054081,0.0001
 0352,0.00025279,-0.00004133,-0.00007819,-0.00010734,-0.00005730,0.0002
 0556,-0.00043103,-0.00251078,-0.00376964,0.00099960,0.00053998,0.00038
 207,0.00074825,0.00107735,-0.00097337,0.00023948,0.01797758,-0.0065666
 2,0.01400158,-0.00093885,0.00151336,-0.00591255,-0.19631409,0.06668309
 ,-0.12152781,0.18085413,-0.05745440,0.11172999,-0.16517084,-0.03063818
 ,0.00280210,0.00802445,0.00029494,0.00041428,0.01222624,0.00983153,0.0
 0256415,-0.03124845,-0.01980193,0.00049196,0.00354155,-0.00014602,-0.0
 0027065,0.00221275,0.00084150,-0.00027158,-0.00273811,0.00285001,-0.00
 112050,0.00061745,0.00006486,0.00034371,0.00102082,0.00030590,-0.00013
 713,-0.00069563,-0.00093404,0.00029360,0.00018764,0.00014726,-0.000106
 71,0.00033604,0.00009729,-0.00002892,-0.00010891,0.00011440,0.00002492
 ,0.52519280,-0.02873653,-0.10102411,0.00345946,-0.01484061,-0.01174417
 ,0.00968411,-0.01717434,-0.01881134,-0.01227762,0.00992385,0.03386217,
 -0.00460254,-0.00320398,-0.00710336,-0.00202441,-0.00055695,-0.0045515
 2,0.00490627,0.00334008,-0.00578094,0.00388665,0.00007930,0.00001189,-
 0.00185152,-0.00025724,-0.00076342,-0.00010293,-0.00164924,0.00415551,
 -0.00211017,0.00155151,-0.00080721,0.00139196,0.00088112,-0.00183871,0
 .00009225,-0.00009611,0.00019010,-0.00000239,-0.00240379,0.56568454,0.
 00021251,-0.00245565,-0.04019285,0.02273837,0.03033838,-0.02620698,-0.
 01752600,-0.03161643,-0.01452022,-0.00361985,-0.00021132,0.01542486,-0
 .00138185,-0.00180919,-0.00420494,0.00243172,0.00166834,-0.00533488,-0
 .00032603,0.00007162,0.00132028,0.00014697,0.00012530,-0.00160010,-0.0
 0000573,-0.00024306,-0.00032047,-0.00003833,0.00022461,0.00072215,-0.0
 0012675,-0.00009709,-0.00047329,0.00008378,-0.00010206,-0.00032016,-0.
 00011536,-0.00003248,0.00013983,0.00120025,0.00708298,0.53296410,-0.02
 639238,-0.00225537,0.00446671,0.00222677,0.00217367,-0.00280614,0.0021
 4905,0.00186342,0.00108704,-0.00181535,0.00272332,-0.00088433,0.001146
 49,-0.00080443,-0.00022518,0.00117989,-0.00059562,0.00088830,-0.000829
 21,-0.00143542,0.00123504,0.00064765,0.00014925,-0.00076627,0.00064590
 ,0.00026312,-0.00010077,-0.00171527,0.00111731,-0.00113774,0.00117344,
 -0.00014702,0.00080167,0.00082144,-0.00068306,0.00005220,-0.00023396,0
 .00017646,0.00004778,-0.16070224,0.06113785,0.01834865,0.58579988,-0.0
 2092996,0.03483513,0.00122327,0.00301634,-0.00647407,0.00446797,0.0045
 2798,-0.00619787,-0.00331275,-0.00236291,-0.00579308,0.00230394,0.0002
 9862,-0.00132405,-0.00045157,-0.00005002,0.00005624,-0.00113210,-0.001
 36895,0.00419430,-0.00132323,-0.00000002,-0.00052374,0.00081223,0.0003
 6554,-0.00136028,-0.00019047,0.00064918,-0.00045440,0.00120799,-0.0006
 6587,-0.00018934,-0.00078119,-0.00020738,-0.00011023,-0.00013137,0.000
 10802,0.00001812,-0.00004601,0.02716626,-0.08013815,-0.00702456,-0.019
 11717,0.55887843,0.00110663,0.00361315,0.01826563,-0.00274174,0.001789
 50,-0.00512526,0.00299197,-0.00306579,-0.00662027,-0.00000602,-0.00095
 182,0.00216755,0.00007399,-0.00071478,-0.00068545,-0.00024322,0.000533
 93,-0.00207210,-0.00002911,0.00052471,0.00110045,-0.00016277,0.0000697
 2,-0.00076507,0.00004845,-0.00023177,-0.00040108,0.00037155,0.00001556
 ,0.00060913,-0.00030724,-0.00007562,-0.00047615,-0.00008287,-0.0000398
 9,-0.00019123,-0.00001045,-0.00001974,0.00006592,0.01429877,-0.0104200
 4,-0.03866857,-0.00638295,0.00349736,0.56131957,0.00760480,-0.01455736
 ,-0.02308279,-0.00033632,-0.00109875,-0.00075768,-0.00517185,-0.008249
 34,-0.00371352,0.00204294,0.00252934,0.00223431,-0.00706698,0.00020416
 ,-0.00246082,-0.00011542,-0.00008614,-0.00047054,0.00057895,0.00003282
 ,-0.00021981,-0.00018023,-0.00005096,0.00011041,-0.00027772,-0.0002148
 9,0.00005655,0.00049091,-0.00007592,0.00029298,-0.00029263,-0.00000918
 ,-0.00020421,-0.00023447,0.00012100,-0.00002635,0.00005299,-0.00006260
 ,-0.00000606,-0.08003759,-0.00788713,-0.00680355,0.00471045,0.01383414
 ,0.02395339,0.07277651,-0.00023112,-0.01232714,-0.02944739,-0.00115181
 ,-0.00017875,-0.00072603,-0.00603738,-0.00667416,-0.00291576,0.0002839
 6,-0.00615700,-0.00129101,0.00139064,0.00385635,0.00205997,-0.00013919
 ,0.00056280,0.00057490,-0.00014184,0.00022173,-0.00117718,-0.00008485,
 0.00011403,0.00069352,-0.00016479,0.00066152,0.00025547,0.00036277,-0.
 00103639,0.00012323,-0.00025793,0.00028907,-0.00007197,-0.00023934,0.0
 0056341,0.00008740,0.00003355,-0.00004775,-0.00002570,-0.00166721,-0.1
 4969170,-0.10289827,-0.00962226,-0.01285301,-0.03052171,0.00728569,0.1
 5611727,-0.00073882,-0.00914461,-0.02408266,0.00108386,0.00086631,0.00
 763842,-0.00375901,-0.00369331,-0.00002948,0.00046095,-0.00460134,-0.0
 0365509,-0.00038009,0.00294571,0.00245480,-0.00042596,-0.00018262,0.00
 197092,-0.00030999,0.00047703,-0.00177756,-0.00004201,-0.00001936,0.00
 122884,-0.00008050,0.00042534,0.00034270,0.00027444,-0.00086105,-0.000
 00146,-0.00016741,0.00022714,0.00003709,-0.00020304,0.00042594,0.00015
 536,0.00006225,-0.00002223,-0.00006865,-0.00414071,-0.11776881,-0.2188
 1020,-0.00590048,-0.01513611,-0.03072855,0.01230337,0.14628100,0.33379
 739,0.01242373,-0.01586777,0.01773847,-0.00517275,-0.00613780,0.004135
 42,-0.00096305,-0.00144072,-0.00156516,0.00295154,0.00376949,-0.002145
 50,-0.00196937,-0.00066448,0.00120981,-0.00427912,-0.00177791,0.000673
 39,0.00096512,-0.00013712,0.00007391,-0.00028449,-0.00011026,0.0001650
 3,-0.00024285,-0.00028495,0.00000954,0.00049660,0.00012316,0.00005593,
 -0.00022591,-0.00004368,-0.00006636,-0.00019999,0.00003846,0.00001885,
 0.00008111,-0.00005232,-0.00002529,-0.08180249,0.01544402,-0.01248653,
 0.00294146,0.02411519,-0.02415358,0.00982235,0.00023855,-0.00808302,0.
 07120810,0.01028278,-0.01690548,0.03060913,-0.00797089,-0.00658296,0.0
 0405027,-0.00151111,-0.00071302,-0.00334991,0.00137349,-0.00529938,0.0
 0187855,0.00029921,0.00278739,-0.00023975,-0.00162783,0.00201348,-0.00
 274267,0.00031737,-0.00054061,0.00035105,-0.00021859,0.00027758,-0.000
 36714,-0.00023586,0.00065586,-0.00005791,0.00037564,-0.00078210,0.0002
 1036,-0.00026095,0.00024593,-0.00019185,-0.00019781,0.00052534,-0.0000
 6161,-0.00003334,-0.00008281,0.00005631,0.01600636,-0.19814729,0.10377
 687,-0.00389881,-0.02456714,0.03094763,-0.00027242,0.02587161,0.004798
 40,-0.02598448,0.22181215,-0.00329593,0.01158551,-0.01526719,0.0038627
 9,0.00316753,-0.00035336,0.00156843,0.00346840,0.00473240,-0.00086209,
 0.00232727,-0.00521477,0.00110327,-0.00019741,0.00064134,-0.00110180,-
 0.00194944,0.00384618,-0.00003271,0.00019688,-0.00055872,0.00007118,-0
 .00021308,0.00068516,0.00012677,-0.00021907,0.00015932,-0.00021189,0.0
 0032643,-0.00043268,0.00021130,-0.00008077,0.00031143,0.00009048,-0.00
 021425,0.00014140,0.00004475,0.00004741,-0.00006795,-0.01499374,0.1181
 2604,-0.16323765,0.00048051,0.01288537,-0.01743063,-0.00845992,0.01816
 915,-0.07579165,0.02619693,-0.16683562,0.25729619,0.00266390,-0.000060
 89,0.00100264,-0.00586817,0.00010576,0.00094395,-0.00110399,-0.0005190
 6,-0.00092334,0.00080695,-0.00006183,-0.00002613,-0.00028646,0.0000393
 4,0.00005877,-0.00036177,0.00002528,-0.00010996,0.00031847,0.00032901,
 -0.00019312,-0.00018677,-0.00005068,0.00015210,-0.00014691,-0.00012388
 ,0.00000534,0.00040529,-0.00018238,0.00024988,-0.00027601,0.00000570,-
 0.00018064,-0.00018796,0.00011271,-0.00000963,0.00006039,-0.00003354,-
 0.00001683,0.00791859,0.01951565,-0.02175154,-0.09415153,0.03855374,-0
 .02249445,-0.00068840,0.00117120,0.00296606,-0.00748148,0.00786664,-0.
 00292267,0.07883300,0.00066984,-0.00736175,0.00220613,-0.00034016,0.00
 347912,-0.00295268,-0.00041768,0.00211907,0.00002197,-0.00004731,-0.00
 013512,0.00017636,0.00016306,0.00063205,0.00004954,0.00014143,0.000378
 76,-0.00032934,0.00018364,-0.00108086,0.00045916,0.00001992,0.00021009
 ,-0.00036688,-0.00004377,0.00049978,-0.00001039,-0.00016462,-0.0000463
 6,-0.00022974,0.00015269,0.00009891,0.00013744,0.00004997,0.00011227,0
 .00000557,-0.00005119,-0.00001364,0.00003313,-0.00126878,-0.01820352,0
 .02760475,0.04423783,-0.20788630,0.09578512,0.00076304,0.00065457,-0.0
 0329442,0.00821537,-0.00588561,0.00214740,-0.02016203,0.27687007,-0.00
 002013,0.00264204,-0.00491414,0.00213351,-0.00219126,0.00303579,-0.000
 91195,0.00007138,0.00106642,-0.00003582,0.00012483,-0.00054781,-0.0000
 8106,-0.00011525,0.00015415,0.00000139,-0.00029839,0.00060056,-0.00011
 163,0.00041360,-0.00052225,0.00002244,-0.00011674,0.00037452,0.0000167
 3,-0.00015599,0.00010583,-0.00000451,-0.00000627,-0.00002000,-0.000003
 95,-0.00002319,0.00003651,-0.00001056,-0.00003399,0.00004138,0.0000259
 6,0.00001071,-0.00003158,0.00243452,0.00972117,-0.00896156,-0.02904603
 ,0.10021589,-0.14830231,-0.00147271,0.00172385,0.00574548,-0.00285978,
 0.00114031,0.00102788,0.02137289,-0.16782847,0.21974573,0.00177923,0.0
 0047570,-0.00210475,-0.00012245,-0.00037399,0.00059153,-0.00777115,-0.
 00209028,0.00199051,0.00059047,-0.00039181,0.00045070,-0.00033839,0.00
 006945,-0.00006340,-0.00024536,0.00008709,-0.00028408,0.00023110,0.000
 37723,-0.00026734,-0.00014633,-0.00004844,0.00015243,-0.00016793,-0.00
 011789,0.00001672,0.00042574,-0.00020375,0.00031557,-0.00029413,0.0000
 1125,-0.00022292,-0.00019321,0.00012154,-0.00003219,0.00005685,-0.0000
 3578,-0.00000729,0.00752954,0.00719225,0.02646369,-0.09300222,0.020913
 22,0.03548181,-0.00608114,0.00677425,0.00601001,-0.00068379,0.00140501
 ,-0.00040684,0.01438952,-0.00282109,-0.00448592,0.07955750,0.00112438,
 -0.00599158,-0.00225431,-0.00004959,0.00068458,0.00021597,-0.00299901,
 0.00264737,0.00260279,0.00008658,0.00054791,-0.00076148,0.00005890,0.0
 0054756,0.00029968,0.00009486,0.00001313,0.00045566,0.00017272,-0.0008
 5396,0.00001299,0.00004122,0.00010635,-0.00000716,-0.00006010,0.000362
 78,0.00011099,-0.00020563,0.00000615,-0.00032515,0.00018387,0.00007212
 ,0.00022470,0.00005635,0.00006131,0.00005852,-0.00002580,0.00000044,-0
 .00000037,0.00239287,-0.00103775,-0.02164363,0.02190595,-0.10846011,-0
 .07368751,0.00432064,-0.00340836,-0.00360975,0.00021665,0.00085607,-0.
 00119148,-0.00406678,0.01605254,0.03418522,-0.00367555,0.12169288,0.00
 013985,-0.00514818,-0.00579183,0.00060783,-0.00035216,0.00198064,-0.00
 025827,0.00313285,0.00399342,-0.00002110,0.00082016,-0.00173314,0.0001
 0336,0.00059909,0.00054408,0.00016486,-0.00026776,0.00123528,0.0001016
 0,-0.00078537,-0.00032345,0.00009936,0.00004419,0.00027597,-0.00002538
 ,0.00032934,0.00020183,-0.00033132,0.00002718,-0.00051427,0.00027885,0
 .00007106,0.00037059,0.00009562,0.00003271,0.00012106,-0.00001700,0.00
 001452,-0.00003016,-0.00314297,-0.00445606,-0.02910238,0.04540774,-0.0
 7950089,-0.25323199,0.00594559,-0.00406292,-0.00216580,0.00034859,-0.0
 0180988,0.00714398,0.00168306,0.01925340,-0.07693947,-0.02464830,0.111
 21652,0.38273814,-0.00317158,0.01139480,-0.00023389,-0.00013469,-0.001
 49806,0.00178094,0.00050548,-0.00037169,-0.00032076,-0.00007049,-0.004
 96947,0.00111494,-0.00007735,0.00080158,0.00026564,-0.00048277,0.00066
 653,-0.00096534,-0.00001547,0.00158018,-0.00114635,-0.00029720,-0.0001
 0219,0.00064049,-0.00020206,-0.00013720,0.00004496,0.00101366,-0.00101
 839,0.00078841,-0.00073654,0.00015719,-0.00054024,-0.00049735,0.000530
 19,-0.00002843,0.00012709,-0.00010837,-0.00002765,-0.04630362,-0.04225
 972,-0.00744443,-0.22460027,-0.08884592,-0.02171215,0.00240287,0.00219
 710,0.00107008,0.00241531,0.00428559,-0.00146881,0.00534333,-0.0292801
 6,0.01303663,0.00448614,-0.01957253,-0.02653198,0.26029553,0.00133986,
 -0.00211918,-0.00036001,-0.00052254,0.00087652,-0.00022551,-0.00072097
 ,0.00115512,0.00074740,0.00029580,-0.00095008,-0.00018801,-0.00001286,
 0.00065392,0.00025537,-0.00013884,0.00026876,-0.00009241,0.00021114,-0
 .00027831,-0.00018144,-0.00009863,0.00007449,0.00009121,-0.00012664,0.
 00026941,0.00006018,0.00021154,-0.00032974,0.00001856,-0.00011658,0.00
 011452,-0.00001845,-0.00013203,0.00024180,0.00002443,0.00002039,-0.000
 04549,-0.00000119,-0.00325324,-0.00426101,-0.00275911,-0.09718899,-0.1
 4165046,-0.01704802,0.00347386,0.00346191,0.00188673,0.00034062,0.0044
 6100,-0.00154628,-0.04246396,-0.06049407,0.02052056,-0.02766842,-0.023
 89943,-0.03915780,0.16655052,0.22245034,-0.00002070,-0.00016839,-0.001
 82777,0.00014280,-0.00022781,0.00070327,-0.00038349,0.00054148,0.00087
 991,0.00000926,-0.00030834,-0.00032670,0.00003093,0.00025393,0.0001773
 7,-0.00000557,-0.00001060,0.00026219,0.00002046,-0.00001625,-0.0002297
 3,-0.00000887,-0.00000552,0.00015319,-0.00002655,0.00006081,0.00005820
 ,0.00002278,-0.00009972,-0.00004644,-0.00000440,0.00003352,0.00003976,
 -0.00002847,0.00006098,0.00003010,0.00001059,-0.00000637,-0.00001267,-
 0.00065534,-0.00273440,0.00138303,-0.02556575,-0.01758375,-0.07882960,
 0.00278136,0.00316945,0.00374009,0.00075933,-0.00216257,0.00236930,0.0
 2019364,0.02713196,0.00830488,-0.03894994,-0.04590221,-0.02877251,0.04
 167792,0.03797380,0.09194412\\0.00001293,0.00002680,-0.00001219,0.0000
 0400,-0.00000992,0.00001098,0.00000055,-0.00000211,-0.00000020,0.00000
 624,-0.00001791,-0.00000583,-0.00001045,0.00001569,0.00000106,0.000000
 23,0.00000212,-0.00000117,0.00000320,0.00001092,0.00000513,-0.00000106
 ,-0.00000221,-0.00000071,-0.00000056,-0.00000710,0.00000132,0.00000108
 ,-0.00000503,-0.00000432,-0.00000076,-0.00000131,0.00000294,0.00000147
 ,-0.00000450,0.00000291,-0.00000657,0.00000003,-0.00000364,-0.00002618
 ,-0.00004947,-0.00003212,-0.00000590,0.00002979,0.00001765,0.00001998,
 0.00001493,0.00002771,0.00000229,-0.00000445,0.00000168,-0.00000931,-0
 .00000626,0.00001177,-0.00000460,-0.00000867,-0.00002786,0.00001342,0.
 00001868,0.00000489\\\@


 A FOOL CAN ASK MORE QUESTIONS THAN
 A WISE MAN CAN ANSWER.
 Job cpu time:       0 days 13 hours 17 minutes 50.6 seconds.
 Elapsed time:       0 days  1 hours 42 minutes 57.7 seconds.
 File lengths (MBytes):  RWF=    545 Int=      0 D2E=      0 Chk=     19 Scr=      1
 Normal termination of Gaussian 16 at Sat Feb  6 18:53:42 2021.
