 Entering Gaussian System, Link 0=/applications/g16/g16/g16
 Initial command:
 /applications/g16/g16/l1.exe "/scratch/g98/Gau-61066.inp" -scrdir="/scratch/g98/"
 Entering Link 1 = /applications/g16/g16/l1.exe PID=     61067.
  
 Copyright (c) 1988,1990,1992,1993,1995,1998,2003,2009,2016,
            Gaussian, Inc.  All Rights Reserved.
  
 This is part of the Gaussian(R) 16 program.  It is based on
 the Gaussian(R) 09 system (copyright 2009, Gaussian, Inc.),
 the Gaussian(R) 03 system (copyright 2003, Gaussian, Inc.),
 the Gaussian(R) 98 system (copyright 1998, Gaussian, Inc.),
 the Gaussian(R) 94 system (copyright 1995, Gaussian, Inc.),
 the Gaussian 92(TM) system (copyright 1992, Gaussian, Inc.),
 the Gaussian 90(TM) system (copyright 1990, Gaussian, Inc.),
 the Gaussian 88(TM) system (copyright 1988, Gaussian, Inc.),
 the Gaussian 86(TM) system (copyright 1986, Carnegie Mellon
 University), and the Gaussian 82(TM) system (copyright 1983,
 Carnegie Mellon University). Gaussian is a federally registered
 trademark of Gaussian, Inc.
  
 This software contains proprietary and confidential information,
 including trade secrets, belonging to Gaussian, Inc.
  
 This software is provided under written license and may be
 used, copied, transmitted, or stored only in accord with that
 written license.
  
 The following legend is applicable only to US Government
 contracts under FAR:
  
                    RESTRICTED RIGHTS LEGEND
  
 Use, reproduction and disclosure by the US Government is
 subject to restrictions as set forth in subparagraphs (a)
 and (c) of the Commercial Computer Software - Restricted
 Rights clause in FAR 52.227-19.
  
 Gaussian, Inc.
 340 Quinnipiac St., Bldg. 40, Wallingford CT 06492
  
  
 ---------------------------------------------------------------
 Warning -- This program may not be used in any manner that
 competes with the business of Gaussian, Inc. or will provide
 assistance to any competitor of Gaussian, Inc.  The licensee
 of this program is prohibited from giving any competitor of
 Gaussian, Inc. access to this program.  By using this program,
 the user acknowledges that Gaussian, Inc. is engaged in the
 business of creating and licensing software in the field of
 computational chemistry and represents and warrants to the
 licensee that it is not a competitor of Gaussian, Inc. and that
 it will not use this program in any manner prohibited above.
 ---------------------------------------------------------------
  

 Cite this work as:
 Gaussian 16, Revision A.03,
 M. J. Frisch, G. W. Trucks, H. B. Schlegel, G. E. Scuseria, 
 M. A. Robb, J. R. Cheeseman, G. Scalmani, V. Barone, 
 G. A. Petersson, H. Nakatsuji, X. Li, M. Caricato, A. V. Marenich, 
 J. Bloino, B. G. Janesko, R. Gomperts, B. Mennucci, H. P. Hratchian, 
 J. V. Ortiz, A. F. Izmaylov, J. L. Sonnenberg, D. Williams-Young, 
 F. Ding, F. Lipparini, F. Egidi, J. Goings, B. Peng, A. Petrone, 
 T. Henderson, D. Ranasinghe, V. G. Zakrzewski, J. Gao, N. Rega, 
 G. Zheng, W. Liang, M. Hada, M. Ehara, K. Toyota, R. Fukuda, 
 J. Hasegawa, M. Ishida, T. Nakajima, Y. Honda, O. Kitao, H. Nakai, 
 T. Vreven, K. Throssell, J. A. Montgomery, Jr., J. E. Peralta, 
 F. Ogliaro, M. J. Bearpark, J. J. Heyd, E. N. Brothers, K. N. Kudin, 
 V. N. Staroverov, T. A. Keith, R. Kobayashi, J. Normand, 
 K. Raghavachari, A. P. Rendell, J. C. Burant, S. S. Iyengar, 
 J. Tomasi, M. Cossi, J. M. Millam, M. Klene, C. Adamo, R. Cammi, 
 J. W. Ochterski, R. L. Martin, K. Morokuma, O. Farkas, 
 J. B. Foresman, and D. J. Fox, Gaussian, Inc., Wallingford CT, 2016.
 
 ******************************************
 Gaussian 16:  EM64M-G16RevA.03 25-Dec-2016
                15-Jul-2024 
 ******************************************
 %mem=48GB
 %nprocshared=24
 Will use up to   24 processors via shared memory.
 %chk=cf2.chk
 ----------------------------------------------------------
 # opt freq wb97xd/6-311+g(2d,2p) geom=connectivity scf=xqc
 ----------------------------------------------------------
 1/18=20,19=15,26=3,38=1,57=2/1,3;
 2/9=110,12=2,17=6,18=5,40=1/2;
 3/5=4,6=6,7=212,11=2,25=1,30=1,71=1,74=-58/1,2,3;
 4//1;
 5/5=2,8=3,13=1,38=5/2,8;
 6/7=2,8=2,9=2,10=2,28=1/1;
 7//1,2,3,16;
 1/18=20,19=15,26=3/3(2);
 2/9=110/2;
 99//99;
 2/9=110/2;
 3/5=4,6=6,7=212,11=2,25=1,30=1,71=1,74=-58/1,2,3;
 4/5=5,16=3,69=1/1;
 5/5=2,8=3,13=1,38=5/2,8;
 7//1,2,3,16;
 1/18=20,19=15,26=3/3(-5);
 2/9=110/2;
 6/7=2,8=2,9=2,10=2,19=2,28=1/1;
 99/9=1/99;
 -------------------
 Title Card Required
 -------------------
 Symbolic Z-matrix:
 Charge =  0 Multiplicity = 1
 C                    -1.8831    0.        0.15112 
 F                    -2.56086   1.04783  -0.17747 
 F                    -2.56087  -1.04782  -0.17748 
 

 GradGradGradGradGradGradGradGradGradGradGradGradGradGradGradGradGradGrad
 Berny optimization.
 Initialization pass.
                           ----------------------------
                           !    Initial Parameters    !
                           ! (Angstroms and Degrees)  !
 --------------------------                            --------------------------
 ! Name  Definition              Value          Derivative Info.                !
 --------------------------------------------------------------------------------
 ! R1    R(1,2)                  1.2905         estimate D2E/DX2                !
 ! R2    R(1,3)                  1.2905         estimate D2E/DX2                !
 ! A1    A(2,1,3)              108.5797         estimate D2E/DX2                !
 --------------------------------------------------------------------------------
 Trust Radius=3.00D-01 FncErr=1.00D-07 GrdErr=1.00D-06 EigMax=2.50D+02 EigMin=1.00D-04
 Number of steps in this run=     20 maximum allowed number of steps=    100.
 GradGradGradGradGradGradGradGradGradGradGradGradGradGradGradGradGradGrad

                          Input orientation:                          
 ---------------------------------------------------------------------
 Center     Atomic      Atomic             Coordinates (Angstroms)
 Number     Number       Type             X           Y           Z
 ---------------------------------------------------------------------
      1          6           0       -1.883104    0.000002    0.151122
      2          9           0       -2.560864    1.047829   -0.177469
      3          9           0       -2.560870   -1.047818   -0.177480
 ---------------------------------------------------------------------
                    Distance matrix (angstroms):
                    1          2          3
     1  C    0.000000
     2  F    1.290454   0.000000
     3  F    1.290454   2.095647   0.000000
 Stoichiometry    CF2
 Framework group  C2V[C2(C),SGV(F2)]
 Deg. of freedom     2
 Full point group                 C2V     NOp   4
 Largest Abelian subgroup         C2V     NOp   4
 Largest concise Abelian subgroup C2      NOp   2
                         Standard orientation:                         
 ---------------------------------------------------------------------
 Center     Atomic      Atomic             Coordinates (Angstroms)
 Number     Number       Type             X           Y           Z
 ---------------------------------------------------------------------
      1          6           0       -0.000000   -0.000000    0.564914
      2          9           0        0.000000   -1.047823   -0.188305
      3          9           0        0.000000    1.047823   -0.188305
 ---------------------------------------------------------------------
 Rotational constants (GHZ):          97.6762427          12.1141758          10.7775086
 Standard basis: 6-311+G(2d,2p) (5D, 7F)
 There are    36 symmetry adapted cartesian basis functions of A1  symmetry.
 There are    10 symmetry adapted cartesian basis functions of A2  symmetry.
 There are    14 symmetry adapted cartesian basis functions of B1  symmetry.
 There are    27 symmetry adapted cartesian basis functions of B2  symmetry.
 There are    32 symmetry adapted basis functions of A1  symmetry.
 There are    10 symmetry adapted basis functions of A2  symmetry.
 There are    14 symmetry adapted basis functions of B1  symmetry.
 There are    25 symmetry adapted basis functions of B2  symmetry.
    81 basis functions,   126 primitive gaussians,    87 cartesian basis functions
    12 alpha electrons       12 beta electrons
       nuclear repulsion energy        64.7411296035 Hartrees.
 NAtoms=    3 NActive=    3 NUniq=    2 SFac= 2.25D+00 NAtFMM=   60 NAOKFM=F Big=F
 Integral buffers will be    131072 words long.
 Raffenetti 2 integral format.
 Two-electron integral symmetry is turned on.
 Nuclear repulsion after empirical dispersion term =       64.7410788241 Hartrees.
 One-electron integrals computed using PRISM.
 NBasis=    81 RedAO= T EigKep=  2.06D-03  NBF=    32    10    14    25
 NBsUse=    81 1.00D-06 EigRej= -1.00D+00 NBFU=    32    10    14    25
 ExpMin= 4.38D-02 ExpMax= 1.14D+04 ExpMxC= 1.72D+03 IAcc=3 IRadAn=         5 AccDes= 0.00D+00
 Harris functional with IExCor= 4639 and IRadAn=       5 diagonalized for initial guess.
 HarFok:  IExCor= 4639 AccDes= 0.00D+00 IRadAn=         5 IDoV= 1 UseB2=F ITyADJ=14
 ICtDFT=  3500011 ScaDFX=  1.000000  1.000000  1.000000  1.000000
 FoFCou: FMM=F IPFlag=           0 FMFlag=      100000 FMFlg1=           0
         NFxFlg=           0 DoJE=T BraDBF=F KetDBF=T FulRan=T
         wScrn=  0.000000 ICntrl=       500 IOpCl=  0 I1Cent=   200000004 NGrid=           0
         NMat0=    1 NMatS0=      1 NMatT0=    0 NMatD0=    1 NMtDS0=    0 NMtDT0=    0
 Petite list used in FoFCou.
 Initial guess orbital symmetries:
       Occupied  (A1) (B2) (A1) (A1) (B2) (A1) (B2) (B1) (A1) (A2)
                 (B2) (A1)
       Virtual   (B1) (A1) (B2) (A1) (B1) (B2) (A1) (A2) (A1) (B1)
                 (B2) (A1) (B2) (A1) (B2) (B1) (A1) (B2) (B1) (A1)
                 (A2) (A1) (A1) (B2) (A1) (A2) (A1) (B2) (B1) (B2)
                 (B2) (A1) (B1) (A2) (A1) (B2) (B2) (B1) (A2) (A1)
                 (B2) (A1) (B1) (A1) (B2) (B1) (A2) (A1) (A1) (B2)
                 (A2) (A1) (B1) (B2) (A1) (B2) (B1) (A2) (A1) (B2)
                 (B2) (A2) (B1) (A1) (A1) (B2) (A1) (B2) (A1)
 The electronic state of the initial guess is 1-A1.
 Keep R1 ints in memory in symmetry-blocked form, NReq=32849635.
 Requested convergence on RMS density matrix=1.00D-08 within  32 cycles.
 Requested convergence on MAX density matrix=1.00D-06.
 Requested convergence on             energy=1.00D-06.
 No special actions if energy rises.
 SCF Done:  E(RwB97XD) =  -237.707381512     A.U. after   11 cycles
            NFock= 11  Conv=0.19D-08     -V/T= 2.0023
 QCSCF skips out because SCF is already converged.

 **********************************************************************

            Population analysis using the SCF density.

 **********************************************************************

 Orbital symmetries:
       Occupied  (B2) (A1) (A1) (A1) (B2) (A1) (B2) (B1) (A1) (A2)
                 (B2) (A1)
       Virtual   (B1) (A1) (B2) (B1) (A1) (A1) (B2) (B2) (A1) (A2)
                 (B1) (A1) (A1) (B2) (B2) (B1) (A1) (B2) (A1) (B1)
                 (A2) (A1) (A1) (B2) (A1) (A2) (A1) (B1) (B2) (B2)
                 (B2) (A1) (A2) (B1) (A1) (B2) (B2) (B1) (A2) (A1)
                 (B2) (A1) (B1) (A1) (B2) (B1) (A2) (A1) (A1) (B2)
                 (A2) (B1) (A1) (B2) (A1) (B2) (B1) (A2) (A1) (B2)
                 (B2) (A2) (B1) (A1) (A1) (B2) (A1) (B2) (A1)
 The electronic state is 1-A1.
 Alpha  occ. eigenvalues --  -24.89930 -24.89929 -10.49556  -1.46127  -1.38922
 Alpha  occ. eigenvalues --   -0.81948  -0.71615  -0.66478  -0.65761  -0.58659
 Alpha  occ. eigenvalues --   -0.56378  -0.39174
 Alpha virt. eigenvalues --   -0.01334   0.08572   0.10372   0.11484   0.11599
 Alpha virt. eigenvalues --    0.28002   0.28206   0.29515   0.31650   0.31750
 Alpha virt. eigenvalues --    0.33011   0.33118   0.38120   0.39679   0.46895
 Alpha virt. eigenvalues --    0.58815   0.59201   0.68863   0.81311   0.81520
 Alpha virt. eigenvalues --    0.84701   0.94800   1.14493   1.21329   1.30190
 Alpha virt. eigenvalues --    1.34259   1.36587   1.37263   1.38424   1.48570
 Alpha virt. eigenvalues --    1.84901   1.94335   2.02008   2.02621   2.08733
 Alpha virt. eigenvalues --    2.12213   2.23776   2.31181   2.32776   2.49777
 Alpha virt. eigenvalues --    2.72699   2.83869   2.86665   3.21683   3.30499
 Alpha virt. eigenvalues --    3.34221   3.36080   3.42812   3.67113   4.21044
 Alpha virt. eigenvalues --    6.31966   6.32779   6.32879   6.39696   6.53971
 Alpha virt. eigenvalues --    6.85838   9.05876   9.06883   9.07526   9.09495
 Alpha virt. eigenvalues --    9.25265   9.26659   9.30600   9.47887   9.65852
 Alpha virt. eigenvalues --    9.75457  23.95473  66.84228  66.87656
          Condensed to atoms (all electrons):
               1          2          3
     1  C    5.864169  -0.047564  -0.047564
     2  F   -0.047564   9.126207   0.036837
     3  F   -0.047564   0.036837   9.126207
 Mulliken charges:
               1
     1  C    0.230960
     2  F   -0.115480
     3  F   -0.115480
 Sum of Mulliken charges =   0.00000
 Mulliken charges with hydrogens summed into heavy atoms:
               1
     1  C    0.230960
     2  F   -0.115480
     3  F   -0.115480
 Electronic spatial extent (au):  <R**2>=            115.2548
 Charge=              0.0000 electrons
 Dipole moment (field-independent basis, Debye):
    X=             -0.0000    Y=             -0.0000    Z=             -0.7596  Tot=              0.7596
 Quadrupole moment (field-independent basis, Debye-Ang):
   XX=            -14.5073   YY=            -15.8392   ZZ=            -17.4876
   XY=             -0.0000   XZ=              0.0000   YZ=             -0.0000
 Traceless Quadrupole moment (field-independent basis, Debye-Ang):
   XX=              1.4374   YY=              0.1055   ZZ=             -1.5429
   XY=             -0.0000   XZ=              0.0000   YZ=             -0.0000
 Octapole moment (field-independent basis, Debye-Ang**2):
  XXX=              0.0000  YYY=              0.0000  ZZZ=             -8.6850  XYY=              0.0000
  XXY=              0.0000  XXZ=             -1.7637  XZZ=              0.0000  YZZ=              0.0000
  YYZ=             -1.6723  XYZ=              0.0000
 Hexadecapole moment (field-independent basis, Debye-Ang**3):
 XXXX=            -11.6283 YYYY=            -73.5224 ZZZZ=            -34.1634 XXXY=             -0.0000
 XXXZ=              0.0000 YYYX=             -0.0000 YYYZ=             -0.0000 ZZZX=              0.0000
 ZZZY=             -0.0000 XXYY=            -14.1934 XXZZ=             -7.0842 YYZZ=            -16.8818
 XXYZ=             -0.0000 YYXZ=              0.0000 ZZXY=             -0.0000
 N-N= 6.474107882407D+01 E-N=-6.942791488554D+02  KE= 2.371591232893D+02
 Symmetry A1   KE= 1.295760463138D+02
 Symmetry A2   KE= 6.664404306731D+00
 Symmetry B1   KE= 5.345446542980D+00
 Symmetry B2   KE= 9.557322612589D+01
 Calling FoFJK, ICntrl=      2127 FMM=F ISym2X=1 I1Cent= 0 IOpClX= 0 NMat=1 NMatS=1 NMatT=0.
 ***** Axes restored to original set *****
 -------------------------------------------------------------------
 Center     Atomic                   Forces (Hartrees/Bohr)
 Number     Number              X              Y              Z
 -------------------------------------------------------------------
      1        6           0.022447688   -0.000000122    0.010883202
      2        9          -0.011223862   -0.006150736   -0.005441634
      3        9          -0.011223826    0.006150858   -0.005441569
 -------------------------------------------------------------------
 Cartesian Forces:  Max     0.022447688 RMS     0.010589192

 GradGradGradGradGradGradGradGradGradGradGradGradGradGradGradGradGradGrad
 Berny optimization.
 FormGI is forming the generalized inverse of G from B-inverse, IUseBI=4.
 Internal  Forces:  Max     0.033453474 RMS     0.019404367
 Search for a local minimum.
 Step number   1 out of a maximum of   20
 All quantities printed in internal units (Hartrees-Bohrs-Radians)
 Mixed Optimization -- RFO/linear search
 Second derivative matrix not updated -- first step.
 The second derivative matrix:
                          R1        R2        A1
           R1           0.69915
           R2           0.00000   0.69915
           A1           0.00000   0.00000   0.25000
 ITU=  0
     Eigenvalues ---    0.25000   0.69915   0.69915
 RFO step:  Lambda=-4.41373514D-03 EMin= 2.50000000D-01
 Linear search not attempted -- first point.
 Iteration  1 RMS(Cart)=  0.09667082 RMS(Int)=  0.00428389
 Iteration  2 RMS(Cart)=  0.00393271 RMS(Int)=  0.00000085
 Iteration  3 RMS(Cart)=  0.00000108 RMS(Int)=  0.00000000
 Iteration  4 RMS(Cart)=  0.00000000 RMS(Int)=  0.00000000
 ClnCor:  largest displacement from symmetrization is 6.26D-11 for atom     3.
 Variable       Old X    -DE/DX   Delta X   Delta X   Delta X     New X
                                 (Linear)    (Quad)   (Total)
    R1        2.43861   0.00229   0.00000   0.00325   0.00325   2.44185
    R2        2.43861   0.00229   0.00000   0.00325   0.00325   2.44185
    A1        1.89507  -0.03345   0.00000  -0.13149  -0.13149   1.76358
         Item               Value     Threshold  Converged?
 Maximum Force            0.033453     0.000450     NO 
 RMS     Force            0.019404     0.000300     NO 
 Maximum Displacement     0.095284     0.001800     NO 
 RMS     Displacement     0.098769     0.001200     NO 
 Predicted change in Energy=-2.245072D-03
 GradGradGradGradGradGradGradGradGradGradGradGradGradGradGradGradGradGrad

                          Input orientation:                          
 ---------------------------------------------------------------------
 Center     Atomic      Atomic             Coordinates (Angstroms)
 Number     Number       Type             X           Y           Z
 ---------------------------------------------------------------------
      1          6           0       -1.842128    0.000002    0.170988
      2          9           0       -2.581352    0.997407   -0.187402
      3          9           0       -2.581358   -0.997396   -0.187413
 ---------------------------------------------------------------------
                    Distance matrix (angstroms):
                    1          2          3
     1  C    0.000000
     2  F    1.292174   0.000000
     3  F    1.292174   1.994803   0.000000
 Stoichiometry    CF2
 Framework group  C2V[C2(C),SGV(F2)]
 Deg. of freedom     2
 Full point group                 C2V     NOp   4
 Largest Abelian subgroup         C2V     NOp   4
 Largest concise Abelian subgroup C2      NOp   2
                         Standard orientation:                         
 ---------------------------------------------------------------------
 Center     Atomic      Atomic             Coordinates (Angstroms)
 Number     Number       Type             X           Y           Z
 ---------------------------------------------------------------------
      1          6           0       -0.000000   -0.000000    0.616144
      2          9           0        0.000000   -0.997401   -0.205381
      3          9           0        0.000000    0.997401   -0.205381
 ---------------------------------------------------------------------
 Rotational constants (GHZ):          82.1086952          13.3699642          11.4977558
 Standard basis: 6-311+G(2d,2p) (5D, 7F)
 There are    36 symmetry adapted cartesian basis functions of A1  symmetry.
 There are    10 symmetry adapted cartesian basis functions of A2  symmetry.
 There are    14 symmetry adapted cartesian basis functions of B1  symmetry.
 There are    27 symmetry adapted cartesian basis functions of B2  symmetry.
 There are    32 symmetry adapted basis functions of A1  symmetry.
 There are    10 symmetry adapted basis functions of A2  symmetry.
 There are    14 symmetry adapted basis functions of B1  symmetry.
 There are    25 symmetry adapted basis functions of B2  symmetry.
    81 basis functions,   126 primitive gaussians,    87 cartesian basis functions
    12 alpha electrons       12 beta electrons
       nuclear repulsion energy        65.7161922549 Hartrees.
 NAtoms=    3 NActive=    3 NUniq=    2 SFac= 2.25D+00 NAtFMM=   60 NAOKFM=F Big=F
 Integral buffers will be    131072 words long.
 Raffenetti 2 integral format.
 Two-electron integral symmetry is turned on.
 Nuclear repulsion after empirical dispersion term =       65.7161532678 Hartrees.
 One-electron integrals computed using PRISM.
 NBasis=    81 RedAO= T EigKep=  2.04D-03  NBF=    32    10    14    25
 NBsUse=    81 1.00D-06 EigRej= -1.00D+00 NBFU=    32    10    14    25
 Initial guess from the checkpoint file:  "cf2.chk"
 B after Tr=     0.000000   -0.000000    0.000000
         Rot=    1.000000   -0.000000   -0.000000    0.000000 Ang=   0.00 deg.
 Initial guess orbital symmetries:
       Occupied  (B2) (A1) (A1) (A1) (B2) (A1) (B2) (B1) (A1) (A2)
                 (B2) (A1)
       Virtual   (B1) (A1) (B2) (B1) (A1) (A1) (B2) (B2) (A1) (A2)
                 (B1) (A1) (A1) (B2) (B2) (B1) (A1) (B2) (A1) (B1)
                 (A2) (A1) (A1) (B2) (A1) (A2) (A1) (B1) (B2) (B2)
                 (B2) (A1) (A2) (B1) (A1) (B2) (B2) (B1) (A2) (A1)
                 (B2) (A1) (B1) (A1) (B2) (B1) (A2) (A1) (A1) (B2)
                 (A2) (B1) (A1) (B2) (A1) (B2) (B1) (A2) (A1) (B2)
                 (B2) (A2) (B1) (A1) (A1) (B2) (A1) (B2) (A1)
 ExpMin= 4.38D-02 ExpMax= 1.14D+04 ExpMxC= 1.72D+03 IAcc=2 IRadAn=         4 AccDes= 0.00D+00
 Harris functional with IExCor= 4639 and IRadAn=       4 diagonalized for initial guess.
 HarFok:  IExCor= 4639 AccDes= 0.00D+00 IRadAn=         4 IDoV= 1 UseB2=F ITyADJ=14
 ICtDFT=  3500011 ScaDFX=  1.000000  1.000000  1.000000  1.000000
 FoFCou: FMM=F IPFlag=           0 FMFlag=      100000 FMFlg1=           0
         NFxFlg=           0 DoJE=T BraDBF=F KetDBF=T FulRan=T
         wScrn=  0.000000 ICntrl=       500 IOpCl=  0 I1Cent=   200000004 NGrid=           0
         NMat0=    1 NMatS0=      1 NMatT0=    0 NMatD0=    1 NMtDS0=    0 NMtDT0=    0
 Petite list used in FoFCou.
 Keep R1 ints in memory in symmetry-blocked form, NReq=32849635.
 Requested convergence on RMS density matrix=1.00D-08 within  32 cycles.
 Requested convergence on MAX density matrix=1.00D-06.
 Requested convergence on             energy=1.00D-06.
 No special actions if energy rises.
 SCF Done:  E(RwB97XD) =  -237.707183570     A.U. after   10 cycles
            NFock= 10  Conv=0.42D-08     -V/T= 2.0021
 QCSCF skips out because SCF is already converged.
 Calling FoFJK, ICntrl=      2127 FMM=F ISym2X=1 I1Cent= 0 IOpClX= 0 NMat=1 NMatS=1 NMatT=0.
 ***** Axes restored to original set *****
 -------------------------------------------------------------------
 Center     Atomic                   Forces (Hartrees/Bohr)
 Number     Number              X              Y              Z
 -------------------------------------------------------------------
      1        6          -0.009192182    0.000000050   -0.004456600
      2        9           0.004596149    0.020113068    0.002228406
      3        9           0.004596033   -0.020113118    0.002228194
 -------------------------------------------------------------------
 Cartesian Forces:  Max     0.020113118 RMS     0.010358085

 GradGradGradGradGradGradGradGradGradGradGradGradGradGradGradGradGradGrad
 Berny optimization.
 Using GEDIIS/GDIIS optimizer.
 FormGI is forming the generalized inverse of G from B-inverse, IUseBI=4.
 Internal  Forces:  Max     0.040851945 RMS     0.025627818
 Search for a local minimum.
 Step number   2 out of a maximum of   20
 All quantities printed in internal units (Hartrees-Bohrs-Radians)
 Mixed Optimization -- RFO/linear search
 Update second derivatives using D2CorX and points    2    1
 DE=  1.98D-04 DEPred=-2.25D-03 R=-8.82D-02
 Trust test=-8.82D-02 RLast= 1.32D-01 DXMaxT set to 1.50D-01
 The second derivative matrix:
                          R1        R2        A1
           R1           0.70825
           R2           0.00910   0.70825
           A1           0.09371   0.09371   0.56972
 ITU= -1  0
 Use linear search instead of GDIIS.
     Eigenvalues ---    0.49184   0.69915   0.79523
 RFO step:  Lambda=-1.51665310D-04 EMin= 4.91839612D-01
 Quartic linear search produced a step of -0.50800.
 Iteration  1 RMS(Cart)=  0.05272224 RMS(Int)=  0.00102120
 Iteration  2 RMS(Cart)=  0.00076442 RMS(Int)=  0.00000012
 Iteration  3 RMS(Cart)=  0.00000017 RMS(Int)=  0.00000000
 ClnCor:  largest displacement from symmetrization is 1.14D-11 for atom     3.
 Variable       Old X    -DE/DX   Delta X   Delta X   Delta X     New X
                                 (Linear)    (Quad)   (Total)
    R1        2.44185   0.01228  -0.00165   0.01050   0.00885   2.45070
    R2        2.44185   0.01228  -0.00165   0.01050   0.00885   2.45070
    A1        1.76358   0.04085   0.06680  -0.00282   0.06397   1.82756
         Item               Value     Threshold  Converged?
 Maximum Force            0.040852     0.000450     NO 
 RMS     Force            0.025628     0.000300     NO 
 Maximum Displacement     0.055694     0.001800     NO 
 RMS     Displacement     0.052503     0.001200     NO 
 Predicted change in Energy=-1.304689D-03
 GradGradGradGradGradGradGradGradGradGradGradGradGradGradGradGradGradGrad

                          Input orientation:                          
 ---------------------------------------------------------------------
 Center     Atomic      Atomic             Coordinates (Angstroms)
 Number     Number       Type             X           Y           Z
 ---------------------------------------------------------------------
      1          6           0       -1.859800    0.000002    0.162421
      2          9           0       -2.572516    1.026879   -0.183118
      3          9           0       -2.572522   -1.026868   -0.183129
 ---------------------------------------------------------------------
                    Distance matrix (angstroms):
                    1          2          3
     1  C    0.000000
     2  F    1.296857   0.000000
     3  F    1.296857   2.053747   0.000000
 Stoichiometry    CF2
 Framework group  C2V[C2(C),SGV(F2)]
 Deg. of freedom     2
 Full point group                 C2V     NOp   4
 Largest Abelian subgroup         C2V     NOp   4
 Largest concise Abelian subgroup C2      NOp   2
                         Standard orientation:                         
 ---------------------------------------------------------------------
 Center     Atomic      Atomic             Coordinates (Angstroms)
 Number     Number       Type             X           Y           Z
 ---------------------------------------------------------------------
      1          6           0       -0.000000   -0.000000    0.594050
      2          9           0        0.000000   -1.026873   -0.198017
      3          9           0        0.000000    1.026873   -0.198017
 ---------------------------------------------------------------------
 Rotational constants (GHZ):          88.3298419          12.6135231          11.0373822
 Standard basis: 6-311+G(2d,2p) (5D, 7F)
 There are    36 symmetry adapted cartesian basis functions of A1  symmetry.
 There are    10 symmetry adapted cartesian basis functions of A2  symmetry.
 There are    14 symmetry adapted cartesian basis functions of B1  symmetry.
 There are    27 symmetry adapted cartesian basis functions of B2  symmetry.
 There are    32 symmetry adapted basis functions of A1  symmetry.
 There are    10 symmetry adapted basis functions of A2  symmetry.
 There are    14 symmetry adapted basis functions of B1  symmetry.
 There are    25 symmetry adapted basis functions of B2  symmetry.
    81 basis functions,   126 primitive gaussians,    87 cartesian basis functions
    12 alpha electrons       12 beta electrons
       nuclear repulsion energy        64.9397630304 Hartrees.
 NAtoms=    3 NActive=    3 NUniq=    2 SFac= 2.25D+00 NAtFMM=   60 NAOKFM=F Big=F
 Integral buffers will be    131072 words long.
 Raffenetti 2 integral format.
 Two-electron integral symmetry is turned on.
 Nuclear repulsion after empirical dispersion term =       64.9397173774 Hartrees.
 One-electron integrals computed using PRISM.
 NBasis=    81 RedAO= T EigKep=  2.10D-03  NBF=    32    10    14    25
 NBsUse=    81 1.00D-06 EigRej= -1.00D+00 NBFU=    32    10    14    25
 Lowest energy guess from the checkpoint file:  "cf2.chk"
 B after Tr=    -0.000000    0.000000    0.000000
         Rot=    1.000000    0.000000    0.000000    0.000000 Ang=   0.00 deg.
 B after Tr=    -0.000000    0.000000    0.000000
         Rot=    1.000000   -0.000000    0.000000   -0.000000 Ang=   0.00 deg.
 Initial guess orbital symmetries:
       Occupied  (A1) (B2) (A1) (B2) (A1) (A2) (B1) (A1) (B2) (A1)
                 (B2) (A1)
       Virtual   (A1) (B2) (A1) (B2) (A1) (A2) (B1) (A1) (B2) (A1)
                 (B2) (A1) (B2) (B2) (B2) (B1) (B2) (B2) (B2) (B2)
                 (B2) (B2) (B2) (B2) (B2) (B2) (B2) (B1) (B2) (B2)
                 (B2) (B2) (B2) (B2) (B2) (B2) (B2) (B1) (B2) (B2)
                 (B2) (B2) (B1) (B2) (B2) (B2) (B2) (B2) (B2) (B2)
                 (B2) (B1) (B2) (B2) (B2) (B2) (B2) (B1) (B2) (B2)
                 (B2) (B1) (B2) (B2) (B2) (B2) (B2) (A1) (B2)
 Keep R1 ints in memory in symmetry-blocked form, NReq=32849635.
 Requested convergence on RMS density matrix=1.00D-08 within  32 cycles.
 Requested convergence on MAX density matrix=1.00D-06.
 Requested convergence on             energy=1.00D-06.
 No special actions if energy rises.
 An orbital has undefined symmetry, so N**3 symmetry is turned off.
 SCF Done:  E(RwB97XD) =  -237.708565957     A.U. after    8 cycles
            NFock=  8  Conv=0.46D-08     -V/T= 2.0023
 QCSCF skips out because SCF is already converged.
 Calling FoFJK, ICntrl=      2127 FMM=F ISym2X=1 I1Cent= 0 IOpClX= 0 NMat=1 NMatS=1 NMatT=0.
 ***** Axes restored to original set *****
 -------------------------------------------------------------------
 Center     Atomic                   Forces (Hartrees/Bohr)
 Number     Number              X              Y              Z
 -------------------------------------------------------------------
      1        6           0.001036276   -0.000000006    0.000502413
      2        9          -0.000518136    0.000801637   -0.000251202
      3        9          -0.000518141   -0.000801632   -0.000251211
 -------------------------------------------------------------------
 Cartesian Forces:  Max     0.001036276 RMS     0.000603201

 GradGradGradGradGradGradGradGradGradGradGradGradGradGradGradGradGradGrad
 Berny optimization.
 Using GEDIIS/GDIIS optimizer.
 FormGI is forming the generalized inverse of G from B-inverse, IUseBI=4.
 Internal  Forces:  Max     0.000986436 RMS     0.000806829
 Search for a local minimum.
 Step number   3 out of a maximum of   20
 All quantities printed in internal units (Hartrees-Bohrs-Radians)
 Mixed Optimization -- En-DIIS/RFO-DIIS
 Update second derivatives using D2CorX and points    2    1    3
 DE= -1.18D-03 DEPred=-1.30D-03 R= 9.08D-01
 TightC=F SS=  1.41D+00  RLast= 6.97D-02 DXNew= 2.5227D-01 2.0896D-01
 Trust test= 9.08D-01 RLast= 6.97D-02 DXMaxT set to 2.09D-01
 The second derivative matrix:
                          R1        R2        A1
           R1           0.69385
           R2          -0.00530   0.69385
           A1           0.10414   0.10414   0.53402
 ITU=  1 -1  0
 Use linear search instead of GDIIS.
     Eigenvalues ---    0.44497   0.69915   0.77760
 RFO step:  Lambda=-2.76398443D-06 EMin= 4.44971293D-01
 Quartic linear search produced a step of  0.00760.
 Iteration  1 RMS(Cart)=  0.00094378 RMS(Int)=  0.00000015
 Iteration  2 RMS(Cart)=  0.00000020 RMS(Int)=  0.00000000
 ClnCor:  largest displacement from symmetrization is 1.39D-14 for atom     3.
 Variable       Old X    -DE/DX   Delta X   Delta X   Delta X     New X
                                 (Linear)    (Quad)   (Total)
    R1        2.45070   0.00099   0.00009   0.00140   0.00149   2.45220
    R2        2.45070   0.00099   0.00009   0.00140   0.00149   2.45220
    A1        1.82756   0.00008  -0.00051   0.00011  -0.00040   1.82715
         Item               Value     Threshold  Converged?
 Maximum Force            0.000986     0.000450     NO 
 RMS     Force            0.000807     0.000300     NO 
 Maximum Displacement     0.000877     0.001800     YES
 RMS     Displacement     0.000944     0.001200     YES
 Predicted change in Energy=-1.459418D-06
 GradGradGradGradGradGradGradGradGradGradGradGradGradGradGradGradGradGrad

                          Input orientation:                          
 ---------------------------------------------------------------------
 Center     Atomic      Atomic             Coordinates (Angstroms)
 Number     Number       Type             X           Y           Z
 ---------------------------------------------------------------------
      1          6           0       -1.859386    0.000002    0.162621
      2          9           0       -2.572723    1.027343   -0.183219
      3          9           0       -2.572729   -1.027332   -0.183229
 ---------------------------------------------------------------------
                    Distance matrix (angstroms):
                    1          2          3
     1  C    0.000000
     2  F    1.297646   0.000000
     3  F    1.297646   2.054675   0.000000
 Stoichiometry    CF2
 Framework group  C2V[C2(C),SGV(F2)]
 Deg. of freedom     2
 Full point group                 C2V     NOp   4
 Largest Abelian subgroup         C2V     NOp   4
 Largest concise Abelian subgroup C2      NOp   2
                         Standard orientation:                         
 ---------------------------------------------------------------------
 Center     Atomic      Atomic             Coordinates (Angstroms)
 Number     Number       Type             X           Y           Z
 ---------------------------------------------------------------------
      1          6           0       -0.000000    0.000000    0.594568
      2          9           0       -0.000000   -1.027337   -0.198189
      3          9           0        0.000000    1.027337   -0.198189
 ---------------------------------------------------------------------
 Rotational constants (GHZ):          88.1761846          12.6021273          11.0262564
 Standard basis: 6-311+G(2d,2p) (5D, 7F)
 There are    36 symmetry adapted cartesian basis functions of A1  symmetry.
 There are    10 symmetry adapted cartesian basis functions of A2  symmetry.
 There are    14 symmetry adapted cartesian basis functions of B1  symmetry.
 There are    27 symmetry adapted cartesian basis functions of B2  symmetry.
 There are    32 symmetry adapted basis functions of A1  symmetry.
 There are    10 symmetry adapted basis functions of A2  symmetry.
 There are    14 symmetry adapted basis functions of B1  symmetry.
 There are    25 symmetry adapted basis functions of B2  symmetry.
    81 basis functions,   126 primitive gaussians,    87 cartesian basis functions
    12 alpha electrons       12 beta electrons
       nuclear repulsion energy        64.9035414978 Hartrees.
 NAtoms=    3 NActive=    3 NUniq=    2 SFac= 2.25D+00 NAtFMM=   60 NAOKFM=F Big=F
 Integral buffers will be    131072 words long.
 Raffenetti 2 integral format.
 Two-electron integral symmetry is turned on.
 Nuclear repulsion after empirical dispersion term =       64.9034957196 Hartrees.
 One-electron integrals computed using PRISM.
 NBasis=    81 RedAO= T EigKep=  2.11D-03  NBF=    32    10    14    25
 NBsUse=    81 1.00D-06 EigRej= -1.00D+00 NBFU=    32    10    14    25
 Initial guess from the checkpoint file:  "cf2.chk"
 B after Tr=     0.000000   -0.000000   -0.000000
         Rot=    1.000000   -0.000000    0.000000    0.000000 Ang=   0.00 deg.
 Initial guess orbital symmetries:
       Occupied  (B2) (A1) (A1) (A1) (B2) (A1) (B2) (B1) (A1) (A2)
                 (B2) (A1)
       Virtual   (B1) (A1) (B2) (A1) (B1) (B2) (A1) (B2) (A2) (A1)
                 (B1) (A1) (A1) (B2) (B2) (B1) (A1) (B2) (A1) (B1)
                 (A2) (A1) (A1) (B2) (A1) (A2) (A1) (B1) (B2) (B2)
                 (B2) (A1) (B1) (A2) (A1) (B2) (B2) (B1) (A2) (A1)
                 (B2) (A1) (B1) (A1) (B2) (B1) (A2) (A1) (A1) (B2)
                 (A2) (B1) (A1) (B2) (A1) (B2) (B1) (A1) (A2) (B2)
                 (A2) (B2) (B1) (A1) (A1) (B2) (A1) (B2) (A1)
 Keep R1 ints in memory in symmetry-blocked form, NReq=32849635.
 Requested convergence on RMS density matrix=1.00D-08 within  32 cycles.
 Requested convergence on MAX density matrix=1.00D-06.
 Requested convergence on             energy=1.00D-06.
 No special actions if energy rises.
 SCF Done:  E(RwB97XD) =  -237.708567796     A.U. after    7 cycles
            NFock=  7  Conv=0.65D-08     -V/T= 2.0024
 QCSCF skips out because SCF is already converged.
 Calling FoFJK, ICntrl=      2127 FMM=F ISym2X=1 I1Cent= 0 IOpClX= 0 NMat=1 NMatS=1 NMatT=0.
 ***** Axes restored to original set *****
 -------------------------------------------------------------------
 Center     Atomic                   Forces (Hartrees/Bohr)
 Number     Number              X              Y              Z
 -------------------------------------------------------------------
      1        6           0.000261077   -0.000000001    0.000126577
      2        9          -0.000130538    0.000224506   -0.000063287
      3        9          -0.000130539   -0.000224504   -0.000063290
 -------------------------------------------------------------------
 Cartesian Forces:  Max     0.000261077 RMS     0.000158843

 GradGradGradGradGradGradGradGradGradGradGradGradGradGradGradGradGradGrad
 Berny optimization.
 Using GEDIIS/GDIIS optimizer.
 FormGI is forming the generalized inverse of G from B-inverse, IUseBI=4.
 Internal  Forces:  Max     0.000266366 RMS     0.000219767
 Search for a local minimum.
 Step number   4 out of a maximum of   20
 All quantities printed in internal units (Hartrees-Bohrs-Radians)
 Mixed Optimization -- En-DIIS/RFO-DIIS
 Swapping is turned off.
 Update second derivatives using D2CorX and points    2    1    3    4
 DE= -1.84D-06 DEPred=-1.46D-06 R= 1.26D+00
 TightC=F SS=  1.41D+00  RLast= 2.15D-03 DXNew= 3.5142D-01 6.4405D-03
 Trust test= 1.26D+00 RLast= 2.15D-03 DXMaxT set to 2.09D-01
 The second derivative matrix:
                          R1        R2        A1
           R1           0.60214
           R2          -0.09702   0.60214
           A1           0.08141   0.08141   0.53083
 ITU=  1  1 -1  0
     Eigenvalues ---    0.40213   0.63383   0.69915
 En-DIIS/RFO-DIIS/Sim-DIIS IScMMF=       -3 using points:     4    3
 RFO step:  Lambda=-2.82851211D-07.
 DidBck=F Rises=F RFO-DIIS coefs:    1.35301   -0.35301
 Iteration  1 RMS(Cart)=  0.00035958 RMS(Int)=  0.00000001
 Iteration  2 RMS(Cart)=  0.00000001 RMS(Int)=  0.00000000
 ClnCor:  largest displacement from symmetrization is 1.23D-14 for atom     3.
 Variable       Old X    -DE/DX   Delta X   Delta X   Delta X     New X
                                 (Linear)    (Quad)   (Total)
    R1        2.45220   0.00027   0.00053   0.00001   0.00054   2.45273
    R2        2.45220   0.00027   0.00053   0.00001   0.00054   2.45273
    A1        1.82715   0.00005  -0.00014   0.00008  -0.00006   1.82709
         Item               Value     Threshold  Converged?
 Maximum Force            0.000266     0.000450     YES
 RMS     Force            0.000220     0.000300     YES
 Maximum Displacement     0.000379     0.001800     YES
 RMS     Displacement     0.000360     0.001200     YES
 Predicted change in Energy=-1.414256D-07
 Optimization completed.
    -- Stationary point found.
                           ----------------------------
                           !   Optimized Parameters   !
                           ! (Angstroms and Degrees)  !
 --------------------------                            --------------------------
 ! Name  Definition              Value          Derivative Info.                !
 --------------------------------------------------------------------------------
 ! R1    R(1,2)                  1.2976         -DE/DX =    0.0003              !
 ! R2    R(1,3)                  1.2976         -DE/DX =    0.0003              !
 ! A1    A(2,1,3)              104.688          -DE/DX =    0.0001              !
 --------------------------------------------------------------------------------
 GradGradGradGradGradGradGradGradGradGradGradGradGradGradGradGradGradGrad

                          Input orientation:                          
 ---------------------------------------------------------------------
 Center     Atomic      Atomic             Coordinates (Angstroms)
 Number     Number       Type             X           Y           Z
 ---------------------------------------------------------------------
      1          6           0       -1.859386    0.000002    0.162621
      2          9           0       -2.572723    1.027343   -0.183219
      3          9           0       -2.572729   -1.027332   -0.183229
 ---------------------------------------------------------------------
                    Distance matrix (angstroms):
                    1          2          3
     1  C    0.000000
     2  F    1.297646   0.000000
     3  F    1.297646   2.054675   0.000000
 Stoichiometry    CF2
 Framework group  C2V[C2(C),SGV(F2)]
 Deg. of freedom     2
 Full point group                 C2V     NOp   4
 Largest Abelian subgroup         C2V     NOp   4
 Largest concise Abelian subgroup C2      NOp   2
                         Standard orientation:                         
 ---------------------------------------------------------------------
 Center     Atomic      Atomic             Coordinates (Angstroms)
 Number     Number       Type             X           Y           Z
 ---------------------------------------------------------------------
      1          6           0       -0.000000   -0.000000    0.594568
      2          9           0        0.000000   -1.027337   -0.198189
      3          9           0        0.000000    1.027337   -0.198189
 ---------------------------------------------------------------------
 Rotational constants (GHZ):          88.1761846          12.6021273          11.0262564

 **********************************************************************

            Population analysis using the SCF density.

 **********************************************************************

 Orbital symmetries:
       Occupied  (B2) (A1) (A1) (A1) (B2) (A1) (B2) (B1) (A1) (A2)
                 (B2) (A1)
       Virtual   (B1) (A1) (B2) (A1) (B1) (B2) (A1) (B2) (A2) (A1)
                 (B1) (A1) (A1) (B2) (B2) (B1) (A1) (B2) (A1) (B1)
                 (A2) (A1) (A1) (B2) (A1) (A2) (A1) (B1) (B2) (B2)
                 (B2) (A1) (B1) (A2) (A1) (B2) (B2) (B1) (A2) (A1)
                 (B2) (A1) (B1) (A1) (B2) (B1) (A2) (A1) (A1) (B2)
                 (A2) (B1) (A1) (B2) (A1) (B2) (B1) (A1) (A2) (B2)
                 (A2) (B2) (B1) (A1) (A1) (B2) (A1) (B2) (A1)
 The electronic state is 1-A1.
 Alpha  occ. eigenvalues --  -24.89533 -24.89532 -10.49810  -1.45942  -1.38073
 Alpha  occ. eigenvalues --   -0.81771  -0.70945  -0.66186  -0.65593  -0.58161
 Alpha  occ. eigenvalues --   -0.55501  -0.40152
 Alpha virt. eigenvalues --   -0.01659   0.08706   0.10253   0.11479   0.11484
 Alpha virt. eigenvalues --    0.27103   0.28545   0.28906   0.31871   0.31960
 Alpha virt. eigenvalues --    0.32902   0.33282   0.37989   0.39653   0.47298
 Alpha virt. eigenvalues --    0.58681   0.58930   0.67981   0.81495   0.82281
 Alpha virt. eigenvalues --    0.83874   0.94983   1.13798   1.21580   1.28874
 Alpha virt. eigenvalues --    1.34794   1.36606   1.37162   1.39488   1.48469
 Alpha virt. eigenvalues --    1.85961   1.94135   2.02094   2.03702   2.06303
 Alpha virt. eigenvalues --    2.11117   2.28504   2.30578   2.31302   2.46058
 Alpha virt. eigenvalues --    2.70672   2.83457   2.86651   3.21511   3.29252
 Alpha virt. eigenvalues --    3.34395   3.35007   3.42978   3.64616   4.21776
 Alpha virt. eigenvalues --    6.32356   6.32939   6.33567   6.40179   6.54963
 Alpha virt. eigenvalues --    6.81642   9.05629   9.06402   9.08055   9.09100
 Alpha virt. eigenvalues --    9.25771   9.29520   9.30654   9.43922   9.65370
 Alpha virt. eigenvalues --    9.75938  23.93791  66.85439  66.87331
          Condensed to atoms (all electrons):
               1          2          3
     1  C    5.813899  -0.025739  -0.025739
     2  F   -0.025739   9.123483   0.021045
     3  F   -0.025739   0.021045   9.123483
 Mulliken charges:
               1
     1  C    0.237579
     2  F   -0.118789
     3  F   -0.118789
 Sum of Mulliken charges =  -0.00000
 Mulliken charges with hydrogens summed into heavy atoms:
               1
     1  C    0.237579
     2  F   -0.118789
     3  F   -0.118789
 Electronic spatial extent (au):  <R**2>=            113.4534
 Charge=              0.0000 electrons
 Dipole moment (field-independent basis, Debye):
    X=             -0.0000    Y=              0.0000    Z=             -0.6119  Tot=              0.6119
 Quadrupole moment (field-independent basis, Debye-Ang):
   XX=            -14.4789   YY=            -15.9189   ZZ=            -17.3676
   XY=             -0.0000   XZ=              0.0000   YZ=              0.0000
 Traceless Quadrupole moment (field-independent basis, Debye-Ang):
   XX=              1.4430   YY=              0.0029   ZZ=             -1.4458
   XY=             -0.0000   XZ=              0.0000   YZ=              0.0000
 Octapole moment (field-independent basis, Debye-Ang**2):
  XXX=             -0.0000  YYY=             -0.0000  ZZZ=             -8.7984  XYY=             -0.0000
  XXY=              0.0000  XXZ=             -1.7479  XZZ=             -0.0000  YZZ=              0.0000
  YYZ=             -1.7244  XYZ=              0.0000
 Hexadecapole moment (field-independent basis, Debye-Ang**3):
 XXXX=            -11.4695 YYYY=            -71.6147 ZZZZ=            -35.3225 XXXY=             -0.0000
 XXXZ=              0.0000 YYYX=             -0.0000 YYYZ=              0.0000 ZZZX=              0.0000
 ZZZY=             -0.0000 XXYY=            -13.8065 XXZZ=             -7.1978 YYZZ=            -16.6137
 XXYZ=             -0.0000 YYXZ=              0.0000 ZZXY=             -0.0000
 N-N= 6.490349571961D+01 E-N=-6.946647888522D+02  KE= 2.371505728615D+02
 Symmetry A1   KE= 1.295063431638D+02
 Symmetry A2   KE= 6.677425209203D+00
 Symmetry B1   KE= 5.328910670719D+00
 Symmetry B2   KE= 9.563789381783D+01
 1\1\GINC-CCLEARTI\FOpt\RwB97XD\6-311+G(2d,2p)\C1F2\RAPPE\15-Jul-2024\0
 \\# opt freq wb97xd/6-311+g(2d,2p) geom=connectivity scf=xqc\\Title Ca
 rd Required\\0,1\C,-1.8593858893,0.0000017285,0.1626211349\F,-2.572723
 1146,1.0273430628,-0.1832186753\F,-2.5727290575,-1.0273318388,-0.18322
 94894\\Version=EM64M-G16RevA.03\State=1-A1\HF=-237.7085678\RMSD=6.462e
 -09\RMSF=1.588e-04\Dipole=-0.2166391,0.0000012,-0.1050321\Quadrupole=-
 0.6661806,0.0021349,0.6640457,0.0000064,-0.8431029,-0.000001\PG=C02V [
 C2(C1),SGV(F2)]\\@


 PICNIC:  A SNACK IN THE GRASS.
 Job cpu time:       0 days  0 hours  3 minutes 55.6 seconds.
 Elapsed time:       0 days  0 hours  0 minutes 10.4 seconds.
 File lengths (MBytes):  RWF=      6 Int=      0 D2E=      0 Chk=      2 Scr=      1
 Normal termination of Gaussian 16 at Mon Jul 15 13:22:26 2024.
 Link1:  Proceeding to internal job step number  2.
 ----------------------------------------------------------------------
 #N Geom=AllCheck Guess=TCheck SCRF=Check GenChk RwB97XD/6-311+G(2d,2p)
  Freq
 ----------------------------------------------------------------------
 1/10=4,29=7,30=1,38=1,40=1/1,3;
 2/12=2,40=1/2;
 3/5=4,6=6,7=212,11=2,14=-4,25=1,30=1,70=2,71=2,74=-58,116=1,140=1/1,2,3;
 4/5=101/1;
 5/5=2,8=3,13=1,38=6,98=1/2,8;
 8/6=4,10=90,11=11/1;
 11/6=1,8=1,9=11,15=111,16=1/1,2,10;
 10/6=1/2;
 6/7=2,8=2,9=2,10=2,28=1/1;
 7/8=1,10=1,25=1/1,2,3,16;
 1/10=4,30=1/3;
 99//99;
 Structure from the checkpoint file:  "cf2.chk"
 -------------------
 Title Card Required
 -------------------
 Charge =  0 Multiplicity = 1
 Redundant internal coordinates found in file.  (old form).
 C,0,-1.8593858893,0.0000017285,0.1626211349
 F,0,-2.5727231146,1.0273430628,-0.1832186753
 F,0,-2.5727290575,-1.0273318388,-0.1832294894
 Recover connectivity data from disk.

 GradGradGradGradGradGradGradGradGradGradGradGradGradGradGradGradGradGrad
 Berny optimization.
 Initialization pass.
                           ----------------------------
                           !    Initial Parameters    !
                           ! (Angstroms and Degrees)  !
 --------------------------                            --------------------------
 ! Name  Definition              Value          Derivative Info.                !
 --------------------------------------------------------------------------------
 ! R1    R(1,2)                  1.2976         calculate D2E/DX2 analytically  !
 ! R2    R(1,3)                  1.2976         calculate D2E/DX2 analytically  !
 ! A1    A(2,1,3)              104.688          calculate D2E/DX2 analytically  !
 --------------------------------------------------------------------------------
 Trust Radius=3.00D-01 FncErr=1.00D-07 GrdErr=1.00D-07 EigMax=2.50D+02 EigMin=1.00D-04
 Number of steps in this run=      2 maximum allowed number of steps=      2.
 GradGradGradGradGradGradGradGradGradGradGradGradGradGradGradGradGradGrad

                          Input orientation:                          
 ---------------------------------------------------------------------
 Center     Atomic      Atomic             Coordinates (Angstroms)
 Number     Number       Type             X           Y           Z
 ---------------------------------------------------------------------
      1          6           0       -1.859386    0.000002    0.162621
      2          9           0       -2.572723    1.027343   -0.183219
      3          9           0       -2.572729   -1.027332   -0.183229
 ---------------------------------------------------------------------
                    Distance matrix (angstroms):
                    1          2          3
     1  C    0.000000
     2  F    1.297646   0.000000
     3  F    1.297646   2.054675   0.000000
 Stoichiometry    CF2
 Framework group  C2V[C2(C),SGV(F2)]
 Deg. of freedom     2
 Full point group                 C2V     NOp   4
 Largest Abelian subgroup         C2V     NOp   4
 Largest concise Abelian subgroup C2      NOp   2
                         Standard orientation:                         
 ---------------------------------------------------------------------
 Center     Atomic      Atomic             Coordinates (Angstroms)
 Number     Number       Type             X           Y           Z
 ---------------------------------------------------------------------
      1          6           0       -0.000000   -0.000000    0.594568
      2          9           0        0.000000   -1.027337   -0.198189
      3          9           0        0.000000    1.027337   -0.198189
 ---------------------------------------------------------------------
 Rotational constants (GHZ):          88.1761846          12.6021273          11.0262564
 Standard basis: 6-311+G(2d,2p) (5D, 7F)
 There are    36 symmetry adapted cartesian basis functions of A1  symmetry.
 There are    10 symmetry adapted cartesian basis functions of A2  symmetry.
 There are    14 symmetry adapted cartesian basis functions of B1  symmetry.
 There are    27 symmetry adapted cartesian basis functions of B2  symmetry.
 There are    32 symmetry adapted basis functions of A1  symmetry.
 There are    10 symmetry adapted basis functions of A2  symmetry.
 There are    14 symmetry adapted basis functions of B1  symmetry.
 There are    25 symmetry adapted basis functions of B2  symmetry.
    81 basis functions,   126 primitive gaussians,    87 cartesian basis functions
    12 alpha electrons       12 beta electrons
       nuclear repulsion energy        64.9035414978 Hartrees.
 NAtoms=    3 NActive=    3 NUniq=    2 SFac= 2.25D+00 NAtFMM=   60 NAOKFM=F Big=F
 Integral buffers will be    131072 words long.
 Raffenetti 2 integral format.
 Two-electron integral symmetry is turned on.
 Nuclear repulsion after empirical dispersion term =       64.9034957196 Hartrees.
 One-electron integrals computed using PRISM.
 NBasis=    81 RedAO= T EigKep=  2.11D-03  NBF=    32    10    14    25
 NBsUse=    81 1.00D-06 EigRej= -1.00D+00 NBFU=    32    10    14    25
 Initial guess from the checkpoint file:  "cf2.chk"
 B after Tr=    -0.000000   -0.000000    0.000000
         Rot=    1.000000    0.000000   -0.000000    0.000000 Ang=   0.00 deg.
 Initial guess orbital symmetries:
       Occupied  (B2) (A1) (A1) (A1) (B2) (A1) (B2) (B1) (A1) (A2)
                 (B2) (A1)
       Virtual   (B1) (A1) (B2) (A1) (B1) (B2) (A1) (B2) (A2) (A1)
                 (B1) (A1) (A1) (B2) (B2) (B1) (A1) (B2) (A1) (B1)
                 (A2) (A1) (A1) (B2) (A1) (A2) (A1) (B1) (B2) (B2)
                 (B2) (A1) (B1) (A2) (A1) (B2) (B2) (B1) (A2) (A1)
                 (B2) (A1) (B1) (A1) (B2) (B1) (A2) (A1) (A1) (B2)
                 (A2) (B1) (A1) (B2) (A1) (B2) (B1) (A1) (A2) (B2)
                 (A2) (B2) (B1) (A1) (A1) (B2) (A1) (B2) (A1)
 Keep R1 ints in memory in symmetry-blocked form, NReq=32849635.
 Requested convergence on RMS density matrix=1.00D-08 within  32 cycles.
 Requested convergence on MAX density matrix=1.00D-06.
 Requested convergence on             energy=1.00D-06.
 No special actions if energy rises.
 SCF Done:  E(RwB97XD) =  -237.708567796     A.U. after    1 cycles
            NFock=  1  Conv=0.43D-09     -V/T= 2.0024
 QCSCF skips out because SCF is already converged.
 DoSCS=F DFT=T ScalE2(SS,OS)=  1.000000  1.000000
 Range of M.O.s used for correlation:     1    81
 NBasis=    81 NAE=    12 NBE=    12 NFC=     0 NFV=     0
 NROrb=     81 NOA=    12 NOB=    12 NVA=    69 NVB=    69

 **** Warning!!: The largest alpha MO coefficient is  0.10922508D+02

 Symmetrizing basis deriv contribution to polar:
 IMax=3 JMax=2 DiffMx= 0.00D+00
 G2DrvN: will do     4 centers at a time, making    1 passes.
 Calling FoFCou, ICntrl=  3107 FMM=F I1Cent=   0 AccDes= 0.00D+00.
 End of G2Drv F.D. properties file   721 does not exist.
 End of G2Drv F.D. properties file   722 does not exist.
 End of G2Drv F.D. properties file   788 does not exist.
          IDoAtm=111
          Differentiating once with respect to electric field.
                with respect to dipole field.
          Differentiating once with respect to nuclear coordinates.
 Keep R1 ints in memory in symmetry-blocked form, NReq=32768442.
          There are     9 degrees of freedom in the 1st order CPHF.  IDoFFX=4 NUNeed=     9.
      9 vectors produced by pass  0 Test12= 9.20D-15 1.11D-08 XBig12= 6.59D+00 1.69D+00.
 AX will form     9 AO Fock derivatives at one time.
      9 vectors produced by pass  1 Test12= 9.20D-15 1.11D-08 XBig12= 1.40D+00 5.04D-01.
      9 vectors produced by pass  2 Test12= 9.20D-15 1.11D-08 XBig12= 4.21D-02 8.66D-02.
      9 vectors produced by pass  3 Test12= 9.20D-15 1.11D-08 XBig12= 1.21D-03 1.38D-02.
      9 vectors produced by pass  4 Test12= 9.20D-15 1.11D-08 XBig12= 1.34D-05 1.22D-03.
      9 vectors produced by pass  5 Test12= 9.20D-15 1.11D-08 XBig12= 2.05D-07 1.75D-04.
      9 vectors produced by pass  6 Test12= 9.20D-15 1.11D-08 XBig12= 1.97D-09 1.24D-05.
      6 vectors produced by pass  7 Test12= 9.20D-15 1.11D-08 XBig12= 1.06D-11 1.03D-06.
      2 vectors produced by pass  8 Test12= 9.20D-15 1.11D-08 XBig12= 6.46D-14 5.88D-08.
 InvSVY:  IOpt=1 It=  1 EMax= 4.44D-16
 Solved reduced A of dimension    71 with     9 vectors.
 Isotropic polarizability for W=    0.000000       15.28 Bohr**3.
 End of Minotr F.D. properties file   721 does not exist.
 End of Minotr F.D. properties file   722 does not exist.
 End of Minotr F.D. properties file   788 does not exist.

 **********************************************************************

            Population analysis using the SCF density.

 **********************************************************************

 Orbital symmetries:
       Occupied  (B2) (A1) (A1) (A1) (B2) (A1) (B2) (B1) (A1) (A2)
                 (B2) (A1)
       Virtual   (B1) (A1) (B2) (A1) (B1) (B2) (A1) (B2) (A2) (A1)
                 (B1) (A1) (A1) (B2) (B2) (B1) (A1) (B2) (A1) (B1)
                 (A2) (A1) (A1) (B2) (A1) (A2) (A1) (B1) (B2) (B2)
                 (B2) (A1) (B1) (A2) (A1) (B2) (B2) (B1) (A2) (A1)
                 (B2) (A1) (B1) (A1) (B2) (B1) (A2) (A1) (A1) (B2)
                 (A2) (B1) (A1) (B2) (A1) (B2) (B1) (A1) (A2) (B2)
                 (A2) (B2) (B1) (A1) (A1) (B2) (A1) (B2) (A1)
 The electronic state is 1-A1.
 Alpha  occ. eigenvalues --  -24.89533 -24.89532 -10.49810  -1.45942  -1.38073
 Alpha  occ. eigenvalues --   -0.81771  -0.70945  -0.66186  -0.65593  -0.58161
 Alpha  occ. eigenvalues --   -0.55501  -0.40152
 Alpha virt. eigenvalues --   -0.01659   0.08706   0.10253   0.11479   0.11484
 Alpha virt. eigenvalues --    0.27103   0.28545   0.28906   0.31871   0.31960
 Alpha virt. eigenvalues --    0.32902   0.33282   0.37989   0.39653   0.47298
 Alpha virt. eigenvalues --    0.58681   0.58930   0.67981   0.81495   0.82281
 Alpha virt. eigenvalues --    0.83874   0.94983   1.13798   1.21580   1.28874
 Alpha virt. eigenvalues --    1.34794   1.36606   1.37162   1.39488   1.48469
 Alpha virt. eigenvalues --    1.85961   1.94135   2.02094   2.03702   2.06303
 Alpha virt. eigenvalues --    2.11117   2.28504   2.30578   2.31302   2.46058
 Alpha virt. eigenvalues --    2.70672   2.83457   2.86651   3.21511   3.29252
 Alpha virt. eigenvalues --    3.34395   3.35007   3.42978   3.64616   4.21776
 Alpha virt. eigenvalues --    6.32356   6.32939   6.33567   6.40179   6.54963
 Alpha virt. eigenvalues --    6.81642   9.05629   9.06402   9.08055   9.09100
 Alpha virt. eigenvalues --    9.25771   9.29520   9.30654   9.43922   9.65370
 Alpha virt. eigenvalues --    9.75938  23.93791  66.85439  66.87331
          Condensed to atoms (all electrons):
               1          2          3
     1  C    5.813898  -0.025739  -0.025739
     2  F   -0.025739   9.123484   0.021045
     3  F   -0.025739   0.021045   9.123484
 Mulliken charges:
               1
     1  C    0.237579
     2  F   -0.118789
     3  F   -0.118789
 Sum of Mulliken charges =  -0.00000
 Mulliken charges with hydrogens summed into heavy atoms:
               1
     1  C    0.237579
     2  F   -0.118789
     3  F   -0.118789
 APT charges:
               1
     1  C    0.907081
     2  F   -0.453540
     3  F   -0.453540
 Sum of APT charges =   0.00000
 APT charges with hydrogens summed into heavy atoms:
               1
     1  C    0.907081
     2  F   -0.453540
     3  F   -0.453540
 Electronic spatial extent (au):  <R**2>=            113.4534
 Charge=             -0.0000 electrons
 Dipole moment (field-independent basis, Debye):
    X=              0.0000    Y=             -0.0000    Z=             -0.6119  Tot=              0.6119
 Quadrupole moment (field-independent basis, Debye-Ang):
   XX=            -14.4789   YY=            -15.9189   ZZ=            -17.3676
   XY=             -0.0000   XZ=              0.0000   YZ=             -0.0000
 Traceless Quadrupole moment (field-independent basis, Debye-Ang):
   XX=              1.4430   YY=              0.0029   ZZ=             -1.4458
   XY=             -0.0000   XZ=              0.0000   YZ=             -0.0000
 Octapole moment (field-independent basis, Debye-Ang**2):
  XXX=             -0.0000  YYY=              0.0000  ZZZ=             -8.7984  XYY=             -0.0000
  XXY=              0.0000  XXZ=             -1.7479  XZZ=             -0.0000  YZZ=              0.0000
  YYZ=             -1.7244  XYZ=              0.0000
 Hexadecapole moment (field-independent basis, Debye-Ang**3):
 XXXX=            -11.4695 YYYY=            -71.6147 ZZZZ=            -35.3225 XXXY=             -0.0000
 XXXZ=              0.0000 YYYX=             -0.0000 YYYZ=             -0.0000 ZZZX=              0.0000
 ZZZY=              0.0000 XXYY=            -13.8065 XXZZ=             -7.1978 YYZZ=            -16.6137
 XXYZ=              0.0000 YYXZ=              0.0000 ZZXY=             -0.0000
 N-N= 6.490349571961D+01 E-N=-6.946647890963D+02  KE= 2.371505729849D+02
 Symmetry A1   KE= 1.295063431792D+02
 Symmetry A2   KE= 6.677425233816D+00
 Symmetry B1   KE= 5.328910695289D+00
 Symmetry B2   KE= 9.563789387660D+01
  Exact polarizability:  13.414   0.000  18.037  -0.000  -0.000  14.393
 Approx polarizability:  13.740   0.000  19.290  -0.000  -0.000  13.757
 Calling FoFJK, ICntrl=    100127 FMM=F ISym2X=1 I1Cent= 0 IOpClX= 0 NMat=1 NMatS=1 NMatT=0.
 Full mass-weighted force constant matrix:
 Low frequencies ---  -40.6779  -16.0133  -14.2089   -0.0017   -0.0009    0.0011
 Low frequencies ---  680.5486 1123.3738 1241.7362
 Diagonal vibrational polarizability:
        0.0000000       8.6305614       2.4557474
 Harmonic frequencies (cm**-1), IR intensities (KM/Mole), Raman scattering
 activities (A**4/AMU), depolarization ratios for plane and unpolarized
 incident light, reduced masses (AMU), force constants (mDyne/A),
 and normal coordinates:
                      1                      2                      3
                     A1                     B2                     A1
 Frequencies --    680.5486              1123.3738              1241.7362
 Red. masses --     17.7852                13.6896                13.8169
 Frc consts  --      4.8532                10.1786                12.5522
 IR Inten    --      3.2846               404.7198               129.7698
  Atom  AN      X      Y      Z        X      Y      Z        X      Y      Z
     1   6    -0.00   0.00   0.42     0.00   0.87   0.00    -0.00  -0.00   0.86
     2   9     0.00   0.63  -0.13     0.00  -0.28  -0.21     0.00  -0.24  -0.27
     3   9    -0.00  -0.63  -0.13    -0.00  -0.28   0.21     0.00   0.24  -0.27

 -------------------
 - Thermochemistry -
 -------------------
 Temperature   298.150 Kelvin.  Pressure   1.00000 Atm.
 Atom     1 has atomic number  6 and mass  12.00000
 Atom     2 has atomic number  9 and mass  18.99840
 Atom     3 has atomic number  9 and mass  18.99840
 Molecular mass:    49.99681 amu.
 Principal axes and moments of inertia in atomic units:
                           1         2         3
     Eigenvalues --    20.46744 143.20925 163.67670
           X            0.00000   0.00000   1.00000
           Y            1.00000   0.00000   0.00000
           Z           -0.00000   1.00000   0.00000
 This molecule is an asymmetric top.
 Rotational symmetry number  2.
 Rotational temperatures (Kelvin)      4.23179     0.60481     0.52918
 Rotational constants (GHZ):          88.17618    12.60213    11.02626
 Zero-point vibrational energy      18217.1 (Joules/Mol)
                                    4.35399 (Kcal/Mol)
 Vibrational temperatures:    979.16  1616.28  1786.58
          (Kelvin)
 
 Zero-point correction=                           0.006939 (Hartree/Particle)
 Thermal correction to Energy=                    0.009929
 Thermal correction to Enthalpy=                  0.010873
 Thermal correction to Gibbs Free Energy=        -0.016445
 Sum of electronic and zero-point Energies=           -237.701629
 Sum of electronic and thermal Energies=              -237.698639
 Sum of electronic and thermal Enthalpies=            -237.697695
 Sum of electronic and thermal Free Energies=         -237.725013
 
                     E (Thermal)             CV                S
                      KCal/Mol        Cal/Mol-Kelvin    Cal/Mol-Kelvin
 Total                    6.230              7.268             57.496
 Electronic               0.000              0.000              0.000
 Translational            0.889              2.981             37.652
 Rotational               0.889              2.981             19.423
 Vibrational              4.453              1.307              0.421
                       Q            Log10(Q)             Ln(Q)
 Total Bot       0.366688D+08          7.564297         17.417438
 Total V=0       0.569892D+11         10.755792         24.766127
 Vib (Bot)       0.673137D-03         -3.171897         -7.303562
 Vib (V=0)       0.104616D+01          0.019599          0.045128
 Electronic      0.100000D+01          0.000000          0.000000
 Translational   0.138953D+08          7.142867         16.447060
 Rotational      0.392036D+04          3.593326          8.273940
 ***** Axes restored to original set *****
 -------------------------------------------------------------------
 Center     Atomic                   Forces (Hartrees/Bohr)
 Number     Number              X              Y              Z
 -------------------------------------------------------------------
      1        6           0.000261086   -0.000000001    0.000126581
      2        9          -0.000130542    0.000224508   -0.000063289
      3        9          -0.000130544   -0.000224506   -0.000063292
 -------------------------------------------------------------------
 Cartesian Forces:  Max     0.000261086 RMS     0.000158846
 FormGI is forming the generalized inverse of G from B-inverse, IUseBI=4.

 GradGradGradGradGradGradGradGradGradGradGradGradGradGradGradGradGradGrad
 Berny optimization.
 Internal  Forces:  Max     0.000266371 RMS     0.000219770
 Search for a local minimum.
 Step number   1 out of a maximum of    2
 All quantities printed in internal units (Hartrees-Bohrs-Radians)
 Second derivative matrix not updated -- analytic derivatives used.
 The second derivative matrix:
                          R1        R2        A1
           R1           0.40440
           R2           0.10038   0.40440
           A1           0.08482   0.08482   0.55657
 ITU=  0
     Eigenvalues ---    0.30402   0.40796   0.65339
 Angle between quadratic step and forces=  13.21 degrees.
 Linear search not attempted -- first point.
 Iteration  1 RMS(Cart)=  0.00035941 RMS(Int)=  0.00000001
 Iteration  2 RMS(Cart)=  0.00000001 RMS(Int)=  0.00000000
 ClnCor:  largest displacement from symmetrization is 2.26D-15 for atom     1.
 Variable       Old X    -DE/DX   Delta X   Delta X   Delta X     New X
                                 (Linear)    (Quad)   (Total)
    R1        2.45220   0.00027   0.00000   0.00054   0.00054   2.45273
    R2        2.45220   0.00027   0.00000   0.00054   0.00054   2.45273
    A1        1.82715   0.00005   0.00000  -0.00007  -0.00007   1.82708
         Item               Value     Threshold  Converged?
 Maximum Force            0.000266     0.000450     YES
 RMS     Force            0.000220     0.000300     YES
 Maximum Displacement     0.000377     0.001800     YES
 RMS     Displacement     0.000359     0.001200     YES
 Predicted change in Energy=-1.417127D-07
 Optimization completed.
    -- Stationary point found.
                           ----------------------------
                           !   Optimized Parameters   !
                           ! (Angstroms and Degrees)  !
 --------------------------                            --------------------------
 ! Name  Definition              Value          Derivative Info.                !
 --------------------------------------------------------------------------------
 ! R1    R(1,2)                  1.2976         -DE/DX =    0.0003              !
 ! R2    R(1,3)                  1.2976         -DE/DX =    0.0003              !
 ! A1    A(2,1,3)              104.688          -DE/DX =    0.0001              !
 --------------------------------------------------------------------------------
 GradGradGradGradGradGradGradGradGradGradGradGradGradGradGradGradGradGrad


 ----------------------------------------------------------------------

 Electric dipole moment (input orientation):
 (Debye = 10**-18 statcoulomb cm , SI units = C m)
                  (au)            (Debye)         (10**-30 SI)
   Tot        0.240758D+00      0.611945D+00      0.204123D+01
   x         -0.216639D+00     -0.550642D+00     -0.183674D+01
   y          0.000000D+00      0.000000D+00      0.000000D+00
   z         -0.105032D+00     -0.266965D+00     -0.890499D+00

 Dipole polarizability, Alpha (input orientation).
 (esu units = cm**3 , SI units = C**2 m**2 J**-1)
 Alpha(0;0):
               (au)            (10**-24 esu)      (10**-40 SI)
   iso        0.152814D+02      0.226447D+01      0.251957D+01
   aniso      0.421905D+01      0.625198D+00      0.695627D+00
   xx         0.142070D+02      0.210527D+01      0.234242D+01
   yx         0.000000D+00      0.000000D+00      0.000000D+00
   yy         0.180367D+02      0.267277D+01      0.297385D+01
   zx         0.384403D+00      0.569626D-01      0.633794D-01
   zy         0.222366D-04      0.329512D-05      0.366631D-05
   zz         0.136005D+02      0.201539D+01      0.224242D+01

 ----------------------------------------------------------------------

 Dipole orientation:
     6         -1.80941131          0.00000601          3.02766724
     9         -1.80941210         -1.94138041          4.52576025
     9         -1.80941052          1.94139243          4.52576025

 Electric dipole moment (dipole orientation):
 (Debye = 10**-18 statcoulomb cm , SI units = C m)
                  (au)            (Debye)         (10**-30 SI)
   Tot        0.240758D+00      0.611945D+00      0.204123D+01
   x          0.000000D+00      0.000000D+00      0.000000D+00
   y          0.000000D+00      0.000000D+00      0.000000D+00
   z          0.240758D+00      0.611945D+00      0.204123D+01

 Dipole polarizability, Alpha (dipole orientation).
 (esu units = cm**3 , SI units = C**2 m**2 J**-1)
 Alpha(0;0):
               (au)            (10**-24 esu)      (10**-40 SI)
   iso        0.152814D+02      0.226447D+01      0.251957D+01
   aniso      0.421905D+01      0.625198D+00      0.695627D+00
   xx         0.134142D+02      0.198777D+01      0.221170D+01
   yx         0.000000D+00      0.000000D+00      0.000000D+00
   yy         0.180367D+02      0.267277D+01      0.297385D+01
   zx         0.000000D+00      0.000000D+00      0.000000D+00
   zy         0.000000D+00      0.000000D+00      0.000000D+00
   zz         0.143934D+02      0.213288D+01      0.237315D+01

 ----------------------------------------------------------------------
 1\1\GINC-CCLEARTI\Freq\RwB97XD\6-311+G(2d,2p)\C1F2\RAPPE\15-Jul-2024\0
 \\#N Geom=AllCheck Guess=TCheck SCRF=Check GenChk RwB97XD/6-311+G(2d,2
 p) Freq\\Title Card Required\\0,1\C,-1.8593858893,0.0000017285,0.16262
 11349\F,-2.5727231146,1.0273430628,-0.1832186753\F,-2.5727290575,-1.02
 73318388,-0.1832294894\\Version=EM64M-G16RevA.03\State=1-A1\HF=-237.70
 85678\RMSD=4.290e-10\RMSF=1.588e-04\ZeroPoint=0.0069385\Thermal=0.0099
 287\Dipole=-0.2166391,0.0000012,-0.1050321\DipoleDeriv=0.8456317,0.000
 0002,0.488035,0.0000002,1.799988,0.0000077,0.488035,0.0000077,0.075622
 5,-0.4228132,0.6806578,-0.2440136,0.2488835,-0.899999,0.1206612,-0.244
 0152,0.3299962,-0.0378089,-0.4228185,-0.680658,-0.2440214,-0.2488837,-
 0.8999889,-0.1206688,-0.2440198,-0.3300038,-0.0378136\Polar=14.2070333
 ,0.0000091,18.0367199,0.3844026,0.0000222,13.6005327\Quadrupole=-0.666
 1805,0.0021347,0.6640457,0.0000064,-0.8431028,-0.000001\PG=C02V [C2(C1
 ),SGV(F2)]\NImag=0\\0.38436897,-0.00000099,0.38102871,0.18662859,0.000
 00099,0.08991114,-0.19218374,0.13236514,-0.09331342,0.14197421,0.12338
 210,-0.19051575,0.05981800,-0.12787297,0.32143710,-0.09331346,0.064173
 20,-0.04495492,0.06893657,-0.06199478,0.03320659,-0.19218522,-0.132364
 15,-0.09331516,0.05020953,0.00449087,0.02437689,0.14197569,-0.12338111
 ,-0.19051296,-0.05981899,-0.00449217,-0.13092136,-0.00217842,0.1278732
 8,0.32143432,-0.09331513,-0.06417420,-0.04495622,0.02437685,0.00217678
 ,0.01174833,0.06893828,0.06199742,0.03320790\\-0.00026109,0.,-0.000126
 58,0.00013054,-0.00022451,0.00006329,0.00013054,0.00022451,0.00006329\
 \\@


 NO SCIENCE HAS EVER MADE MORE RAPID PROGRESS IN A
 SHORTER TIME THAN CHEMISTRY.
   -- MARTIN HEINRICH KLOPROTH, 1791
 (FIRST PROFESSOR OF CHEMISTRY AT THE UNIVERSITY OF BERLIN)
 Job cpu time:       0 days  0 hours  2 minutes 45.6 seconds.
 Elapsed time:       0 days  0 hours  0 minutes  7.2 seconds.
 File lengths (MBytes):  RWF=      6 Int=      0 D2E=      0 Chk=      2 Scr=      1
 Normal termination of Gaussian 16 at Mon Jul 15 13:22:33 2024.
