 Entering Gaussian System, Link 0=/applications/g16/g16/g16
 Initial command:
 /applications/g16/g16/l1.exe "/scratch/g98/Gau-11289.inp" -scrdir="/scratch/g98/"
 Entering Link 1 = /applications/g16/g16/l1.exe PID=     11290.
  
 Copyright (c) 1988,1990,1992,1993,1995,1998,2003,2009,2016,
            Gaussian, Inc.  All Rights Reserved.
  
 This is part of the Gaussian(R) 16 program.  It is based on
 the Gaussian(R) 09 system (copyright 2009, Gaussian, Inc.),
 the Gaussian(R) 03 system (copyright 2003, Gaussian, Inc.),
 the Gaussian(R) 98 system (copyright 1998, Gaussian, Inc.),
 the Gaussian(R) 94 system (copyright 1995, Gaussian, Inc.),
 the Gaussian 92(TM) system (copyright 1992, Gaussian, Inc.),
 the Gaussian 90(TM) system (copyright 1990, Gaussian, Inc.),
 the Gaussian 88(TM) system (copyright 1988, Gaussian, Inc.),
 the Gaussian 86(TM) system (copyright 1986, Carnegie Mellon
 University), and the Gaussian 82(TM) system (copyright 1983,
 Carnegie Mellon University). Gaussian is a federally registered
 trademark of Gaussian, Inc.
  
 This software contains proprietary and confidential information,
 including trade secrets, belonging to Gaussian, Inc.
  
 This software is provided under written license and may be
 used, copied, transmitted, or stored only in accord with that
 written license.
  
 The following legend is applicable only to US Government
 contracts under FAR:
  
                    RESTRICTED RIGHTS LEGEND
  
 Use, reproduction and disclosure by the US Government is
 subject to restrictions as set forth in subparagraphs (a)
 and (c) of the Commercial Computer Software - Restricted
 Rights clause in FAR 52.227-19.
  
 Gaussian, Inc.
 340 Quinnipiac St., Bldg. 40, Wallingford CT 06492
  
  
 ---------------------------------------------------------------
 Warning -- This program may not be used in any manner that
 competes with the business of Gaussian, Inc. or will provide
 assistance to any competitor of Gaussian, Inc.  The licensee
 of this program is prohibited from giving any competitor of
 Gaussian, Inc. access to this program.  By using this program,
 the user acknowledges that Gaussian, Inc. is engaged in the
 business of creating and licensing software in the field of
 computational chemistry and represents and warrants to the
 licensee that it is not a competitor of Gaussian, Inc. and that
 it will not use this program in any manner prohibited above.
 ---------------------------------------------------------------
  

 Cite this work as:
 Gaussian 16, Revision A.03,
 M. J. Frisch, G. W. Trucks, H. B. Schlegel, G. E. Scuseria, 
 M. A. Robb, J. R. Cheeseman, G. Scalmani, V. Barone, 
 G. A. Petersson, H. Nakatsuji, X. Li, M. Caricato, A. V. Marenich, 
 J. Bloino, B. G. Janesko, R. Gomperts, B. Mennucci, H. P. Hratchian, 
 J. V. Ortiz, A. F. Izmaylov, J. L. Sonnenberg, D. Williams-Young, 
 F. Ding, F. Lipparini, F. Egidi, J. Goings, B. Peng, A. Petrone, 
 T. Henderson, D. Ranasinghe, V. G. Zakrzewski, J. Gao, N. Rega, 
 G. Zheng, W. Liang, M. Hada, M. Ehara, K. Toyota, R. Fukuda, 
 J. Hasegawa, M. Ishida, T. Nakajima, Y. Honda, O. Kitao, H. Nakai, 
 T. Vreven, K. Throssell, J. A. Montgomery, Jr., J. E. Peralta, 
 F. Ogliaro, M. J. Bearpark, J. J. Heyd, E. N. Brothers, K. N. Kudin, 
 V. N. Staroverov, T. A. Keith, R. Kobayashi, J. Normand, 
 K. Raghavachari, A. P. Rendell, J. C. Burant, S. S. Iyengar, 
 J. Tomasi, M. Cossi, J. M. Millam, M. Klene, C. Adamo, R. Cammi, 
 J. W. Ochterski, R. L. Martin, K. Morokuma, O. Farkas, 
 J. B. Foresman, and D. J. Fox, Gaussian, Inc., Wallingford CT, 2016.
 
 ******************************************
 Gaussian 16:  EM64M-G16RevA.03 25-Dec-2016
                30-Nov-2021 
 ******************************************
 %mem=24GB
 %nprocshared=8
 Will use up to    8 processors via shared memory.
 %chk=hexane.chk
 ------------------------------------------
 # opt wb97xd/6-311+g(2d) geom=connectivity
 ------------------------------------------
 1/18=20,19=15,26=3,38=1,57=2/1,3;
 2/9=110,12=2,17=6,18=5,40=1/2;
 3/5=4,6=6,7=12,11=2,25=1,30=1,71=1,74=-58/1,2,3;
 4//1;
 5/5=2,38=5/2;
 6/7=2,8=2,9=2,10=2,28=1/1;
 7//1,2,3,16;
 1/18=20,19=15,26=3/3(2);
 2/9=110/2;
 99//99;
 2/9=110/2;
 3/5=4,6=6,7=12,11=2,25=1,30=1,71=1,74=-58/1,2,3;
 4/5=5,16=3,69=1/1;
 5/5=2,38=5/2;
 7//1,2,3,16;
 1/18=20,19=15,26=3/3(-5);
 2/9=110/2;
 6/7=2,8=2,9=2,10=2,19=2,28=1/1;
 99/9=1/99;
 -------------------
 Title Card Required
 -------------------
 Symbolic Z-matrix:
 Charge =  0 Multiplicity = 1
 C                     1.99601  -0.11754   0.07507 
 F                     2.1549   -0.59194   1.30162 
 F                     2.17506  -1.09994  -0.79902 
 C                     0.58363   0.51529  -0.09411 
 F                     0.41036   1.38933   0.90723 
 F                     0.56752   1.17605  -1.25707 
 C                    -0.58363  -0.51528  -0.09412 
 F                    -0.41034  -1.38933   0.90721 
 F                    -0.56752  -1.17601  -1.25708 
 C                    -1.99602   0.11754   0.07507 
 F                    -2.17503   1.10002  -0.79892 
 F                    -2.15496   0.5918    1.30167 
 C                    -3.05604  -0.97127  -0.17484 
 C                     3.05605   0.97129  -0.17469 
 F                    -4.26029  -0.48293   0.08387 
 F                    -2.9997   -1.36039  -1.44016 
 F                    -2.82015  -2.0073    0.61676 
 F                     2.82001   2.00733   0.61685 
 F                     4.26027   0.48298   0.08423 
 F                     2.99992   1.36037  -1.44003 
 

 GradGradGradGradGradGradGradGradGradGradGradGradGradGradGradGradGradGrad
 Berny optimization.
 Initialization pass.
                           ----------------------------
                           !    Initial Parameters    !
                           ! (Angstroms and Degrees)  !
 --------------------------                            --------------------------
 ! Name  Definition              Value          Derivative Info.                !
 --------------------------------------------------------------------------------
 ! R1    R(1,2)                  1.3247         estimate D2E/DX2                !
 ! R2    R(1,3)                  1.3271         estimate D2E/DX2                !
 ! R3    R(1,4)                  1.5569         estimate D2E/DX2                !
 ! R4    R(1,14)                 1.54           estimate D2E/DX2                !
 ! R5    R(4,5)                  1.3404         estimate D2E/DX2                !
 ! R6    R(4,6)                  1.3377         estimate D2E/DX2                !
 ! R7    R(4,7)                  1.5571         estimate D2E/DX2                !
 ! R8    R(7,8)                  1.3404         estimate D2E/DX2                !
 ! R9    R(7,9)                  1.3376         estimate D2E/DX2                !
 ! R10   R(7,10)                 1.5569         estimate D2E/DX2                !
 ! R11   R(10,11)                1.3271         estimate D2E/DX2                !
 ! R12   R(10,12)                1.3247         estimate D2E/DX2                !
 ! R13   R(10,13)                1.54           estimate D2E/DX2                !
 ! R14   R(13,15)                1.325          estimate D2E/DX2                !
 ! R15   R(13,16)                1.325          estimate D2E/DX2                !
 ! R16   R(13,17)                1.325          estimate D2E/DX2                !
 ! R17   R(14,18)                1.325          estimate D2E/DX2                !
 ! R18   R(14,19)                1.325          estimate D2E/DX2                !
 ! R19   R(14,20)                1.325          estimate D2E/DX2                !
 ! A1    A(2,1,3)              109.182          estimate D2E/DX2                !
 ! A2    A(2,1,4)              110.7934         estimate D2E/DX2                !
 ! A3    A(2,1,14)             108.7119         estimate D2E/DX2                !
 ! A4    A(3,1,4)              110.5925         estimate D2E/DX2                !
 ! A5    A(3,1,14)             108.8868         estimate D2E/DX2                !
 ! A6    A(4,1,14)             108.6288         estimate D2E/DX2                !
 ! A7    A(1,4,5)              107.5263         estimate D2E/DX2                !
 ! A8    A(1,4,6)              107.8291         estimate D2E/DX2                !
 ! A9    A(1,4,7)              114.2695         estimate D2E/DX2                !
 ! A10   A(5,4,6)              109.0158         estimate D2E/DX2                !
 ! A11   A(5,4,7)              109.5528         estimate D2E/DX2                !
 ! A12   A(6,4,7)              108.5359         estimate D2E/DX2                !
 ! A13   A(4,7,8)              109.5524         estimate D2E/DX2                !
 ! A14   A(4,7,9)              108.536          estimate D2E/DX2                !
 ! A15   A(4,7,10)             114.27           estimate D2E/DX2                !
 ! A16   A(8,7,9)              109.0159         estimate D2E/DX2                !
 ! A17   A(8,7,10)             107.5264         estimate D2E/DX2                !
 ! A18   A(9,7,10)             107.8288         estimate D2E/DX2                !
 ! A19   A(7,10,11)            110.5925         estimate D2E/DX2                !
 ! A20   A(7,10,12)            110.7935         estimate D2E/DX2                !
 ! A21   A(7,10,13)            108.6283         estimate D2E/DX2                !
 ! A22   A(11,10,12)           109.1823         estimate D2E/DX2                !
 ! A23   A(11,10,13)           108.8871         estimate D2E/DX2                !
 ! A24   A(12,10,13)           108.7115         estimate D2E/DX2                !
 ! A25   A(10,13,15)           109.4712         estimate D2E/DX2                !
 ! A26   A(10,13,16)           109.4712         estimate D2E/DX2                !
 ! A27   A(10,13,17)           109.4712         estimate D2E/DX2                !
 ! A28   A(15,13,16)           109.4713         estimate D2E/DX2                !
 ! A29   A(15,13,17)           109.4712         estimate D2E/DX2                !
 ! A30   A(16,13,17)           109.4712         estimate D2E/DX2                !
 ! A31   A(1,14,18)            109.4712         estimate D2E/DX2                !
 ! A32   A(1,14,19)            109.4712         estimate D2E/DX2                !
 ! A33   A(1,14,20)            109.4712         estimate D2E/DX2                !
 ! A34   A(18,14,19)           109.4712         estimate D2E/DX2                !
 ! A35   A(18,14,20)           109.4712         estimate D2E/DX2                !
 ! A36   A(19,14,20)           109.4713         estimate D2E/DX2                !
 ! D1    D(2,1,4,5)             51.9386         estimate D2E/DX2                !
 ! D2    D(2,1,4,6)            169.3579         estimate D2E/DX2                !
 ! D3    D(2,1,4,7)            -69.8901         estimate D2E/DX2                !
 ! D4    D(3,1,4,5)            173.1452         estimate D2E/DX2                !
 ! D5    D(3,1,4,6)            -69.4355         estimate D2E/DX2                !
 ! D6    D(3,1,4,7)             51.3165         estimate D2E/DX2                !
 ! D7    D(14,1,4,5)           -67.4112         estimate D2E/DX2                !
 ! D8    D(14,1,4,6)            50.0081         estimate D2E/DX2                !
 ! D9    D(14,1,4,7)           170.7601         estimate D2E/DX2                !
 ! D10   D(2,1,14,18)          -66.3175         estimate D2E/DX2                !
 ! D11   D(2,1,14,19)           53.6825         estimate D2E/DX2                !
 ! D12   D(2,1,14,20)          173.6825         estimate D2E/DX2                !
 ! D13   D(3,1,14,18)          174.832          estimate D2E/DX2                !
 ! D14   D(3,1,14,19)          -65.168          estimate D2E/DX2                !
 ! D15   D(3,1,14,20)           54.832          estimate D2E/DX2                !
 ! D16   D(4,1,14,18)           54.3271         estimate D2E/DX2                !
 ! D17   D(4,1,14,19)          174.3271         estimate D2E/DX2                !
 ! D18   D(4,1,14,20)          -65.6729         estimate D2E/DX2                !
 ! D19   D(1,4,7,8)             45.5982         estimate D2E/DX2                !
 ! D20   D(1,4,7,9)            -73.3334         estimate D2E/DX2                !
 ! D21   D(1,4,7,10)           166.3078         estimate D2E/DX2                !
 ! D22   D(5,4,7,8)            -75.1113         estimate D2E/DX2                !
 ! D23   D(5,4,7,9)            165.9571         estimate D2E/DX2                !
 ! D24   D(5,4,7,10)            45.5983         estimate D2E/DX2                !
 ! D25   D(6,4,7,8)            165.957          estimate D2E/DX2                !
 ! D26   D(6,4,7,9)             47.0253         estimate D2E/DX2                !
 ! D27   D(6,4,7,10)           -73.3334         estimate D2E/DX2                !
 ! D28   D(4,7,10,11)           51.3112         estimate D2E/DX2                !
 ! D29   D(4,7,10,12)          -69.8959         estimate D2E/DX2                !
 ! D30   D(4,7,10,13)          170.755          estimate D2E/DX2                !
 ! D31   D(8,7,10,11)          173.1398         estimate D2E/DX2                !
 ! D32   D(8,7,10,12)           51.9326         estimate D2E/DX2                !
 ! D33   D(8,7,10,13)          -67.4165         estimate D2E/DX2                !
 ! D34   D(9,7,10,11)          -69.4409         estimate D2E/DX2                !
 ! D35   D(9,7,10,12)          169.3519         estimate D2E/DX2                !
 ! D36   D(9,7,10,13)           50.0028         estimate D2E/DX2                !
 ! D37   D(7,10,13,15)         174.3375         estimate D2E/DX2                !
 ! D38   D(7,10,13,16)         -65.6625         estimate D2E/DX2                !
 ! D39   D(7,10,13,17)          54.3375         estimate D2E/DX2                !
 ! D40   D(11,10,13,15)        -65.1577         estimate D2E/DX2                !
 ! D41   D(11,10,13,16)         54.8423         estimate D2E/DX2                !
 ! D42   D(11,10,13,17)        174.8423         estimate D2E/DX2                !
 ! D43   D(12,10,13,15)         53.6932         estimate D2E/DX2                !
 ! D44   D(12,10,13,16)        173.6932         estimate D2E/DX2                !
 ! D45   D(12,10,13,17)        -66.3068         estimate D2E/DX2                !
 --------------------------------------------------------------------------------
 Trust Radius=3.00D-01 FncErr=1.00D-07 GrdErr=1.00D-06 EigMax=2.50D+02 EigMin=1.00D-04
 Number of steps in this run=    110 maximum allowed number of steps=    120.
 GradGradGradGradGradGradGradGradGradGradGradGradGradGradGradGradGradGrad

                          Input orientation:                          
 ---------------------------------------------------------------------
 Center     Atomic      Atomic             Coordinates (Angstroms)
 Number     Number       Type             X           Y           Z
 ---------------------------------------------------------------------
      1          6           0        1.996013   -0.117538    0.075067
      2          9           0        2.154904   -0.591938    1.301621
      3          9           0        2.175063   -1.099935   -0.799016
      4          6           0        0.583631    0.515294   -0.094112
      5          9           0        0.410356    1.389331    0.907232
      6          9           0        0.567523    1.176045   -1.257065
      7          6           0       -0.583628   -0.515281   -0.094121
      8          9           0       -0.410344   -1.389333    0.907209
      9          9           0       -0.567521   -1.176011   -1.257084
     10          6           0       -1.996016    0.117535    0.075068
     11          9           0       -2.175032    1.100021   -0.798922
     12          9           0       -2.154961    0.591801    1.301667
     13          6           0       -3.056037   -0.971273   -0.174838
     14          6           0        3.056052    0.971287   -0.174688
     15          9           0       -4.260287   -0.482930    0.083871
     16          9           0       -2.999705   -1.360385   -1.440161
     17          9           0       -2.820151   -2.007301    0.616761
     18          9           0        2.820010    2.007330    0.616846
     19          9           0        4.260269    0.482978    0.084235
     20          9           0        2.999922    1.360368   -1.440030
 ---------------------------------------------------------------------
                    Distance matrix (angstroms):
                    1          2          3          4          5
     1  C    0.000000
     2  F    1.324665   0.000000
     3  F    1.327096   2.161283   0.000000
     4  C    1.556895   2.375486   2.374555   0.000000
     5  F    2.340398   2.669160   3.495986   1.340393   0.000000
     6  F    2.342758   3.491764   2.823841   1.337651   2.180453
     7  C    2.615602   3.074659   2.906729   1.557106   2.370287
     8  F    2.846134   2.715124   3.111155   2.370281   2.897330
     9  F    3.076800   3.781496   2.781615   2.353331   3.495924
    10  C    3.998944   4.386105   4.432173   2.615609   2.846153
    11  F    4.432147   5.101309   4.874744   2.906696   3.111092
    12  F    4.386148   4.469471   5.101367   3.074726   2.715232
    13  C    5.129769   5.429340   5.269778   3.932376   4.331190
    14  C    1.540000   2.331358   2.335784   2.515410   2.888774
    15  F    6.266967   6.530656   6.524868   4.948906   5.098842
    16  F    5.366356   5.888792   5.220835   4.262665   4.969880
    17  F    5.201930   5.217611   5.270664   4.295877   4.696559
    18  F    2.342554   2.769021   3.475013   2.780832   2.504532
    19  F    2.342554   2.658954   2.762938   3.681103   4.039880
    20  F    2.342554   3.470188   2.672897   2.892077   3.495187
                    6          7          8          9         10
     6  F    0.000000
     7  C    2.353332   0.000000
     8  F    3.495922   1.340394   0.000000
     9  F    2.611607   1.337650   2.180453   0.000000
    10  C    3.076809   1.556895   2.340399   2.342752   0.000000
    11  F    2.781597   2.374555   3.495982   2.823885   1.327096
    12  F    3.781583   2.375488   2.669115   3.491752   1.324665
    13  C    4.348836   2.515403   2.888822   2.721376   1.540000
    14  C    2.721441   3.932384   4.331158   4.348879   5.129782
    15  F    5.278073   3.681107   4.039989   3.989366   2.342554
    16  F    4.380880   2.891963   3.495107   2.446023   2.342554
    17  F    5.012111   2.780920   2.504679   3.045764   2.342554
    18  F    3.045698   4.295788   4.696469   5.012050   5.201823
    19  F    3.989461   4.948906   5.098770   5.278156   6.266955
    20  F    2.446225   4.262788   4.969940   4.381020   5.366521
                   11         12         13         14         15
    11  F    0.000000
    12  F    2.161288   0.000000
    13  C    2.335789   2.331352   0.000000
    14  C    5.269770   5.429391   6.413359   0.000000
    15  F    2.762851   2.659035   1.325000   7.463940   0.000000
    16  F    2.672989   3.470193   1.325000   6.611377   2.163716
    17  F    3.475023   2.768918   1.325000   6.635371   2.163716
    18  F    5.270489   5.217571   6.635267   1.325000   7.524365
    19  F    6.524860   6.530632   7.463933   1.325000   8.575129
    20  F    5.221010   5.889008   6.611498   1.325000   7.643995
                   16         17         18         19         20
    16  F    0.000000
    17  F    2.163716   0.000000
    18  F    7.031491   6.923055   0.000000
    19  F    7.643885   7.524455   2.163716   0.000000
    20  F    6.587717   7.031702   2.163716   2.163716   0.000000
 Stoichiometry    C6F14
 Framework group  C1[X(C6F14)]
 Deg. of freedom    54
 Full point group                 C1      NOp   1
 Largest Abelian subgroup         C1      NOp   1
 Largest concise Abelian subgroup C1      NOp   1
                         Standard orientation:                         
 ---------------------------------------------------------------------
 Center     Atomic      Atomic             Coordinates (Angstroms)
 Number     Number       Type             X           Y           Z
 ---------------------------------------------------------------------
      1          6           0       -1.906598   -0.602291   -0.154581
      2          9           0       -1.944600   -1.101147   -1.381135
      3          9           0       -1.839865   -1.598639    0.719502
      4          6           0       -0.691958    0.356848    0.014598
      5          9           0       -0.737780    1.246716   -0.986746
      6          9           0       -0.837991    1.001461    1.177551
      7          6           0        0.691959   -0.356841    0.014607
      8          9           0        0.737777   -1.246726   -0.986723
      9          9           0        0.837988   -1.001433    1.177570
     10          6           0        1.906610    0.602284   -0.154582
     11          9           0        1.839822    1.598710    0.719408
     12          9           0        1.944696    1.101023   -1.381181
     13          6           0        3.200794   -0.194104    0.095324
     14          6           0       -3.200804    0.194110    0.095174
     15          9           0        4.248976    0.574016   -0.163385
     16          9           0        3.241369   -0.585174    1.360647
     17          9           0        3.225539   -1.256359   -0.696275
     18          9           0       -3.225402    1.256416   -0.696360
     19          9           0       -4.248963   -0.573970   -0.163749
     20          9           0       -3.241568    0.585099    1.360516
 ---------------------------------------------------------------------
 Rotational constants (GHZ):           0.8272355           0.2090737           0.2035080
 Standard basis: 6-311+G(2d) (5D, 7F)
 There are   580 symmetry adapted cartesian basis functions of A   symmetry.
 There are   540 symmetry adapted basis functions of A   symmetry.
   540 basis functions,   840 primitive gaussians,   580 cartesian basis functions
    81 alpha electrons       81 beta electrons
       nuclear repulsion energy      2126.4977974177 Hartrees.
 NAtoms=   20 NActive=   20 NUniq=   20 SFac= 1.00D+00 NAtFMM=   60 NAOKFM=F Big=F
 Integral buffers will be    131072 words long.
 Raffenetti 2 integral format.
 Two-electron integral symmetry is turned on.
 Nuclear repulsion after empirical dispersion term =     2126.4836795590 Hartrees.
 One-electron integrals computed using PRISM.
 NBasis=   540 RedAO= T EigKep=  3.58D-06  NBF=   540
 NBsUse=   540 1.00D-06 EigRej= -1.00D+00 NBFU=   540
 ExpMin= 4.38D-02 ExpMax= 1.14D+04 ExpMxC= 1.72D+03 IAcc=3 IRadAn=         5 AccDes= 0.00D+00
 Harris functional with IExCor= 4639 and IRadAn=       5 diagonalized for initial guess.
 HarFok:  IExCor= 4639 AccDes= 0.00D+00 IRadAn=         5 IDoV= 1 UseB2=F ITyADJ=14
 ICtDFT=  3500011 ScaDFX=  1.000000  1.000000  1.000000  1.000000
 FoFCou: FMM=F IPFlag=           0 FMFlag=      100000 FMFlg1=           0
         NFxFlg=           0 DoJE=T BraDBF=F KetDBF=T FulRan=T
         wScrn=  0.000000 ICntrl=       500 IOpCl=  0 I1Cent=   200000004 NGrid=           0
         NMat0=    1 NMatS0=      1 NMatT0=    0 NMatD0=    1 NMtDS0=    0 NMtDT0=    0
 Petite list used in FoFCou.
 Requested convergence on RMS density matrix=1.00D-08 within 128 cycles.
 Requested convergence on MAX density matrix=1.00D-06.
 Requested convergence on             energy=1.00D-06.
 No special actions if energy rises.
 SCF Done:  E(RwB97XD) =  -1626.49579192     A.U. after   14 cycles
            NFock= 14  Conv=0.22D-08     -V/T= 2.0024

 **********************************************************************

            Population analysis using the SCF density.

 **********************************************************************

 Orbital symmetries:
       Occupied  (A) (A) (A) (A) (A) (A) (A) (A) (A) (A) (A) (A)
                 (A) (A) (A) (A) (A) (A) (A) (A) (A) (A) (A) (A)
                 (A) (A) (A) (A) (A) (A) (A) (A) (A) (A) (A) (A)
                 (A) (A) (A) (A) (A) (A) (A) (A) (A) (A) (A) (A)
                 (A) (A) (A) (A) (A) (A) (A) (A) (A) (A) (A) (A)
                 (A) (A) (A) (A) (A) (A) (A) (A) (A) (A) (A) (A)
                 (A) (A) (A) (A) (A) (A) (A) (A) (A)
       Virtual   (A) (A) (A) (A) (A) (A) (A) (A) (A) (A) (A) (A)
                 (A) (A) (A) (A) (A) (A) (A) (A) (A) (A) (A) (A)
                 (A) (A) (A) (A) (A) (A) (A) (A) (A) (A) (A) (A)
                 (A) (A) (A) (A) (A) (A) (A) (A) (A) (A) (A) (A)
                 (A) (A) (A) (A) (A) (A) (A) (A) (A) (A) (A) (A)
                 (A) (A) (A) (A) (A) (A) (A) (A) (A) (A) (A) (A)
                 (A) (A) (A) (A) (A) (A) (A) (A) (A) (A) (A) (A)
                 (A) (A) (A) (A) (A) (A) (A) (A) (A) (A) (A) (A)
                 (A) (A) (A) (A) (A) (A) (A) (A) (A) (A) (A) (A)
                 (A) (A) (A) (A) (A) (A) (A) (A) (A) (A) (A) (A)
                 (A) (A) (A) (A) (A) (A) (A) (A) (A) (A) (A) (A)
                 (A) (A) (A) (A) (A) (A) (A) (A) (A) (A) (A) (A)
                 (A) (A) (A) (A) (A) (A) (A) (A) (A) (A) (A) (A)
                 (A) (A) (A) (A) (A) (A) (A) (A) (A) (A) (A) (A)
                 (A) (A) (A) (A) (A) (A) (A) (A) (A) (A) (A) (A)
                 (A) (A) (A) (A) (A) (A) (A) (A) (A) (A) (A) (A)
                 (A) (A) (A) (A) (A) (A) (A) (A) (A) (A) (A) (A)
                 (A) (A) (A) (A) (A) (A) (A) (A) (A) (A) (A) (A)
                 (A) (A) (A) (A) (A) (A) (A) (A) (A) (A) (A) (A)
                 (A) (A) (A) (A) (A) (A) (A) (A) (A) (A) (A) (A)
                 (A) (A) (A) (A) (A) (A) (A) (A) (A) (A) (A) (A)
                 (A) (A) (A) (A) (A) (A) (A) (A) (A) (A) (A) (A)
                 (A) (A) (A) (A) (A) (A) (A) (A) (A) (A) (A) (A)
                 (A) (A) (A) (A) (A) (A) (A) (A) (A) (A) (A) (A)
                 (A) (A) (A) (A) (A) (A) (A) (A) (A) (A) (A) (A)
                 (A) (A) (A) (A) (A) (A) (A) (A) (A) (A) (A) (A)
                 (A) (A) (A) (A) (A) (A) (A) (A) (A) (A) (A) (A)
                 (A) (A) (A) (A) (A) (A) (A) (A) (A) (A) (A) (A)
                 (A) (A) (A) (A) (A) (A) (A) (A) (A) (A) (A) (A)
                 (A) (A) (A) (A) (A) (A) (A) (A) (A) (A) (A) (A)
                 (A) (A) (A) (A) (A) (A) (A) (A) (A) (A) (A) (A)
                 (A) (A) (A) (A) (A) (A) (A) (A) (A) (A) (A) (A)
                 (A) (A) (A) (A) (A) (A) (A) (A) (A) (A) (A) (A)
                 (A) (A) (A) (A) (A) (A) (A) (A) (A) (A) (A) (A)
                 (A) (A) (A) (A) (A) (A) (A) (A) (A) (A) (A) (A)
                 (A) (A) (A) (A) (A) (A) (A) (A) (A) (A) (A) (A)
                 (A) (A) (A) (A) (A) (A) (A) (A) (A) (A) (A) (A)
                 (A) (A) (A) (A) (A) (A) (A) (A) (A) (A) (A) (A)
                 (A) (A) (A)
 The electronic state is 1-A.
 Alpha  occ. eigenvalues --  -24.88441 -24.88441 -24.88314 -24.88314 -24.88284
 Alpha  occ. eigenvalues --  -24.88284 -24.88275 -24.88275 -24.88235 -24.88235
 Alpha  occ. eigenvalues --  -24.88200 -24.88200 -24.88010 -24.88010 -10.58342
 Alpha  occ. eigenvalues --  -10.58342 -10.53305 -10.53287 -10.52867 -10.52866
 Alpha  occ. eigenvalues --   -1.47983  -1.47818  -1.45377  -1.44234  -1.43495
 Alpha  occ. eigenvalues --   -1.43142  -1.39239  -1.38802  -1.38044  -1.38042
 Alpha  occ. eigenvalues --   -1.37725  -1.37469  -1.37342  -1.37023  -0.96697
 Alpha  occ. eigenvalues --   -0.94832  -0.90594  -0.85069  -0.81516  -0.79969
 Alpha  occ. eigenvalues --   -0.76703  -0.76346  -0.75143  -0.75075  -0.74581
 Alpha  occ. eigenvalues --   -0.74512  -0.72839  -0.72541  -0.72087  -0.71338
 Alpha  occ. eigenvalues --   -0.70684  -0.70001  -0.68855  -0.62871  -0.62093
 Alpha  occ. eigenvalues --   -0.61773  -0.61682  -0.61088  -0.60672  -0.60451
 Alpha  occ. eigenvalues --   -0.60162  -0.59721  -0.59388  -0.58798  -0.58705
 Alpha  occ. eigenvalues --   -0.57784  -0.57150  -0.56438  -0.56268  -0.55874
 Alpha  occ. eigenvalues --   -0.55362  -0.55100  -0.55011  -0.54615  -0.54595
 Alpha  occ. eigenvalues --   -0.54009  -0.53947  -0.53702  -0.52311  -0.48522
 Alpha  occ. eigenvalues --   -0.44002
 Alpha virt. eigenvalues --    0.05908   0.06792   0.07456   0.08196   0.09520
 Alpha virt. eigenvalues --    0.10107   0.10142   0.10456   0.11699   0.12309
 Alpha virt. eigenvalues --    0.12954   0.13165   0.13289   0.13942   0.14410
 Alpha virt. eigenvalues --    0.15494   0.16182   0.16233   0.16839   0.18084
 Alpha virt. eigenvalues --    0.18372   0.18902   0.20289   0.20478   0.20761
 Alpha virt. eigenvalues --    0.22070   0.23089   0.23813   0.24620   0.24653
 Alpha virt. eigenvalues --    0.25071   0.25807   0.26616   0.26910   0.28285
 Alpha virt. eigenvalues --    0.29501   0.30100   0.30399   0.31082   0.31112
 Alpha virt. eigenvalues --    0.31410   0.31700   0.31937   0.31976   0.32464
 Alpha virt. eigenvalues --    0.33194   0.33572   0.33671   0.34505   0.35128
 Alpha virt. eigenvalues --    0.35648   0.36481   0.37021   0.37835   0.37995
 Alpha virt. eigenvalues --    0.38339   0.39291   0.39621   0.39738   0.40584
 Alpha virt. eigenvalues --    0.41380   0.41891   0.41971   0.42471   0.42603
 Alpha virt. eigenvalues --    0.42924   0.43390   0.44315   0.44414   0.45433
 Alpha virt. eigenvalues --    0.45464   0.45669   0.46360   0.46605   0.47016
 Alpha virt. eigenvalues --    0.47656   0.48046   0.48761   0.49056   0.49702
 Alpha virt. eigenvalues --    0.50964   0.51800   0.52099   0.52491   0.53284
 Alpha virt. eigenvalues --    0.53348   0.53927   0.54260   0.55676   0.57254
 Alpha virt. eigenvalues --    0.57405   0.58877   0.59296   0.61864   0.62486
 Alpha virt. eigenvalues --    0.63543   0.65596   0.67223   0.67788   0.68210
 Alpha virt. eigenvalues --    0.68582   0.70188   0.72469   0.72898   0.73418
 Alpha virt. eigenvalues --    0.73849   0.75259   0.75794   0.76552   0.78713
 Alpha virt. eigenvalues --    0.79317   0.80024   0.82084   0.82468   0.84241
 Alpha virt. eigenvalues --    0.85367   0.86684   0.87041   0.90370   0.92180
 Alpha virt. eigenvalues --    1.00344   1.00527   1.01699   1.03086   1.06468
 Alpha virt. eigenvalues --    1.08202   1.08840   1.09267   1.12445   1.13577
 Alpha virt. eigenvalues --    1.14415   1.14672   1.15800   1.17511   1.20337
 Alpha virt. eigenvalues --    1.20931   1.26065   1.28163   1.30539   1.31434
 Alpha virt. eigenvalues --    1.33411   1.33558   1.34505   1.35263   1.36633
 Alpha virt. eigenvalues --    1.37319   1.38378   1.39215   1.39247   1.40987
 Alpha virt. eigenvalues --    1.41331   1.41385   1.41897   1.42219   1.44115
 Alpha virt. eigenvalues --    1.44509   1.44905   1.45247   1.45649   1.46020
 Alpha virt. eigenvalues --    1.48068   1.48346   1.48506   1.49236   1.49638
 Alpha virt. eigenvalues --    1.49983   1.50373   1.50398   1.52164   1.52964
 Alpha virt. eigenvalues --    1.53019   1.53388   1.53597   1.54536   1.55544
 Alpha virt. eigenvalues --    1.55604   1.56003   1.56407   1.58398   1.59022
 Alpha virt. eigenvalues --    1.59274   1.60463   1.61529   1.63864   1.64283
 Alpha virt. eigenvalues --    1.64800   1.64924   1.68280   1.68441   1.71186
 Alpha virt. eigenvalues --    1.71434   1.72345   1.72741   1.80342   1.80565
 Alpha virt. eigenvalues --    1.89714   1.90989   1.97376   1.97406   2.00016
 Alpha virt. eigenvalues --    2.00479   2.02898   2.03341   2.03980   2.04659
 Alpha virt. eigenvalues --    2.05440   2.05714   2.06500   2.08146   2.09116
 Alpha virt. eigenvalues --    2.10126   2.11903   2.12544   2.12916   2.13649
 Alpha virt. eigenvalues --    2.14016   2.14638   2.15085   2.16102   2.16849
 Alpha virt. eigenvalues --    2.18040   2.18721   2.18985   2.20491   2.20531
 Alpha virt. eigenvalues --    2.22350   2.22848   2.25288   2.27040   2.28369
 Alpha virt. eigenvalues --    2.29949   2.32216   2.32872   2.34967   2.36095
 Alpha virt. eigenvalues --    2.37789   2.38347   2.39867   2.40658   2.42634
 Alpha virt. eigenvalues --    2.44942   2.45913   2.48401   2.49620   2.51279
 Alpha virt. eigenvalues --    2.52974   2.54370   2.57265   2.57647   2.58933
 Alpha virt. eigenvalues --    2.61707   2.64937   2.65987   2.67644   2.69509
 Alpha virt. eigenvalues --    2.70195   2.72229   2.74365   2.75408   2.75635
 Alpha virt. eigenvalues --    2.79102   2.79865   2.81496   2.83586   2.85553
 Alpha virt. eigenvalues --    2.86167   2.87716   2.89046   2.90533   2.94121
 Alpha virt. eigenvalues --    2.99029   3.00944   3.03585   3.07350   3.16296
 Alpha virt. eigenvalues --    3.17924   3.20190   3.25764   3.26079   3.27941
 Alpha virt. eigenvalues --    3.28088   3.36343   3.41458   3.46907   3.49209
 Alpha virt. eigenvalues --    3.49903   3.51101   3.52581   3.53170   3.54233
 Alpha virt. eigenvalues --    3.54893   3.55388   3.57004   3.57464   3.59578
 Alpha virt. eigenvalues --    3.61977   3.63433   3.64374   3.66446   3.67179
 Alpha virt. eigenvalues --    3.69535   3.70455   3.74989   3.75280   3.77333
 Alpha virt. eigenvalues --    3.77353   3.79616   3.81750   3.83456   3.83910
 Alpha virt. eigenvalues --    3.90510   3.92524   4.06990   4.10911   4.30686
 Alpha virt. eigenvalues --    4.31511   4.33820   4.34120   4.38047   4.38395
 Alpha virt. eigenvalues --    4.39309   4.41979   4.42017   4.43071   4.46958
 Alpha virt. eigenvalues --    4.52567   4.52582   6.38444   6.39233   6.41844
 Alpha virt. eigenvalues --    6.42235   6.43325   6.44465   6.44590   6.45329
 Alpha virt. eigenvalues --    6.46002   6.46047   6.46684   6.48125   6.49174
 Alpha virt. eigenvalues --    6.49760   6.50367   6.52201   6.52354   6.52481
 Alpha virt. eigenvalues --    6.53373   6.54387   6.55138   6.55280   6.57404
 Alpha virt. eigenvalues --    6.57513   6.60807   6.61771   6.62772   6.65743
 Alpha virt. eigenvalues --    6.65932   6.68249   6.71546   6.72210   6.72484
 Alpha virt. eigenvalues --    6.78255   6.87488   6.88558   6.90557   6.91438
 Alpha virt. eigenvalues --    6.92705   6.93520   6.97067   7.03398   9.08246
 Alpha virt. eigenvalues --    9.08430   9.09439   9.09720   9.10021   9.10664
 Alpha virt. eigenvalues --    9.10750   9.11936   9.12241   9.12468   9.15488
 Alpha virt. eigenvalues --    9.16596   9.17286   9.18582   9.18677   9.19377
 Alpha virt. eigenvalues --    9.19927   9.20525   9.20830   9.20953   9.22054
 Alpha virt. eigenvalues --    9.22693   9.23617   9.23736   9.25512   9.26149
 Alpha virt. eigenvalues --    9.27108   9.27468   9.28176   9.28179   9.29199
 Alpha virt. eigenvalues --    9.29768   9.30495   9.31362   9.35054   9.35486
 Alpha virt. eigenvalues --    9.35542   9.36352   9.39036   9.41595   9.42581
 Alpha virt. eigenvalues --    9.44856   9.46337   9.46874   9.51168   9.52945
 Alpha virt. eigenvalues --    9.60833   9.64480   9.66312   9.67948   9.69496
 Alpha virt. eigenvalues --    9.70174   9.70366   9.73376   9.74435   9.75555
 Alpha virt. eigenvalues --    9.76319   9.76369   9.77968   9.78456   9.80168
 Alpha virt. eigenvalues --    9.80296   9.80774   9.82940   9.86710   9.89419
 Alpha virt. eigenvalues --    9.90754   9.91019   9.92425   9.92645  23.96651
 Alpha virt. eigenvalues --   23.97272  24.01207  24.03967  24.09543  24.10772
 Alpha virt. eigenvalues --   66.93021  66.93035  66.94865  66.95280  66.96307
 Alpha virt. eigenvalues --   66.96849  66.97025  66.97312  67.01112  67.02013
 Alpha virt. eigenvalues --   67.03397  67.03663  67.06001  67.08083
          Condensed to atoms (all electrons):
               1          2          3          4          5          6
     1  C   10.689447   0.409823   0.337855  -5.112072  -0.137009  -0.206324
     2  F    0.409823   9.082704  -0.002824  -0.152901   0.020828   0.001486
     3  F    0.337855  -0.002824   9.115303  -0.146620   0.000185   0.013186
     4  C   -5.112072  -0.152901  -0.146620  18.598471   0.399216   0.478976
     5  F   -0.137009   0.020828   0.000185   0.399216   9.099404   0.018343
     6  F   -0.206324   0.001486   0.013186   0.478976   0.018343   9.088742
     7  C    2.328899   0.051626   0.049932 -10.655569  -0.210767  -0.224674
     8  F    0.012948   0.010828   0.006095  -0.210782   0.012950  -0.001221
     9  F    0.025288  -0.001794   0.006412  -0.224659  -0.001221   0.026402
    10  C   -0.678228  -0.012204   0.020046   2.328869   0.012933   0.025288
    11  F    0.020053  -0.000086  -0.000073   0.049908   0.006098   0.006411
    12  F   -0.012200  -0.000518  -0.000086   0.051615   0.010830  -0.001793
    13  C   -0.069358   0.002275   0.001565  -1.448241   0.012360  -0.016125
    14  C   -1.787261  -0.187640  -0.163469   1.617118   0.016337   0.043027
    15  F   -0.000345   0.000002  -0.000004   0.025248  -0.000097   0.000038
    16  F    0.002021   0.000016   0.000078  -0.014853   0.000102  -0.000625
    17  F    0.004083   0.000029   0.000015   0.056007  -0.000217  -0.000044
    18  F   -0.111890   0.020683   0.000450  -0.005704  -0.002074   0.002419
    19  F   -0.096572   0.023585   0.020988   0.036972  -0.000696   0.000244
    20  F   -0.111691  -0.001542   0.023817   0.039557  -0.004859  -0.005808
               7          8          9         10         11         12
     1  C    2.328899   0.012948   0.025288  -0.678228   0.020053  -0.012200
     2  F    0.051626   0.010828  -0.001794  -0.012204  -0.000086  -0.000518
     3  F    0.049932   0.006095   0.006412   0.020046  -0.000073  -0.000086
     4  C  -10.655569  -0.210782  -0.224659   2.328869   0.049908   0.051615
     5  F   -0.210767   0.012950  -0.001221   0.012933   0.006098   0.010830
     6  F   -0.224674  -0.001221   0.026402   0.025288   0.006411  -0.001793
     7  C   18.598872   0.399231   0.478924  -5.112474  -0.146573  -0.152905
     8  F    0.399231   9.099400   0.018350  -0.137020   0.000185   0.020827
     9  F    0.478924   0.018350   9.088755  -0.206288   0.013182   0.001487
    10  C   -5.112474  -0.137020  -0.206288  10.689826   0.337795   0.409848
    11  F   -0.146573   0.000185   0.013182   0.337795   9.115315  -0.002830
    12  F   -0.152905   0.020827   0.001487   0.409848  -0.002830   9.082707
    13  C    1.617094   0.016334   0.043026  -1.787093  -0.163448  -0.187654
    14  C   -1.448291   0.012355  -0.016126  -0.069428   0.001564   0.002275
    15  F    0.036977  -0.000696   0.000245  -0.096602   0.020992   0.023585
    16  F    0.039602  -0.004860  -0.005821  -0.111708   0.023816  -0.001541
    17  F   -0.005697  -0.002066   0.002414  -0.111907   0.000448   0.020687
    18  F    0.056019  -0.000217  -0.000044   0.004082   0.000015   0.000029
    19  F    0.025245  -0.000097   0.000038  -0.000345  -0.000004   0.000002
    20  F   -0.014841   0.000102  -0.000625   0.002021   0.000078   0.000016
              13         14         15         16         17         18
     1  C   -0.069358  -1.787261  -0.000345   0.002021   0.004083  -0.111890
     2  F    0.002275  -0.187640   0.000002   0.000016   0.000029   0.020683
     3  F    0.001565  -0.163469  -0.000004   0.000078   0.000015   0.000450
     4  C   -1.448241   1.617118   0.025248  -0.014853   0.056007  -0.005704
     5  F    0.012360   0.016337  -0.000097   0.000102  -0.000217  -0.002074
     6  F   -0.016125   0.043027   0.000038  -0.000625  -0.000044   0.002419
     7  C    1.617094  -1.448291   0.036977   0.039602  -0.005697   0.056019
     8  F    0.016334   0.012355  -0.000696  -0.004860  -0.002066  -0.000217
     9  F    0.043026  -0.016126   0.000245  -0.005821   0.002414  -0.000044
    10  C   -1.787093  -0.069428  -0.096602  -0.111708  -0.111907   0.004082
    11  F   -0.163448   0.001564   0.020992   0.023816   0.000448   0.000015
    12  F   -0.187654   0.002275   0.023585  -0.001541   0.020687   0.000029
    13  C    6.213718  -0.043544   0.156371   0.296253   0.238327   0.000828
    14  C   -0.043544   6.213992   0.000091   0.000347   0.000828   0.238294
    15  F    0.156371   0.000091   9.137689  -0.013077  -0.002003  -0.000000
    16  F    0.296253   0.000347  -0.013077   9.044093   0.020406   0.000001
    17  F    0.238327   0.000828  -0.002003   0.020406   9.067064  -0.000001
    18  F    0.000828   0.238294  -0.000000   0.000001  -0.000001   9.067080
    19  F    0.000091   0.156356   0.000000  -0.000000  -0.000000  -0.001994
    20  F    0.000347   0.296270  -0.000000   0.000002   0.000001   0.020402
              19         20
     1  C   -0.096572  -0.111691
     2  F    0.023585  -0.001542
     3  F    0.020988   0.023817
     4  C    0.036972   0.039557
     5  F   -0.000696  -0.004859
     6  F    0.000244  -0.005808
     7  C    0.025245  -0.014841
     8  F   -0.000097   0.000102
     9  F    0.000038  -0.000625
    10  C   -0.000345   0.002021
    11  F   -0.000004   0.000078
    12  F    0.000002   0.000016
    13  C    0.000091   0.000347
    14  C    0.156356   0.296270
    15  F    0.000000  -0.000000
    16  F   -0.000000   0.000002
    17  F   -0.000000   0.000001
    18  F   -0.001994   0.020402
    19  F    9.137677  -0.013079
    20  F   -0.013079   9.044084
 Mulliken charges:
               1
     1  C    0.492535
     2  F   -0.264375
     3  F   -0.282850
     4  C    0.289444
     5  F   -0.252647
     6  F   -0.247949
     7  C    0.289371
     8  F   -0.252648
     9  F   -0.247944
    10  C    0.492588
    11  F   -0.282846
    12  F   -0.264381
    13  C    1.116874
    14  C    1.116904
    15  F   -0.288413
    16  F   -0.274250
    17  F   -0.288374
    18  F   -0.288376
    19  F   -0.288410
    20  F   -0.274252
 Sum of Mulliken charges =  -0.00000
 Mulliken charges with hydrogens summed into heavy atoms:
               1
     1  C    0.492535
     2  F   -0.264375
     3  F   -0.282850
     4  C    0.289444
     5  F   -0.252647
     6  F   -0.247949
     7  C    0.289371
     8  F   -0.252648
     9  F   -0.247944
    10  C    0.492588
    11  F   -0.282846
    12  F   -0.264381
    13  C    1.116874
    14  C    1.116904
    15  F   -0.288413
    16  F   -0.274250
    17  F   -0.288374
    18  F   -0.288376
    19  F   -0.288410
    20  F   -0.274252
 Electronic spatial extent (au):  <R**2>=           4932.7671
 Charge=             -0.0000 electrons
 Dipole moment (field-independent basis, Debye):
    X=              0.0000    Y=              0.0000    Z=             -0.0277  Tot=              0.0277
 Quadrupole moment (field-independent basis, Debye-Ang):
   XX=           -106.1902   YY=           -106.3516   ZZ=           -106.6003
   XY=             -0.0744   XZ=              0.0001   YZ=             -0.0000
 Traceless Quadrupole moment (field-independent basis, Debye-Ang):
   XX=              0.1906   YY=              0.0291   ZZ=             -0.2196
   XY=             -0.0744   XZ=              0.0001   YZ=             -0.0000
 Octapole moment (field-independent basis, Debye-Ang**2):
  XXX=             -0.0003  YYY=             -0.0002  ZZZ=              0.2000  XYY=             -0.0000
  XXY=             -0.0001  XXZ=              0.6698  XZZ=              0.0001  YZZ=              0.0002
  YYZ=              0.8681  XYZ=              0.2080
 Hexadecapole moment (field-independent basis, Debye-Ang**3):
 XXXX=          -3911.4691 YYYY=           -611.6235 ZZZZ=           -490.0245 XXXY=            -19.6840
 XXXZ=             -0.0312 YYYX=             -4.3810 YYYZ=              0.0020 ZZZX=             -0.0299
 ZZZY=              0.0025 XXYY=           -752.4029 XXZZ=           -737.1022 YYZZ=           -185.8378
 XXYZ=             -0.0007 YYXZ=             -0.0104 ZZXY=             -0.0882
 N-N= 2.126483679559D+03 E-N=-8.117643121192D+03  KE= 1.622644005503D+03
 Calling FoFJK, ICntrl=      2127 FMM=F ISym2X=0 I1Cent= 0 IOpClX= 0 NMat=1 NMatS=1 NMatT=0.
 ***** Axes restored to original set *****
 -------------------------------------------------------------------
 Center     Atomic                   Forces (Hartrees/Bohr)
 Number     Number              X              Y              Z
 -------------------------------------------------------------------
      1        6          -0.005412445    0.009238338   -0.002437237
      2        9          -0.000331551   -0.002294182    0.009708765
      3        9           0.000166347   -0.006969200   -0.007003041
      4        6          -0.002453061   -0.004606333    0.002285401
      5        9          -0.006394518   -0.002056330    0.000494377
      6        9          -0.007880673    0.000225775   -0.000446757
      7        6           0.002453497    0.004606748    0.002286927
      8        9           0.006389473    0.002054087    0.000493609
      9        9           0.007889862   -0.000225226   -0.000446162
     10        6           0.005412517   -0.009239938   -0.002436762
     11        9          -0.000166652    0.006968965   -0.007002172
     12        9           0.000331695    0.002295328    0.009708077
     13        6          -0.002892630    0.001488165   -0.001534500
     14        6           0.002892670   -0.001487500   -0.001533509
     15        9          -0.001896919   -0.001364741   -0.000419366
     16        9          -0.009750680   -0.002194849   -0.000494616
     17        9          -0.007557110   -0.003741430   -0.000154974
     18        9           0.007561118    0.003742502   -0.000154704
     19        9           0.001896903    0.001364958   -0.000419925
     20        9           0.009742158    0.002194864   -0.000493431
 -------------------------------------------------------------------
 Cartesian Forces:  Max     0.009750680 RMS     0.004647106

 GradGradGradGradGradGradGradGradGradGradGradGradGradGradGradGradGradGrad
 Berny optimization.
 FormGI is forming the generalized inverse of G from B-inverse, IUseBI=4.
 Internal  Forces:  Max     0.039452685 RMS     0.008808451
 Search for a local minimum.
 Step number   1 out of a maximum of  110
 All quantities printed in internal units (Hartrees-Bohrs-Radians)
 Mixed Optimization -- RFO/linear search
 Second derivative matrix not updated -- first step.
 ITU=  0
     Eigenvalues ---    0.00230   0.00230   0.00230   0.00237   0.00237
     Eigenvalues ---    0.05171   0.05172   0.06002   0.06002   0.06945
     Eigenvalues ---    0.06945   0.07043   0.07043   0.08850   0.08850
     Eigenvalues ---    0.08850   0.08850   0.11716   0.11716   0.13125
     Eigenvalues ---    0.13125   0.18087   0.18087   0.19177   0.19177
     Eigenvalues ---    0.25000   0.25000   0.25000   0.25000   0.25000
     Eigenvalues ---    0.25000   0.25000   0.25000   0.25000   0.25000
     Eigenvalues ---    0.27056   0.27073   0.27073   0.28519   0.28519
     Eigenvalues ---    0.57117   0.57117   0.57735   0.57735   0.60197
     Eigenvalues ---    0.60197   0.60702   0.60702   0.60702   0.60702
     Eigenvalues ---    0.60702   0.60702   0.60784   0.60784
 RFO step:  Lambda=-3.07173565D-02 EMin= 2.30000000D-03
 Linear search not attempted -- first point.
 Maximum step size (   0.300) exceeded in Quadratic search.
    -- Step size scaled by   0.940
 Iteration  1 RMS(Cart)=  0.14274028 RMS(Int)=  0.00624904
 Iteration  2 RMS(Cart)=  0.00879708 RMS(Int)=  0.00073594
 Iteration  3 RMS(Cart)=  0.00005192 RMS(Int)=  0.00073540
 Iteration  4 RMS(Cart)=  0.00000005 RMS(Int)=  0.00073540
 Variable       Old X    -DE/DX   Delta X   Delta X   Delta X     New X
                                 (Linear)    (Quad)   (Total)
    R1        2.50325   0.00977   0.00000   0.01438   0.01438   2.51764
    R2        2.50785   0.00979   0.00000   0.01455   0.01455   2.52240
    R3        2.94210   0.01237   0.00000   0.03856   0.03856   2.98067
    R4        2.91018   0.01974   0.00000   0.05875   0.05875   2.96893
    R5        2.53298  -0.00014   0.00000  -0.00023  -0.00023   2.53275
    R6        2.52779   0.00060   0.00000   0.00092   0.00092   2.52871
    R7        2.94250  -0.00058   0.00000  -0.00181  -0.00181   2.94069
    R8        2.53298  -0.00014   0.00000  -0.00023  -0.00023   2.53275
    R9        2.52779   0.00059   0.00000   0.00092   0.00092   2.52871
   R10        2.94210   0.01237   0.00000   0.03858   0.03858   2.98068
   R11        2.50785   0.00979   0.00000   0.01455   0.01455   2.52240
   R12        2.50325   0.00977   0.00000   0.01438   0.01438   2.51764
   R13        2.91018   0.01975   0.00000   0.05875   0.05875   2.96893
   R14        2.50389   0.00114   0.00000   0.00168   0.00168   2.50556
   R15        2.50389   0.00070   0.00000   0.00104   0.00104   2.50492
   R16        2.50389   0.00149   0.00000   0.00220   0.00220   2.50608
   R17        2.50389   0.00149   0.00000   0.00219   0.00219   2.50608
   R18        2.50389   0.00114   0.00000   0.00168   0.00168   2.50556
   R19        2.50389   0.00070   0.00000   0.00104   0.00104   2.50492
    A1        1.90559   0.00711   0.00000  -0.00803  -0.01033   1.89525
    A2        1.93371  -0.01306   0.00000  -0.04625  -0.04706   1.88665
    A3        1.89738  -0.01080   0.00000  -0.02947  -0.02895   1.86843
    A4        1.93020  -0.01089   0.00000  -0.03325  -0.03442   1.89578
    A5        1.90043  -0.01183   0.00000  -0.03093  -0.03138   1.86905
    A6        1.89593   0.03944   0.00000   0.14847   0.14853   2.04446
    A7        1.87669   0.00610   0.00000   0.02817   0.02736   1.90405
    A8        1.88197   0.00886   0.00000   0.04645   0.04592   1.92789
    A9        1.99438  -0.00716   0.00000  -0.02609  -0.02584   1.96854
   A10        1.90268  -0.00078   0.00000   0.00338   0.00185   1.90453
   A11        1.91206  -0.00280   0.00000  -0.02572  -0.02555   1.88651
   A12        1.89431  -0.00382   0.00000  -0.02376  -0.02337   1.87094
   A13        1.91205  -0.00280   0.00000  -0.02571  -0.02554   1.88652
   A14        1.89431  -0.00382   0.00000  -0.02377  -0.02339   1.87092
   A15        1.99439  -0.00717   0.00000  -0.02612  -0.02586   1.96853
   A16        1.90269  -0.00079   0.00000   0.00337   0.00184   1.90453
   A17        1.87669   0.00610   0.00000   0.02815   0.02734   1.90403
   A18        1.88197   0.00887   0.00000   0.04650   0.04598   1.92794
   A19        1.93020  -0.01089   0.00000  -0.03324  -0.03441   1.89579
   A20        1.93371  -0.01307   0.00000  -0.04628  -0.04709   1.88662
   A21        1.89592   0.03945   0.00000   0.14852   0.14858   2.04450
   A22        1.90559   0.00711   0.00000  -0.00804  -0.01034   1.89525
   A23        1.90044  -0.01183   0.00000  -0.03092  -0.03138   1.86906
   A24        1.89737  -0.01080   0.00000  -0.02949  -0.02897   1.86840
   A25        1.91063  -0.00249   0.00000  -0.01753  -0.01714   1.89349
   A26        1.91063   0.01346   0.00000   0.04900   0.04787   1.95850
   A27        1.91063   0.01220   0.00000   0.04612   0.04497   1.95560
   A28        1.91063  -0.00839   0.00000  -0.03863  -0.03822   1.87241
   A29        1.91063  -0.00701   0.00000  -0.03133  -0.03097   1.87966
   A30        1.91063  -0.00777   0.00000  -0.00763  -0.00995   1.90068
   A31        1.91063   0.01221   0.00000   0.04615   0.04500   1.95563
   A32        1.91063  -0.00249   0.00000  -0.01752  -0.01713   1.89350
   A33        1.91063   0.01345   0.00000   0.04895   0.04782   1.95845
   A34        1.91063  -0.00702   0.00000  -0.03133  -0.03097   1.87966
   A35        1.91063  -0.00777   0.00000  -0.00763  -0.00996   1.90068
   A36        1.91063  -0.00838   0.00000  -0.03861  -0.03820   1.87243
    D1        0.90650  -0.00051   0.00000  -0.00729  -0.00857   0.89793
    D2        2.95585   0.00641   0.00000   0.03576   0.03548   2.99134
    D3       -1.21981   0.00330   0.00000   0.02206   0.02124  -1.19857
    D4        3.02195  -0.00760   0.00000  -0.07071  -0.07070   2.95126
    D5       -1.21188  -0.00068   0.00000  -0.02765  -0.02665  -1.23853
    D6        0.89564  -0.00379   0.00000  -0.04136  -0.04089   0.85475
    D7       -1.17655  -0.00409   0.00000  -0.03620  -0.03639  -1.21293
    D8        0.87281   0.00283   0.00000   0.00686   0.00766   0.88047
    D9        2.98033  -0.00028   0.00000  -0.00685  -0.00658   2.97375
   D10       -1.15746   0.00050   0.00000  -0.01236  -0.01169  -1.16915
   D11        0.93694  -0.00215   0.00000  -0.03320  -0.03321   0.90373
   D12        3.03133  -0.00570   0.00000  -0.06124  -0.06196   2.96937
   D13        3.05139   0.00498   0.00000   0.03210   0.03272   3.08412
   D14       -1.13740   0.00233   0.00000   0.01126   0.01121  -1.12619
   D15        0.95700  -0.00122   0.00000  -0.01678  -0.01755   0.93945
   D16        0.94819   0.00169   0.00000   0.00228   0.00305   0.95124
   D17        3.04258  -0.00095   0.00000  -0.01856  -0.01846   3.02412
   D18       -1.14621  -0.00451   0.00000  -0.04660  -0.04722  -1.19342
   D19        0.79584  -0.00293   0.00000  -0.01751  -0.01750   0.77834
   D20       -1.27991   0.00190   0.00000   0.00737   0.00741  -1.27250
   D21        2.90262  -0.00199   0.00000  -0.01785  -0.01775   2.88487
   D22       -1.31094  -0.00388   0.00000  -0.01719  -0.01728  -1.32822
   D23        2.89650   0.00095   0.00000   0.00768   0.00763   2.90413
   D24        0.79584  -0.00294   0.00000  -0.01754  -0.01753   0.77831
   D25        2.89650   0.00095   0.00000   0.00767   0.00762   2.90412
   D26        0.82075   0.00578   0.00000   0.03255   0.03253   0.85328
   D27       -1.27991   0.00189   0.00000   0.00733   0.00737  -1.27254
   D28        0.89555  -0.00379   0.00000  -0.04132  -0.04086   0.85469
   D29       -1.21991   0.00330   0.00000   0.02212   0.02130  -1.19861
   D30        2.98024  -0.00028   0.00000  -0.00678  -0.00651   2.97373
   D31        3.02186  -0.00760   0.00000  -0.07069  -0.07068   2.95118
   D32        0.90640  -0.00051   0.00000  -0.00724  -0.00852   0.89788
   D33       -1.17664  -0.00408   0.00000  -0.03614  -0.03632  -1.21296
   D34       -1.21197  -0.00068   0.00000  -0.02762  -0.02662  -1.23859
   D35        2.95575   0.00641   0.00000   0.03582   0.03554   2.99129
   D36        0.87271   0.00284   0.00000   0.00693   0.00774   0.88045
   D37        3.04276  -0.00096   0.00000  -0.01865  -0.01855   3.02421
   D38       -1.14603  -0.00451   0.00000  -0.04669  -0.04730  -1.19333
   D39        0.94837   0.00169   0.00000   0.00222   0.00299   0.95136
   D40       -1.13722   0.00233   0.00000   0.01122   0.01117  -1.12605
   D41        0.95718  -0.00122   0.00000  -0.01682  -0.01759   0.93959
   D42        3.05157   0.00498   0.00000   0.03208   0.03270   3.08428
   D43        0.93712  -0.00215   0.00000  -0.03327  -0.03327   0.90385
   D44        3.03152  -0.00571   0.00000  -0.06131  -0.06203   2.96949
   D45       -1.15727   0.00050   0.00000  -0.01240  -0.01174  -1.16901
         Item               Value     Threshold  Converged?
 Maximum Force            0.039453     0.000450     NO 
 RMS     Force            0.008808     0.000300     NO 
 Maximum Displacement     0.581431     0.001800     NO 
 RMS     Displacement     0.143425     0.001200     NO 
 Predicted change in Energy=-1.733977D-02
 GradGradGradGradGradGradGradGradGradGradGradGradGradGradGradGradGradGrad

                          Input orientation:                          
 ---------------------------------------------------------------------
 Center     Atomic      Atomic             Coordinates (Angstroms)
 Number     Number       Type             X           Y           Z
 ---------------------------------------------------------------------
      1          6           0        2.002349   -0.002993    0.058478
      2          9           0        2.109491   -0.474033    1.300091
      3          9           0        2.182766   -1.012027   -0.796494
      4          6           0        0.540597    0.559595   -0.127683
      5          9           0        0.264906    1.404462    0.875576
      6          9           0        0.435042    1.211675   -1.291411
      7          6           0       -0.540565   -0.559636   -0.127726
      8          9           0       -0.264943   -1.404533    0.875527
      9          9           0       -0.434917   -1.211683   -1.291462
     10          6           0       -2.002323    0.002967    0.058409
     11          9           0       -2.182681    1.012090   -0.796470
     12          9           0       -2.109484    0.473897    1.300062
     13          6           0       -3.190123   -1.002534   -0.157059
     14          6           0        3.190096    1.002585   -0.156897
     15          9           0       -4.320136   -0.397174    0.181452
     16          9           0       -3.307385   -1.375643   -1.423597
     17          9           0       -3.069949   -2.084590    0.600184
     18          9           0        3.069798    2.084671    0.600284
     19          9           0        4.320127    0.397321    0.181722
     20          9           0        3.307396    1.375646   -1.423446
 ---------------------------------------------------------------------
                    Distance matrix (angstroms):
                    1          2          3          4          5
     1  C    0.000000
     2  F    1.332276   0.000000
     3  F    1.334795   2.165750   0.000000
     4  C    1.577302   2.359736   2.369393   0.000000
     5  F    2.380607   2.666730   3.509049   1.340274   0.000000
     6  F    2.398764   3.515860   2.871294   1.338138   2.182189
     7  C    2.609777   3.011443   2.840500   1.556146   2.347995
     8  F    2.787920   2.585348   2.990149   2.348004   2.858530
     9  F    3.037028   3.705980   2.671539   2.333118   3.468433
    10  C    4.004677   4.321611   4.390449   2.609772   2.787881
    11  F    4.390423   5.002687   4.811879   2.840471   2.990047
    12  F    4.321588   4.324156   5.002691   3.011433   2.585318
    13  C    5.292193   5.521641   5.410814   4.044674   4.335573
    14  C    1.571088   2.339000   2.341466   2.686437   3.127978
    15  F    6.335954   6.526666   6.604706   4.963637   4.974968
    16  F    5.681020   6.129757   5.537800   4.497944   5.077051
    17  F    5.509510   5.469037   5.540046   4.534043   4.834313
    18  F    2.406521   2.821149   3.511033   3.041817   2.899291
    19  F    2.355321   2.626198   2.740709   3.795644   4.235633
    20  F    2.408297   3.503418   2.712719   3.162296   3.813539
                    6          7          8          9         10
     6  F    0.000000
     7  C    2.333134   0.000000
     8  F    3.468450   1.340275   0.000000
     9  F    2.574780   1.338136   2.182183   0.000000
    10  C    3.037061   1.577309   2.380594   2.398810   0.000000
    11  F    2.671568   2.369406   3.509040   2.871387   1.334794
    12  F    3.706030   2.359719   2.666657   3.515871   1.332276
    13  C    4.396737   2.686481   3.128022   2.986934   1.571091
    14  C    2.986832   4.044654   4.335599   4.396697   5.292147
    15  F    5.231580   3.795673   4.235693   4.234126   2.355315
    16  F    4.551642   3.162347   3.813562   2.880176   2.408338
    17  F    5.169957   3.041894   2.899371   3.359119   2.406500
    18  F    3.358954   4.533992   4.834335   5.169882   5.509404
    19  F    4.234050   4.963654   4.975029   5.231598   6.335937
    20  F    2.880058   4.497889   5.077034   4.551549   5.680956
                   11         12         13         14         15
    11  F    0.000000
    12  F    2.165746   0.000000
    13  C    2.341473   2.338980   0.000000
    14  C    5.410720   5.521575   6.687878   0.000000
    15  F    2.740633   2.626220   1.325887   7.647051   0.000000
    16  F    2.712842   3.503438   1.325548   7.034043   2.135239
    17  F    3.511027   2.821024   1.326162   7.020826   2.141419
    18  F    5.539846   5.468935   7.020756   1.326161   7.806798
    19  F    6.604644   6.526596   7.647106   1.325887   8.676714
    20  F    5.537709   6.129701   7.034005   1.325549   7.993611
                   16         17         18         19         20
    16  F    0.000000
    17  F    2.157469   0.000000
    18  F    7.532485   7.421538   0.000000
    19  F    7.993709   7.806934   2.141417   0.000000
    20  F    7.164141   7.532519   2.157464   2.135253   0.000000
 Stoichiometry    C6F14
 Framework group  C1[X(C6F14)]
 Deg. of freedom    54
 Full point group                 C1      NOp   1
 Largest Abelian subgroup         C1      NOp   1
 Largest concise Abelian subgroup C1      NOp   1
                         Standard orientation:                         
 ---------------------------------------------------------------------
 Center     Atomic      Atomic             Coordinates (Angstroms)
 Number     Number       Type             X           Y           Z
 ---------------------------------------------------------------------
      1          6           0       -1.938780   -0.500533   -0.136791
      2          9           0       -1.925496   -0.983421   -1.378404
      3          9           0       -1.862767   -1.522747    0.718181
      4          6           0       -0.662705    0.407685    0.049370
      5          9           0       -0.605633    1.294560   -0.953889
      6          9           0       -0.722519    1.065538    1.213098
      7          6           0        0.662692   -0.407738    0.049413
      8          9           0        0.605693   -1.294625   -0.953840
      9          9           0        0.722407   -1.065584    1.213149
     10          6           0        1.938768    0.500495   -0.136722
     11          9           0        1.862678    1.522781    0.718157
     12          9           0        1.925530    0.983281   -1.378374
     13          6           0        3.339193   -0.178263    0.078746
     14          6           0       -3.339172    0.178314    0.078584
     15          9           0        4.283306    0.688938   -0.259765
     16          9           0        3.545502   -0.510524    1.345284
     17          9           0        3.491705   -1.256237   -0.678497
     18          9           0       -3.491571    1.256347   -0.678597
     19          9           0       -4.283327   -0.688799   -0.260035
     20          9           0       -3.545506    0.510519    1.345133
 ---------------------------------------------------------------------
 Rotational constants (GHZ):           0.8393643           0.1955347           0.1912007
 Standard basis: 6-311+G(2d) (5D, 7F)
 There are   580 symmetry adapted cartesian basis functions of A   symmetry.
 There are   540 symmetry adapted basis functions of A   symmetry.
   540 basis functions,   840 primitive gaussians,   580 cartesian basis functions
    81 alpha electrons       81 beta electrons
       nuclear repulsion energy      2092.4674841440 Hartrees.
 NAtoms=   20 NActive=   20 NUniq=   20 SFac= 1.00D+00 NAtFMM=   60 NAOKFM=F Big=F
 Integral buffers will be    131072 words long.
 Raffenetti 2 integral format.
 Two-electron integral symmetry is turned on.
 Nuclear repulsion after empirical dispersion term =     2092.4532639922 Hartrees.
 One-electron integrals computed using PRISM.
 NBasis=   540 RedAO= T EigKep=  3.80D-06  NBF=   540
 NBsUse=   540 1.00D-06 EigRej= -1.00D+00 NBFU=   540
 Initial guess from the checkpoint file:  "hexane.chk"
 B after Tr=     0.000000    0.000000   -0.000000
         Rot=    0.999997    0.000000   -0.000000   -0.002566 Ang=   0.29 deg.
 ExpMin= 4.38D-02 ExpMax= 1.14D+04 ExpMxC= 1.72D+03 IAcc=2 IRadAn=         4 AccDes= 0.00D+00
 Harris functional with IExCor= 4639 and IRadAn=       4 diagonalized for initial guess.
 HarFok:  IExCor= 4639 AccDes= 0.00D+00 IRadAn=         4 IDoV= 1 UseB2=F ITyADJ=14
 ICtDFT=  3500011 ScaDFX=  1.000000  1.000000  1.000000  1.000000
 FoFCou: FMM=F IPFlag=           0 FMFlag=      100000 FMFlg1=           0
         NFxFlg=           0 DoJE=T BraDBF=F KetDBF=T FulRan=T
         wScrn=  0.000000 ICntrl=       500 IOpCl=  0 I1Cent=   200000004 NGrid=           0
         NMat0=    1 NMatS0=      1 NMatT0=    0 NMatD0=    1 NMtDS0=    0 NMtDT0=    0
 Petite list used in FoFCou.
 Requested convergence on RMS density matrix=1.00D-08 within 128 cycles.
 Requested convergence on MAX density matrix=1.00D-06.
 Requested convergence on             energy=1.00D-06.
 No special actions if energy rises.
 SCF Done:  E(RwB97XD) =  -1626.49963244     A.U. after   12 cycles
            NFock= 12  Conv=0.64D-08     -V/T= 2.0026
 Calling FoFJK, ICntrl=      2127 FMM=F ISym2X=0 I1Cent= 0 IOpClX= 0 NMat=1 NMatS=1 NMatT=0.
 ***** Axes restored to original set *****
 -------------------------------------------------------------------
 Center     Atomic                   Forces (Hartrees/Bohr)
 Number     Number              X              Y              Z
 -------------------------------------------------------------------
      1        6          -0.003184978    0.005256330   -0.001719335
      2        9           0.001923028    0.001627483    0.005460595
      3        9           0.001669123   -0.002094927   -0.004415424
      4        6          -0.000314417    0.003447559    0.000965978
      5        9           0.006485004    0.002091423   -0.000631356
      6        9           0.007218947    0.002159980   -0.000013122
      7        6           0.000314162   -0.003447436    0.000965538
      8        9          -0.006482452   -0.002090886   -0.000632037
      9        9          -0.007224764   -0.002160386   -0.000014809
     10        6           0.003184356   -0.005255764   -0.001722501
     11        9          -0.001667933    0.002094298   -0.004417721
     12        9          -0.001924235   -0.001626850    0.005461986
     13        6          -0.004358950   -0.003359730   -0.001448697
     14        6           0.004358278    0.003359559   -0.001450309
     15        9           0.000287549    0.005633191    0.002454331
     16        9           0.007260303    0.000749280   -0.001238529
     17        9           0.006516339    0.000298871    0.000590339
     18        9          -0.006517076   -0.000300712    0.000591505
     19        9          -0.000287604   -0.005632370    0.002452319
     20        9          -0.007254682   -0.000748914   -0.001238752
 -------------------------------------------------------------------
 Cartesian Forces:  Max     0.007260303 RMS     0.003596381

 GradGradGradGradGradGradGradGradGradGradGradGradGradGradGradGradGradGrad
 Berny optimization.
 Using GEDIIS/GDIIS optimizer.
 FormGI is forming the generalized inverse of G from B-inverse, IUseBI=4.
 Internal  Forces:  Max     0.013793375 RMS     0.004793826
 Search for a local minimum.
 Step number   2 out of a maximum of  110
 All quantities printed in internal units (Hartrees-Bohrs-Radians)
 Mixed Optimization -- RFO/linear search
 Update second derivatives using D2CorX and points    1    2
 DE= -3.84D-03 DEPred=-1.73D-02 R= 2.21D-01
 Trust test= 2.21D-01 RLast= 3.62D-01 DXMaxT set to 3.00D-01
 ITU=  0  0
 Use linear search instead of GDIIS.
     Eigenvalues ---    0.00230   0.00230   0.00230   0.00237   0.00239
     Eigenvalues ---    0.04757   0.04760   0.05389   0.05402   0.06883
     Eigenvalues ---    0.06945   0.06959   0.07242   0.08024   0.08445
     Eigenvalues ---    0.08804   0.08811   0.12752   0.13707   0.13888
     Eigenvalues ---    0.14152   0.18885   0.18892   0.19710   0.19712
     Eigenvalues ---    0.23896   0.25000   0.25000   0.25000   0.25000
     Eigenvalues ---    0.25000   0.25000   0.25000   0.25000   0.26568
     Eigenvalues ---    0.27009   0.27073   0.28103   0.28519   0.41767
     Eigenvalues ---    0.57117   0.57120   0.57734   0.57735   0.59581
     Eigenvalues ---    0.60197   0.60578   0.60702   0.60702   0.60702
     Eigenvalues ---    0.60702   0.60706   0.60784   0.60785
 RFO step:  Lambda=-2.54899399D-03 EMin= 2.29641371D-03
 Quartic linear search produced a step of -0.45047.
 Iteration  1 RMS(Cart)=  0.07723003 RMS(Int)=  0.00375982
 Iteration  2 RMS(Cart)=  0.00398111 RMS(Int)=  0.00018890
 Iteration  3 RMS(Cart)=  0.00000755 RMS(Int)=  0.00018883
 Iteration  4 RMS(Cart)=  0.00000000 RMS(Int)=  0.00018883
 Variable       Old X    -DE/DX   Delta X   Delta X   Delta X     New X
                                 (Linear)    (Quad)   (Total)
    R1        2.51764   0.00467  -0.00648   0.01182   0.00534   2.52298
    R2        2.52240   0.00464  -0.00655   0.01192   0.00536   2.52776
    R3        2.98067  -0.00918  -0.01737  -0.00029  -0.01766   2.96301
    R4        2.96893  -0.00951  -0.02646   0.00986  -0.01660   2.95233
    R5        2.53275  -0.00049   0.00010  -0.00059  -0.00049   2.53226
    R6        2.52871   0.00049  -0.00041   0.00095   0.00054   2.52925
    R7        2.94069   0.00944   0.00082   0.01820   0.01902   2.95971
    R8        2.53275  -0.00049   0.00010  -0.00059  -0.00049   2.53227
    R9        2.52871   0.00050  -0.00041   0.00095   0.00054   2.52925
   R10        2.98068  -0.00918  -0.01738  -0.00029  -0.01766   2.96302
   R11        2.52240   0.00464  -0.00655   0.01192   0.00536   2.52776
   R12        2.51764   0.00467  -0.00648   0.01182   0.00534   2.52298
   R13        2.96893  -0.00951  -0.02647   0.00986  -0.01661   2.95233
   R14        2.50556   0.00295  -0.00076   0.00356   0.00280   2.50836
   R15        2.50492   0.00033  -0.00047   0.00085   0.00038   2.50530
   R16        2.50608   0.00069  -0.00099   0.00178   0.00079   2.50687
   R17        2.50608   0.00069  -0.00099   0.00178   0.00079   2.50687
   R18        2.50556   0.00295  -0.00076   0.00355   0.00280   2.50836
   R19        2.50492   0.00033  -0.00047   0.00085   0.00038   2.50531
    A1        1.89525  -0.00031   0.00465   0.02693   0.03241   1.92767
    A2        1.88665   0.00503   0.02120  -0.00904   0.01212   1.89877
    A3        1.86843   0.00227   0.01304  -0.01556  -0.00277   1.86566
    A4        1.89578   0.00469   0.01551  -0.00681   0.00873   1.90451
    A5        1.86905   0.00265   0.01414  -0.01732  -0.00311   1.86594
    A6        2.04446  -0.01379  -0.06691   0.02354  -0.04368   2.00078
    A7        1.90405  -0.00568  -0.01233  -0.00660  -0.01903   1.88502
    A8        1.92789  -0.00654  -0.02069  -0.01121  -0.03187   1.89602
    A9        1.96854   0.00383   0.01164   0.00008   0.01172   1.98026
   A10        1.90453   0.00043  -0.00083  -0.00584  -0.00690   1.89763
   A11        1.88651   0.00467   0.01151   0.01816   0.02962   1.91612
   A12        1.87094   0.00360   0.01053   0.00595   0.01639   1.88733
   A13        1.88652   0.00467   0.01150   0.01817   0.02962   1.91613
   A14        1.87092   0.00360   0.01054   0.00595   0.01640   1.88732
   A15        1.96853   0.00384   0.01165   0.00008   0.01172   1.98025
   A16        1.90453   0.00043  -0.00083  -0.00584  -0.00690   1.89763
   A17        1.90403  -0.00567  -0.01231  -0.00660  -0.01901   1.88501
   A18        1.92794  -0.00655  -0.02071  -0.01121  -0.03190   1.89604
   A19        1.89579   0.00469   0.01550  -0.00682   0.00872   1.90451
   A20        1.88662   0.00503   0.02121  -0.00903   0.01213   1.89876
   A21        2.04450  -0.01379  -0.06693   0.02354  -0.04370   2.00080
   A22        1.89525  -0.00031   0.00466   0.02694   0.03243   1.92768
   A23        1.86906   0.00265   0.01414  -0.01732  -0.00312   1.86594
   A24        1.86840   0.00227   0.01305  -0.01556  -0.00276   1.86564
   A25        1.89349  -0.00505   0.00772  -0.01101  -0.00342   1.89007
   A26        1.95850  -0.00838  -0.02156   0.00036  -0.02102   1.93748
   A27        1.95560  -0.00754  -0.02026  -0.00050  -0.02057   1.93503
   A28        1.87241   0.00854   0.01722   0.01007   0.02716   1.89957
   A29        1.87966   0.00758   0.01395   0.00864   0.02246   1.90212
   A30        1.90068   0.00616   0.00448  -0.00665  -0.00171   1.89897
   A31        1.95563  -0.00755  -0.02027  -0.00049  -0.02058   1.93505
   A32        1.89350  -0.00505   0.00772  -0.01101  -0.00343   1.89008
   A33        1.95845  -0.00837  -0.02154   0.00036  -0.02100   1.93746
   A34        1.87966   0.00758   0.01395   0.00863   0.02245   1.90211
   A35        1.90068   0.00616   0.00448  -0.00665  -0.00171   1.89897
   A36        1.87243   0.00853   0.01721   0.01007   0.02715   1.89958
    D1        0.89793   0.00083   0.00386   0.01339   0.01743   0.91537
    D2        2.99134  -0.00623  -0.01598  -0.00484  -0.02060   2.97074
    D3       -1.19857  -0.00363  -0.00957  -0.00504  -0.01434  -1.21291
    D4        2.95126   0.00580   0.03185   0.03669   0.06837   3.01963
    D5       -1.23853  -0.00126   0.01200   0.01845   0.03035  -1.20818
    D6        0.85475   0.00134   0.01842   0.01826   0.03660   0.89135
    D7       -1.21293   0.00334   0.01639   0.02486   0.04110  -1.17183
    D8        0.88047  -0.00372  -0.00345   0.00663   0.00308   0.88355
    D9        2.97375  -0.00113   0.00296   0.00644   0.00933   2.98308
   D10       -1.16915  -0.00069   0.00527   0.09606   0.10105  -1.06810
   D11        0.90373   0.00086   0.01496   0.09932   0.11416   1.01789
   D12        2.96937   0.00312   0.02791   0.10489   0.13284   3.10220
   D13        3.08412  -0.00276  -0.01474   0.08115   0.06641  -3.13265
   D14       -1.12619  -0.00122  -0.00505   0.08441   0.07952  -1.04667
   D15        0.93945   0.00105   0.00790   0.08998   0.09820   1.03765
   D16        0.95124  -0.00159  -0.00137   0.08780   0.08623   1.03747
   D17        3.02412  -0.00004   0.00832   0.09106   0.09934   3.12346
   D18       -1.19342   0.00222   0.02127   0.09663   0.11801  -1.07541
   D19        0.77834   0.00250   0.00788  -0.01506  -0.00711   0.77123
   D20       -1.27250  -0.00234  -0.00334  -0.02079  -0.02414  -1.29664
   D21        2.88487   0.00099   0.00800  -0.01089  -0.00278   2.88209
   D22       -1.32822   0.00402   0.00778  -0.01923  -0.01142  -1.33964
   D23        2.90413  -0.00082  -0.00344  -0.02496  -0.02845   2.87568
   D24        0.77831   0.00251   0.00790  -0.01505  -0.00709   0.77122
   D25        2.90412  -0.00082  -0.00343  -0.02496  -0.02844   2.87567
   D26        0.85328  -0.00566  -0.01465  -0.03069  -0.04547   0.80780
   D27       -1.27254  -0.00233  -0.00332  -0.02078  -0.02411  -1.29665
   D28        0.85469   0.00134   0.01841   0.01800   0.03632   0.89101
   D29       -1.19861  -0.00363  -0.00959  -0.00531  -0.01464  -1.21326
   D30        2.97373  -0.00112   0.00293   0.00615   0.00901   2.98275
   D31        2.95118   0.00580   0.03184   0.03643   0.06811   3.01929
   D32        0.89788   0.00083   0.00384   0.01313   0.01715   0.91502
   D33       -1.21296   0.00334   0.01636   0.02459   0.04080  -1.17216
   D34       -1.23859  -0.00126   0.01199   0.01820   0.03008  -1.20851
   D35        2.99129  -0.00623  -0.01601  -0.00511  -0.02089   2.97040
   D36        0.88045  -0.00373  -0.00348   0.00636   0.00277   0.88322
   D37        3.02421  -0.00004   0.00836   0.09134   0.09965   3.12386
   D38       -1.19333   0.00222   0.02131   0.09690   0.11833  -1.07500
   D39        0.95136  -0.00159  -0.00135   0.08807   0.08653   1.03788
   D40       -1.12605  -0.00122  -0.00503   0.08467   0.07980  -1.04626
   D41        0.93959   0.00105   0.00792   0.09023   0.09847   1.03807
   D42        3.08428  -0.00277  -0.01473   0.08140   0.06667  -3.13224
   D43        0.90385   0.00086   0.01499   0.09959   0.11445   1.01830
   D44        2.96949   0.00312   0.02794   0.10515   0.13313   3.10262
   D45       -1.16901  -0.00069   0.00529   0.09632   0.10133  -1.06768
         Item               Value     Threshold  Converged?
 Maximum Force            0.013793     0.000450     NO 
 RMS     Force            0.004794     0.000300     NO 
 Maximum Displacement     0.314672     0.001800     NO 
 RMS     Displacement     0.077704     0.001200     NO 
 Predicted change in Energy=-2.065941D-03
 GradGradGradGradGradGradGradGradGradGradGradGradGradGradGradGradGradGrad

                          Input orientation:                          
 ---------------------------------------------------------------------
 Center     Atomic      Atomic             Coordinates (Angstroms)
 Number     Number       Type             X           Y           Z
 ---------------------------------------------------------------------
      1          6           0        2.003402   -0.035195    0.064287
      2          9           0        2.124226   -0.494508    1.312058
      3          9           0        2.194321   -1.022597   -0.817670
      4          6           0        0.559741    0.547649   -0.121797
      5          9           0        0.336495    1.424456    0.866644
      6          9           0        0.507891    1.196267   -1.291406
      7          6           0       -0.559721   -0.547716   -0.121724
      8          9           0       -0.336433   -1.424454    0.866770
      9          9           0       -0.507920   -1.196421   -1.291285
     10          6           0       -2.003369    0.035156    0.064404
     11          9           0       -2.194176    1.022777   -0.817331
     12          9           0       -2.124241    0.494169    1.312282
     13          6           0       -3.155610   -0.997214   -0.153190
     14          6           0        3.155584    0.997304   -0.153001
     15          9           0       -4.312389   -0.380603    0.055529
     16          9           0       -3.140868   -1.472095   -1.390882
     17          9           0       -3.047939   -2.011347    0.695195
     18          9           0        3.047529    2.011496    0.695264
     19          9           0        4.312376    0.380861    0.056133
     20          9           0        3.141162    1.472077   -1.390740
 ---------------------------------------------------------------------
                    Distance matrix (angstroms):
                    1          2          3          4          5
     1  C    0.000000
     2  F    1.335103   0.000000
     3  F    1.337632   2.195343   0.000000
     4  C    1.567958   2.364243   2.371025   0.000000
     5  F    2.356467   2.660225   3.503783   1.340017   0.000000
     6  F    2.364520   3.499897   2.826982   1.338424   2.176838
     7  C    2.620473   3.043376   2.880034   1.566212   2.381080
     8  F    2.837050   2.667944   3.066520   2.381088   2.927306
     9  F    3.081032   3.768059   2.748933   2.355712   3.498384
    10  C    4.007389   4.344448   4.417861   2.620468   2.837025
    11  F    4.417717   5.048272   4.841741   2.879857   3.066173
    12  F    4.344555   4.361990   5.048490   3.043551   2.668193
    13  C    5.252445   5.502393   5.391098   4.023856   4.370280
    14  C    1.562304   2.331438   2.333626   2.634685   3.028101
    15  F    6.325235   6.559104   6.596355   4.962937   5.052551
    16  F    5.535857   5.998564   5.384687   4.402777   5.057518
    17  F    5.460702   5.425183   5.545059   4.497921   4.825819
    18  F    2.382704   2.740982   3.496091   2.999921   2.779153
    19  F    2.346173   2.670509   2.686891   3.760552   4.189707
    20  F    2.384003   3.493814   2.729160   3.021344   3.600584
                    6          7          8          9         10
     6  F    0.000000
     7  C    2.355722   0.000000
     8  F    3.498397   1.340018   0.000000
     9  F    2.599389   1.338422   2.176835   0.000000
    10  C    3.081043   1.567962   2.356465   2.364539   0.000000
    11  F    2.748820   2.371025   3.503761   2.827177   1.337632
    12  F    3.768322   2.364239   2.660047   3.499879   1.335104
    13  C    4.419064   2.634706   3.028301   2.888807   1.562304
    14  C    2.888915   4.023874   4.370244   4.419206   5.252409
    15  F    5.247461   3.760567   4.189983   4.117457   2.346168
    16  F    4.521448   3.021185   3.600571   2.649213   2.384023
    17  F    5.184525   3.000134   2.779594   3.325945   2.382687
    18  F    3.325840   4.497698   4.825595   5.184431   5.460355
    19  F    4.117627   4.962985   5.052497   5.247724   6.325205
    20  F    2.649538   4.403010   5.057659   4.521788   5.536098
                   11         12         13         14         15
    11  F    0.000000
    12  F    2.195351   0.000000
    13  C    2.333624   2.331427   0.000000
    14  C    5.390911   5.502432   6.618857   0.000000
    15  F    2.686668   2.670701   1.327369   7.596890   0.000000
    16  F    2.729390   3.493826   1.325750   6.875725   2.157758
    17  F    3.496077   2.740734   1.326581   6.946591   2.160401
    18  F    5.544455   5.424961   6.946304   1.326580   7.765294
    19  F    6.596228   6.559024   7.596955   1.327369   8.658314
    20  F    5.384840   5.998925   6.875919   1.325750   7.815340
                   16         17         18         19         20
    16  F    0.000000
    17  F    2.156652   0.000000
    18  F    7.401599   7.303287   0.000000
    19  F    7.815251   7.765649   2.160393   0.000000
    20  F    6.937726   7.402049   2.156653   2.157762   0.000000
 Stoichiometry    C6F14
 Framework group  C1[X(C6F14)]
 Deg. of freedom    54
 Full point group                 C1      NOp   1
 Largest Abelian subgroup         C1      NOp   1
 Largest concise Abelian subgroup C1      NOp   1
                         Standard orientation:                         
 ---------------------------------------------------------------------
 Center     Atomic      Atomic             Coordinates (Angstroms)
 Number     Number       Type             X           Y           Z
 ---------------------------------------------------------------------
      1          6           0       -1.931028   -0.534771   -0.143183
      2          9           0       -1.933226   -1.009704   -1.390954
      3          9           0       -1.869117   -1.538553    0.738774
      4          6           0       -0.678843    0.390377    0.042901
      5          9           0       -0.681813    1.295154   -0.945540
      6          9           0       -0.790741    1.031370    1.212510
      7          6           0        0.678848   -0.390453    0.042829
      8          9           0        0.681760   -1.295173   -0.945666
      9          9           0        0.790815   -1.031518    1.212390
     10          6           0        1.931013    0.534719   -0.143300
     11          9           0        1.868939    1.538685    0.738435
     12          9           0        1.933333    1.009374   -1.391177
     13          6           0        3.304699   -0.176923    0.074294
     14          6           0       -3.304689    0.177011    0.074106
     15          9           0        4.270666    0.709222   -0.134424
     16          9           0        3.409106   -0.640419    1.311987
     17          9           0        3.453896   -1.185783   -0.774091
     18          9           0       -3.453529    1.186024   -0.774159
     19          9           0       -4.270711   -0.708976   -0.135028
     20          9           0       -3.409379    0.640323    1.311844
 ---------------------------------------------------------------------
 Rotational constants (GHZ):           0.8341674           0.1989430           0.1944555
 Standard basis: 6-311+G(2d) (5D, 7F)
 There are   580 symmetry adapted cartesian basis functions of A   symmetry.
 There are   540 symmetry adapted basis functions of A   symmetry.
   540 basis functions,   840 primitive gaussians,   580 cartesian basis functions
    81 alpha electrons       81 beta electrons
       nuclear repulsion energy      2099.8172527199 Hartrees.
 NAtoms=   20 NActive=   20 NUniq=   20 SFac= 1.00D+00 NAtFMM=   60 NAOKFM=F Big=F
 Integral buffers will be    131072 words long.
 Raffenetti 2 integral format.
 Two-electron integral symmetry is turned on.
 Nuclear repulsion after empirical dispersion term =     2099.8030266783 Hartrees.
 One-electron integrals computed using PRISM.
 NBasis=   540 RedAO= T EigKep=  3.70D-06  NBF=   540
 NBsUse=   540 1.00D-06 EigRej= -1.00D+00 NBFU=   540
 Initial guess from the checkpoint file:  "hexane.chk"
 B after Tr=    -0.000000   -0.000000    0.000000
         Rot=    1.000000   -0.000000    0.000000   -0.000573 Ang=  -0.07 deg.
 ExpMin= 4.38D-02 ExpMax= 1.14D+04 ExpMxC= 1.72D+03 IAcc=2 IRadAn=         4 AccDes= 0.00D+00
 Harris functional with IExCor= 4639 and IRadAn=       4 diagonalized for initial guess.
 HarFok:  IExCor= 4639 AccDes= 0.00D+00 IRadAn=         4 IDoV= 1 UseB2=F ITyADJ=14
 ICtDFT=  3500011 ScaDFX=  1.000000  1.000000  1.000000  1.000000
 FoFCou: FMM=F IPFlag=           0 FMFlag=      100000 FMFlg1=           0
         NFxFlg=           0 DoJE=T BraDBF=F KetDBF=T FulRan=T
         wScrn=  0.000000 ICntrl=       500 IOpCl=  0 I1Cent=   200000004 NGrid=           0
         NMat0=    1 NMatS0=      1 NMatT0=    0 NMatD0=    1 NMtDS0=    0 NMtDT0=    0
 Petite list used in FoFCou.
 Requested convergence on RMS density matrix=1.00D-08 within 128 cycles.
 Requested convergence on MAX density matrix=1.00D-06.
 Requested convergence on             energy=1.00D-06.
 No special actions if energy rises.
 SCF Done:  E(RwB97XD) =  -1626.50287912     A.U. after   10 cycles
            NFock= 10  Conv=0.69D-08     -V/T= 2.0026
 Calling FoFJK, ICntrl=      2127 FMM=F ISym2X=0 I1Cent= 0 IOpClX= 0 NMat=1 NMatS=1 NMatT=0.
 ***** Axes restored to original set *****
 -------------------------------------------------------------------
 Center     Atomic                   Forces (Hartrees/Bohr)
 Number     Number              X              Y              Z
 -------------------------------------------------------------------
      1        6          -0.001532411    0.006861468   -0.001536890
      2        9           0.000606660   -0.003133131    0.000488233
      3        9          -0.000665177   -0.002977384    0.001481406
      4        6           0.004075095    0.000065651    0.000244013
      5        9          -0.000448822   -0.001250564   -0.000010225
      6        9          -0.001151298   -0.000356872   -0.000248306
      7        6          -0.004074500   -0.000066829    0.000245210
      8        9           0.000443400    0.001248761   -0.000013310
      9        9           0.001155422    0.000356968   -0.000248854
     10        6           0.001531694   -0.006862419   -0.001538360
     11        9           0.000664460    0.002976821    0.001481050
     12        9          -0.000604624    0.003138198    0.000486622
     13        6           0.002496008   -0.001181323   -0.001112146
     14        6          -0.002494831    0.001180667   -0.001112791
     15        9           0.000829638   -0.000467021    0.000211122
     16        9          -0.001360381    0.001078188   -0.000031689
     17        9           0.000108139    0.000881885    0.000518351
     18        9          -0.000106066   -0.000881987    0.000519298
     19        9          -0.000829533    0.000465599    0.000208157
     20        9           0.001357127   -0.001076676   -0.000030891
 -------------------------------------------------------------------
 Cartesian Forces:  Max     0.006862419 RMS     0.001893478

 GradGradGradGradGradGradGradGradGradGradGradGradGradGradGradGradGradGrad
 Berny optimization.
 Using GEDIIS/GDIIS optimizer.
 FormGI is forming the generalized inverse of G from B-inverse, IUseBI=4.
 Internal  Forces:  Max     0.003531509 RMS     0.001061000
 Search for a local minimum.
 Step number   3 out of a maximum of  110
 All quantities printed in internal units (Hartrees-Bohrs-Radians)
 Mixed Optimization -- RFO/linear search
 Update second derivatives using D2CorX and points    1    2    3
 DE= -3.25D-03 DEPred=-2.07D-03 R= 1.57D+00
 TightC=F SS=  1.41D+00  RLast= 4.77D-01 DXNew= 5.0454D-01 1.4311D+00
 Trust test= 1.57D+00 RLast= 4.77D-01 DXMaxT set to 5.05D-01
 ITU=  1  0  0
 Use linear search instead of GDIIS.
     Eigenvalues ---    0.00204   0.00230   0.00230   0.00237   0.00257
     Eigenvalues ---    0.05210   0.05210   0.05265   0.05285   0.06950
     Eigenvalues ---    0.06954   0.06990   0.07469   0.08442   0.08805
     Eigenvalues ---    0.08905   0.08911   0.12932   0.13117   0.13143
     Eigenvalues ---    0.15434   0.19015   0.19040   0.19181   0.19199
     Eigenvalues ---    0.24457   0.24994   0.25000   0.25000   0.25000
     Eigenvalues ---    0.25000   0.25000   0.25000   0.25270   0.26484
     Eigenvalues ---    0.27073   0.27275   0.28365   0.28519   0.33793
     Eigenvalues ---    0.57072   0.57117   0.57726   0.57735   0.58700
     Eigenvalues ---    0.60197   0.60511   0.60702   0.60702   0.60702
     Eigenvalues ---    0.60703   0.60703   0.60784   0.61151
 RFO step:  Lambda=-1.15909293D-03 EMin= 2.03805258D-03
 Quartic linear search produced a step of -0.13954.
 Iteration  1 RMS(Cart)=  0.10486371 RMS(Int)=  0.00595051
 Iteration  2 RMS(Cart)=  0.00679440 RMS(Int)=  0.00003455
 Iteration  3 RMS(Cart)=  0.00002399 RMS(Int)=  0.00003051
 Iteration  4 RMS(Cart)=  0.00000000 RMS(Int)=  0.00003051
 Variable       Old X    -DE/DX   Delta X   Delta X   Delta X     New X
                                 (Linear)    (Quad)   (Total)
    R1        2.52298   0.00159  -0.00075   0.00236   0.00162   2.52460
    R2        2.52776   0.00113  -0.00075   0.00177   0.00102   2.52878
    R3        2.96301  -0.00353   0.00246  -0.01463  -0.01216   2.95085
    R4        2.95233  -0.00168   0.00232  -0.00942  -0.00711   2.94522
    R5        2.53226  -0.00075   0.00007  -0.00112  -0.00105   2.53121
    R6        2.52925   0.00009  -0.00008   0.00018   0.00010   2.52936
    R7        2.95971  -0.00162  -0.00265  -0.00126  -0.00392   2.95580
    R8        2.53227  -0.00075   0.00007  -0.00112  -0.00106   2.53121
    R9        2.52925   0.00009  -0.00008   0.00018   0.00010   2.52935
   R10        2.96302  -0.00353   0.00246  -0.01463  -0.01216   2.95086
   R11        2.52776   0.00113  -0.00075   0.00177   0.00102   2.52878
   R12        2.52298   0.00159  -0.00075   0.00236   0.00162   2.52460
   R13        2.95233  -0.00168   0.00232  -0.00942  -0.00711   2.94522
   R14        2.50836  -0.00091  -0.00039  -0.00076  -0.00115   2.50721
   R15        2.50530  -0.00037  -0.00005  -0.00047  -0.00052   2.50478
   R16        2.50687  -0.00033  -0.00011  -0.00040  -0.00051   2.50636
   R17        2.50687  -0.00033  -0.00011  -0.00040  -0.00051   2.50636
   R18        2.50836  -0.00091  -0.00039  -0.00076  -0.00115   2.50721
   R19        2.50531  -0.00037  -0.00005  -0.00047  -0.00052   2.50478
    A1        1.92767  -0.00210  -0.00452  -0.01689  -0.02138   1.90628
    A2        1.89877   0.00063  -0.00169   0.00408   0.00245   1.90122
    A3        1.86566   0.00090   0.00039   0.00492   0.00531   1.87097
    A4        1.90451   0.00020  -0.00122   0.00453   0.00336   1.90788
    A5        1.86594   0.00177   0.00043   0.01135   0.01179   1.87774
    A6        2.00078  -0.00150   0.00609  -0.00893  -0.00281   1.99797
    A7        1.88502   0.00025   0.00266  -0.00332  -0.00062   1.88440
    A8        1.89602   0.00145   0.00445   0.00253   0.00700   1.90302
    A9        1.98026  -0.00079  -0.00164  -0.00173  -0.00338   1.97688
   A10        1.89763   0.00025   0.00096   0.00353   0.00461   1.90224
   A11        1.91612  -0.00017  -0.00413   0.00069  -0.00345   1.91267
   A12        1.88733  -0.00092  -0.00229  -0.00140  -0.00369   1.88364
   A13        1.91613  -0.00016  -0.00413   0.00070  -0.00344   1.91269
   A14        1.88732  -0.00092  -0.00229  -0.00139  -0.00368   1.88364
   A15        1.98025  -0.00080  -0.00164  -0.00175  -0.00341   1.97685
   A16        1.89763   0.00025   0.00096   0.00352   0.00460   1.90223
   A17        1.88501   0.00024   0.00265  -0.00334  -0.00064   1.88437
   A18        1.89604   0.00145   0.00445   0.00256   0.00703   1.90307
   A19        1.90451   0.00020  -0.00122   0.00455   0.00338   1.90789
   A20        1.89876   0.00063  -0.00169   0.00406   0.00243   1.90119
   A21        2.00080  -0.00150   0.00610  -0.00893  -0.00280   1.99800
   A22        1.92768  -0.00210  -0.00452  -0.01691  -0.02140   1.90628
   A23        1.86594   0.00177   0.00043   0.01136   0.01181   1.87775
   A24        1.86564   0.00090   0.00039   0.00492   0.00531   1.87095
   A25        1.89007  -0.00044   0.00048  -0.00504  -0.00457   1.88549
   A26        1.93748   0.00128   0.00293   0.00112   0.00410   1.94158
   A27        1.93503  -0.00114   0.00287  -0.00714  -0.00424   1.93079
   A28        1.89957  -0.00069  -0.00379   0.00110  -0.00269   1.89688
   A29        1.90212   0.00009  -0.00313   0.00100  -0.00217   1.89995
   A30        1.89897   0.00088   0.00024   0.00900   0.00931   1.90828
   A31        1.93505  -0.00114   0.00287  -0.00713  -0.00423   1.93082
   A32        1.89008  -0.00044   0.00048  -0.00504  -0.00457   1.88550
   A33        1.93746   0.00128   0.00293   0.00111   0.00409   1.94154
   A34        1.90211   0.00009  -0.00313   0.00100  -0.00216   1.89995
   A35        1.89897   0.00088   0.00024   0.00899   0.00931   1.90828
   A36        1.89958  -0.00069  -0.00379   0.00110  -0.00269   1.89689
    D1        0.91537   0.00009  -0.00243  -0.07144  -0.07382   0.84155
    D2        2.97074   0.00131   0.00287  -0.06770  -0.06484   2.90591
    D3       -1.21291   0.00064   0.00200  -0.06881  -0.06680  -1.27972
    D4        3.01963  -0.00197  -0.00954  -0.08680  -0.09632   2.92331
    D5       -1.20818  -0.00075  -0.00423  -0.08307  -0.08734  -1.29552
    D6        0.89135  -0.00141  -0.00511  -0.08418  -0.08931   0.80204
    D7       -1.17183  -0.00054  -0.00574  -0.07485  -0.08055  -1.25238
    D8        0.88355   0.00068  -0.00043  -0.07111  -0.07157   0.81198
    D9        2.98308   0.00001  -0.00130  -0.07222  -0.07353   2.90954
   D10       -1.06810  -0.00017  -0.01410  -0.06349  -0.07760  -1.14570
   D11        1.01789  -0.00102  -0.01593  -0.06966  -0.08556   0.93233
   D12        3.10220  -0.00138  -0.01854  -0.07080  -0.08930   3.01290
   D13       -3.13265   0.00091  -0.00927  -0.05213  -0.06144   3.08909
   D14       -1.04667   0.00006  -0.01110  -0.05830  -0.06940  -1.11606
   D15        1.03765  -0.00030  -0.01370  -0.05945  -0.07314   0.96451
   D16        1.03747   0.00033  -0.01203  -0.06040  -0.07247   0.96501
   D17        3.12346  -0.00052  -0.01386  -0.06657  -0.08042   3.04304
   D18       -1.07541  -0.00088  -0.01647  -0.06771  -0.08417  -1.15958
   D19        0.77123  -0.00044   0.00099  -0.03432  -0.03334   0.73789
   D20       -1.29664  -0.00010   0.00337  -0.03815  -0.03478  -1.33142
   D21        2.88209  -0.00078   0.00039  -0.03929  -0.03892   2.84317
   D22       -1.33964  -0.00009   0.00159  -0.02938  -0.02779  -1.36742
   D23        2.87568   0.00024   0.00397  -0.03321  -0.02923   2.84645
   D24        0.77122  -0.00044   0.00099  -0.03435  -0.03337   0.73785
   D25        2.87567   0.00024   0.00397  -0.03320  -0.02922   2.84645
   D26        0.80780   0.00058   0.00635  -0.03703  -0.03066   0.77714
   D27       -1.29665  -0.00010   0.00336  -0.03817  -0.03480  -1.33146
   D28        0.89101  -0.00141  -0.00507  -0.08371  -0.08880   0.80221
   D29       -1.21326   0.00065   0.00204  -0.06832  -0.06627  -1.27953
   D30        2.98275   0.00002  -0.00126  -0.07172  -0.07299   2.90976
   D31        3.01929  -0.00197  -0.00950  -0.08634  -0.09583   2.92347
   D32        0.91502   0.00009  -0.00239  -0.07096  -0.07330   0.84173
   D33       -1.17216  -0.00054  -0.00569  -0.07435  -0.08002  -1.25217
   D34       -1.20851  -0.00075  -0.00420  -0.08261  -0.08684  -1.29536
   D35        2.97040   0.00131   0.00291  -0.06722  -0.06432   2.90609
   D36        0.88322   0.00068  -0.00039  -0.07062  -0.07103   0.81219
   D37        3.12386  -0.00052  -0.01391  -0.06705  -0.08095   3.04291
   D38       -1.07500  -0.00088  -0.01651  -0.06819  -0.08469  -1.15969
   D39        1.03788   0.00033  -0.01207  -0.06088  -0.07298   0.96490
   D40       -1.04626   0.00006  -0.01113  -0.05875  -0.06989  -1.11614
   D41        1.03807  -0.00030  -0.01374  -0.05989  -0.07362   0.96444
   D42       -3.13224   0.00091  -0.00930  -0.05257  -0.06192   3.08903
   D43        1.01830  -0.00102  -0.01597  -0.07012  -0.08606   0.93224
   D44        3.10262  -0.00138  -0.01858  -0.07126  -0.08980   3.01282
   D45       -1.06768  -0.00017  -0.01414  -0.06394  -0.07809  -1.14577
         Item               Value     Threshold  Converged?
 Maximum Force            0.003532     0.000450     NO 
 RMS     Force            0.001061     0.000300     NO 
 Maximum Displacement     0.378176     0.001800     NO 
 RMS     Displacement     0.105717     0.001200     NO 
 Predicted change in Energy=-9.019826D-04
 GradGradGradGradGradGradGradGradGradGradGradGradGradGradGradGradGradGrad

                          Input orientation:                          
 ---------------------------------------------------------------------
 Center     Atomic      Atomic             Coordinates (Angstroms)
 Number     Number       Type             X           Y           Z
 ---------------------------------------------------------------------
      1          6           0        1.992209   -0.020100    0.108016
      2          9           0        2.127861   -0.386487    1.385571
      3          9           0        2.164460   -1.089545   -0.677685
      4          6           0        0.554721    0.551290   -0.105269
      5          9           0        0.311248    1.433184    0.873064
      6          9           0        0.506861    1.183964   -1.283808
      7          6           0       -0.554700   -0.551306   -0.105400
      8          9           0       -0.311378   -1.433325    0.872856
      9          9           0       -0.506689   -1.183845   -1.284004
     10          6           0       -1.992194    0.020102    0.107829
     11          9           0       -2.164430    1.089535   -0.677892
     12          9           0       -2.127831    0.386526    1.385375
     13          6           0       -3.140240   -0.985700   -0.207460
     14          6           0        3.140228    0.985718   -0.207328
     15          9           0       -4.289684   -0.416275    0.131393
     16          9           0       -3.177759   -1.282307   -1.498777
     17          9           0       -2.990623   -2.100673    0.495073
     18          9           0        2.990680    2.100692    0.495216
     19          9           0        4.289703    0.416294    0.131420
     20          9           0        3.177617    1.282323   -1.498649
 ---------------------------------------------------------------------
                    Distance matrix (angstroms):
                    1          2          3          4          5
     1  C    0.000000
     2  F    1.335959   0.000000
     3  F    1.338173   2.180058   0.000000
     4  C    1.561522   2.361524   2.368809   0.000000
     5  F    2.350098   2.621821   3.493333   1.339459   0.000000
     6  F    2.364996   3.495646   2.878170   1.338477   2.180017
     7  C    2.610455   3.073482   2.830378   1.564140   2.376018
     8  F    2.808683   2.703448   2.941451   2.376037   2.933349
     9  F    3.088125   3.834483   2.740721   2.350894   3.488668
    10  C    3.984606   4.332758   4.373341   2.610430   2.808599
    11  F    4.373395   4.986008   4.846408   2.830439   2.941520
    12  F    4.332634   4.325328   4.985856   3.073312   2.703157
    13  C    5.232012   5.536216   5.326512   4.003189   4.351012
    14  C    1.558543   2.333486   2.340955   2.623735   3.061143
    15  F    6.294417   6.539016   6.539409   4.945751   5.013896
    16  F    5.559093   6.105043   5.408387   4.385812   5.017239
    17  F    5.413614   5.470859   5.382622   4.467973   4.851120
    18  F    2.375842   2.779073   3.497992   2.948750   2.787058
    19  F    2.338689   2.625055   2.727427   3.744908   4.172793
    20  F    2.383877   3.493657   2.706700   3.058676   3.723420
                    6          7          8          9         10
     6  F    0.000000
     7  C    2.350898   0.000000
     8  F    3.488685   1.339458   0.000000
     9  F    2.575618   1.338476   2.180008   0.000000
    10  C    3.088123   1.561526   2.350077   2.365040   0.000000
    11  F    2.740774   2.368826   3.493343   2.878147   1.338173
    12  F    3.834324   2.361500   2.621838   3.495676   1.335960
    13  C    4.378049   2.623763   3.061031   2.851982   1.558543
    14  C    2.851794   4.003164   4.351108   4.377926   5.231968
    15  F    5.250753   3.744918   4.172658   4.111395   2.338684
    16  F    4.439046   3.058807   3.723384   2.681499   2.383908
    17  F    5.117192   2.948699   2.786831   3.189924   2.375817
    18  F    3.189776   4.468059   4.851337   5.117167   5.413682
    19  F    4.111214   4.945763   5.014057   5.250643   6.294422
    20  F    2.681188   4.385604   5.017157   4.438712   5.558859
                   11         12         13         14         15
    11  F    0.000000
    12  F    2.180053   0.000000
    13  C    2.340964   2.333474   0.000000
    14  C    5.326499   5.536079   6.582611   0.000000
    15  F    2.727474   2.624989   1.326759   7.568613   0.000000
    16  F    2.706718   3.493663   1.325474   6.835842   2.154958
    17  F    3.497980   2.779066   1.326311   6.899746   2.158012
    18  F    5.382729   5.470822   6.899837   1.326311   7.711756
    19  F    6.539424   6.538962   7.568651   1.326758   8.619690
    20  F    5.408167   6.104737   6.835672   1.325475   7.829614
                   16         17         18         19         20
    16  F    0.000000
    17  F    2.163372   0.000000
    18  F    7.312341   7.309408   0.000000
    19  F    7.829800   7.711712   2.158010   0.000000
    20  F    6.853330   7.312097   2.163371   2.154963   0.000000
 Stoichiometry    C6F14
 Framework group  C1[X(C6F14)]
 Deg. of freedom    54
 Full point group                 C1      NOp   1
 Largest Abelian subgroup         C1      NOp   1
 Largest concise Abelian subgroup C1      NOp   1
                         Standard orientation:                         
 ---------------------------------------------------------------------
 Center     Atomic      Atomic             Coordinates (Angstroms)
 Number     Number       Type             X           Y           Z
 ---------------------------------------------------------------------
      1          6           0       -1.924615   -0.514925   -0.187123
      2          9           0       -1.964886   -0.903537   -1.464677
      3          9           0       -1.825487   -1.593607    0.598578
      4          6           0       -0.674392    0.396010    0.026162
      5          9           0       -0.657892    1.310747   -0.952171
      6          9           0       -0.785379    1.020710    1.204701
      7          6           0        0.674383   -0.396037    0.026294
      8          9           0        0.658060   -1.310857   -0.951963
      9          9           0        0.785191   -1.020642    1.204898
     10          6           0        1.924607    0.514918   -0.186935
     11          9           0        1.825468    1.593585    0.598785
     12          9           0        1.964854    0.903562   -1.464482
     13          6           0        3.286722   -0.173770    0.128353
     14          6           0       -3.286707    0.173785    0.128221
     15          9           0        4.258439    0.663627   -0.210500
     16          9           0        3.396827   -0.451727    1.419670
     17          9           0        3.419094   -1.290921   -0.574180
     18          9           0       -3.419147    1.290920   -0.574323
     19          9           0       -4.258455   -0.663618   -0.210526
     20          9           0       -3.396686    0.451772    1.419543
 ---------------------------------------------------------------------
 Rotational constants (GHZ):           0.8314849           0.2004934           0.1962662
 Standard basis: 6-311+G(2d) (5D, 7F)
 There are   580 symmetry adapted cartesian basis functions of A   symmetry.
 There are   540 symmetry adapted basis functions of A   symmetry.
   540 basis functions,   840 primitive gaussians,   580 cartesian basis functions
    81 alpha electrons       81 beta electrons
       nuclear repulsion energy      2104.0801074108 Hartrees.
 NAtoms=   20 NActive=   20 NUniq=   20 SFac= 1.00D+00 NAtFMM=   60 NAOKFM=F Big=F
 Integral buffers will be    131072 words long.
 Raffenetti 2 integral format.
 Two-electron integral symmetry is turned on.
 Nuclear repulsion after empirical dispersion term =     2104.0658582778 Hartrees.
 One-electron integrals computed using PRISM.
 NBasis=   540 RedAO= T EigKep=  3.64D-06  NBF=   540
 NBsUse=   540 1.00D-06 EigRej= -1.00D+00 NBFU=   540
 Initial guess from the checkpoint file:  "hexane.chk"
 B after Tr=     0.000000   -0.000000   -0.000000
         Rot=    1.000000    0.000001   -0.000001    0.000597 Ang=   0.07 deg.
 ExpMin= 4.38D-02 ExpMax= 1.14D+04 ExpMxC= 1.72D+03 IAcc=2 IRadAn=         4 AccDes= 0.00D+00
 Harris functional with IExCor= 4639 and IRadAn=       4 diagonalized for initial guess.
 HarFok:  IExCor= 4639 AccDes= 0.00D+00 IRadAn=         4 IDoV= 1 UseB2=F ITyADJ=14
 ICtDFT=  3500011 ScaDFX=  1.000000  1.000000  1.000000  1.000000
 FoFCou: FMM=F IPFlag=           0 FMFlag=      100000 FMFlg1=           0
         NFxFlg=           0 DoJE=T BraDBF=F KetDBF=T FulRan=T
         wScrn=  0.000000 ICntrl=       500 IOpCl=  0 I1Cent=   200000004 NGrid=           0
         NMat0=    1 NMatS0=      1 NMatT0=    0 NMatD0=    1 NMtDS0=    0 NMtDT0=    0
 Petite list used in FoFCou.
 Requested convergence on RMS density matrix=1.00D-08 within 128 cycles.
 Requested convergence on MAX density matrix=1.00D-06.
 Requested convergence on             energy=1.00D-06.
 No special actions if energy rises.
 SCF Done:  E(RwB97XD) =  -1626.50385188     A.U. after   11 cycles
            NFock= 11  Conv=0.26D-08     -V/T= 2.0025
 Calling FoFJK, ICntrl=      2127 FMM=F ISym2X=0 I1Cent= 0 IOpClX= 0 NMat=1 NMatS=1 NMatT=0.
 ***** Axes restored to original set *****
 -------------------------------------------------------------------
 Center     Atomic                   Forces (Hartrees/Bohr)
 Number     Number              X              Y              Z
 -------------------------------------------------------------------
      1        6          -0.001013076    0.001503456   -0.000601138
      2        9          -0.000288641   -0.000290670    0.001363700
      3        9           0.000305699   -0.001163682   -0.001132170
      4        6           0.000907977    0.000059578    0.000814073
      5        9          -0.000599043   -0.000163916   -0.000185009
      6        9           0.000310295    0.000694629   -0.000083551
      7        6          -0.000909495   -0.000059427    0.000812106
      8        9           0.000607908    0.000166174   -0.000181836
      9        9          -0.000319715   -0.000693279   -0.000084749
     10        6           0.001013774   -0.001501371   -0.000605250
     11        9          -0.000303992    0.001162246   -0.001133327
     12        9           0.000284833    0.000288802    0.001365465
     13        6           0.000320594    0.001044409   -0.000521274
     14        6          -0.000320419   -0.001045587   -0.000525143
     15        9          -0.000636737   -0.000337007   -0.000111933
     16        9           0.000018912    0.000146678    0.000992897
     17        9           0.000359766   -0.000362092   -0.000532569
     18        9          -0.000363755    0.000359540   -0.000531359
     19        9           0.000636570    0.000336815   -0.000111397
     20        9          -0.000011455   -0.000145296    0.000992466
 -------------------------------------------------------------------
 Cartesian Forces:  Max     0.001503456 RMS     0.000694243

 GradGradGradGradGradGradGradGradGradGradGradGradGradGradGradGradGradGrad
 Berny optimization.
 Using GEDIIS/GDIIS optimizer.
 FormGI is forming the generalized inverse of G from B-inverse, IUseBI=4.
 Internal  Forces:  Max     0.001633955 RMS     0.000528119
 Search for a local minimum.
 Step number   4 out of a maximum of  110
 All quantities printed in internal units (Hartrees-Bohrs-Radians)
 Mixed Optimization -- En-DIIS/RFO-DIIS
 Update second derivatives using D2CorX and points    1    2    3    4
 DE= -9.73D-04 DEPred=-9.02D-04 R= 1.08D+00
 TightC=F SS=  1.41D+00  RLast= 4.82D-01 DXNew= 8.4853D-01 1.4448D+00
 Trust test= 1.08D+00 RLast= 4.82D-01 DXMaxT set to 8.49D-01
 ITU=  1  1  0  0
 Use linear search instead of GDIIS.
     Eigenvalues ---    0.00170   0.00224   0.00230   0.00237   0.00271
     Eigenvalues ---    0.05146   0.05158   0.05310   0.05327   0.06947
     Eigenvalues ---    0.06961   0.06969   0.07498   0.08413   0.08907
     Eigenvalues ---    0.08981   0.09894   0.12865   0.13080   0.13171
     Eigenvalues ---    0.15613   0.18991   0.19000   0.19206   0.20429
     Eigenvalues ---    0.22962   0.24987   0.25000   0.25000   0.25000
     Eigenvalues ---    0.25000   0.25000   0.25318   0.25720   0.25993
     Eigenvalues ---    0.27073   0.27734   0.28519   0.28876   0.34919
     Eigenvalues ---    0.54455   0.57117   0.57384   0.57735   0.57771
     Eigenvalues ---    0.60197   0.60489   0.60701   0.60702   0.60702
     Eigenvalues ---    0.60702   0.60784   0.60983   0.61462
 RFO step:  Lambda=-3.80632474D-04 EMin= 1.69768279D-03
 Quartic linear search produced a step of  0.33825.
 Iteration  1 RMS(Cart)=  0.09635953 RMS(Int)=  0.00530828
 Iteration  2 RMS(Cart)=  0.00597549 RMS(Int)=  0.00001518
 Iteration  3 RMS(Cart)=  0.00001878 RMS(Int)=  0.00000878
 Iteration  4 RMS(Cart)=  0.00000000 RMS(Int)=  0.00000878
 Variable       Old X    -DE/DX   Delta X   Delta X   Delta X     New X
                                 (Linear)    (Quad)   (Total)
    R1        2.52460   0.00135   0.00055   0.00205   0.00259   2.52719
    R2        2.52878   0.00163   0.00035   0.00278   0.00312   2.53190
    R3        2.95085  -0.00088  -0.00411  -0.00275  -0.00686   2.94399
    R4        2.94522  -0.00033  -0.00240  -0.00134  -0.00375   2.94147
    R5        2.53121  -0.00013  -0.00036  -0.00012  -0.00048   2.53073
    R6        2.52936   0.00039   0.00003   0.00083   0.00087   2.53022
    R7        2.95580  -0.00021  -0.00132  -0.00114  -0.00246   2.95334
    R8        2.53121  -0.00013  -0.00036  -0.00012  -0.00047   2.53074
    R9        2.52935   0.00039   0.00003   0.00083   0.00087   2.53022
   R10        2.95086  -0.00089  -0.00411  -0.00276  -0.00688   2.94398
   R11        2.52878   0.00163   0.00035   0.00277   0.00312   2.53190
   R12        2.52460   0.00136   0.00055   0.00205   0.00260   2.52719
   R13        2.94522  -0.00033  -0.00240  -0.00135  -0.00375   2.94147
   R14        2.50721   0.00038  -0.00039   0.00084   0.00045   2.50766
   R15        2.50478  -0.00100  -0.00018  -0.00215  -0.00233   2.50246
   R16        2.50636   0.00006  -0.00017   0.00012  -0.00006   2.50631
   R17        2.50636   0.00006  -0.00017   0.00011  -0.00006   2.50631
   R18        2.50721   0.00038  -0.00039   0.00084   0.00045   2.50766
   R19        2.50478  -0.00100  -0.00018  -0.00215  -0.00233   2.50246
    A1        1.90628   0.00003  -0.00723   0.00474  -0.00250   1.90378
    A2        1.90122  -0.00044   0.00083  -0.00355  -0.00271   1.89851
    A3        1.87097   0.00076   0.00180   0.00496   0.00675   1.87771
    A4        1.90788   0.00055   0.00114   0.00314   0.00427   1.91215
    A5        1.87774  -0.00020   0.00399  -0.00239   0.00160   1.87934
    A6        1.99797  -0.00067  -0.00095  -0.00636  -0.00731   1.99066
    A7        1.88440   0.00068  -0.00021   0.00324   0.00300   1.88740
    A8        1.90302  -0.00001   0.00237   0.00052   0.00289   1.90591
    A9        1.97688  -0.00075  -0.00114  -0.00295  -0.00410   1.97277
   A10        1.90224  -0.00030   0.00156  -0.00265  -0.00109   1.90115
   A11        1.91267  -0.00034  -0.00117  -0.00466  -0.00583   1.90684
   A12        1.88364   0.00071  -0.00125   0.00639   0.00516   1.88880
   A13        1.91269  -0.00035  -0.00116  -0.00472  -0.00588   1.90681
   A14        1.88364   0.00072  -0.00125   0.00640   0.00516   1.88880
   A15        1.97685  -0.00074  -0.00115  -0.00287  -0.00403   1.97282
   A16        1.90223  -0.00029   0.00156  -0.00262  -0.00107   1.90116
   A17        1.88437   0.00069  -0.00022   0.00331   0.00306   1.88743
   A18        1.90307  -0.00003   0.00238   0.00040   0.00278   1.90585
   A19        1.90789   0.00055   0.00114   0.00310   0.00424   1.91213
   A20        1.90119  -0.00043   0.00082  -0.00347  -0.00263   1.89855
   A21        1.99800  -0.00068  -0.00095  -0.00644  -0.00738   1.99062
   A22        1.90628   0.00003  -0.00724   0.00477  -0.00247   1.90381
   A23        1.87775  -0.00020   0.00399  -0.00241   0.00158   1.87933
   A24        1.87095   0.00076   0.00180   0.00499   0.00677   1.87773
   A25        1.88549   0.00125  -0.00155   0.00992   0.00837   1.89386
   A26        1.94158  -0.00023   0.00139  -0.00381  -0.00243   1.93915
   A27        1.93079  -0.00011  -0.00143  -0.00072  -0.00217   1.92861
   A28        1.89688  -0.00043  -0.00091  -0.00114  -0.00205   1.89483
   A29        1.89995  -0.00018  -0.00073   0.00243   0.00168   1.90163
   A30        1.90828  -0.00031   0.00315  -0.00634  -0.00321   1.90507
   A31        1.93082  -0.00012  -0.00143  -0.00078  -0.00223   1.92859
   A32        1.88550   0.00125  -0.00155   0.00990   0.00835   1.89385
   A33        1.94154  -0.00021   0.00138  -0.00373  -0.00235   1.93919
   A34        1.89995  -0.00017  -0.00073   0.00242   0.00168   1.90163
   A35        1.90828  -0.00031   0.00315  -0.00633  -0.00320   1.90508
   A36        1.89689  -0.00043  -0.00091  -0.00116  -0.00207   1.89482
    D1        0.84155  -0.00025  -0.02497  -0.04152  -0.06649   0.77506
    D2        2.90591  -0.00023  -0.02193  -0.04255  -0.06447   2.84143
    D3       -1.27972   0.00018  -0.02260  -0.03600  -0.05859  -1.33831
    D4        2.92331  -0.00015  -0.03258  -0.03603  -0.06862   2.85469
    D5       -1.29552  -0.00013  -0.02954  -0.03707  -0.06660  -1.36212
    D6        0.80204   0.00028  -0.03021  -0.03051  -0.06072   0.74132
    D7       -1.25238  -0.00046  -0.02725  -0.04112  -0.06838  -1.32076
    D8        0.81198  -0.00044  -0.02421  -0.04215  -0.06636   0.74562
    D9        2.90954  -0.00003  -0.02487  -0.03560  -0.06048   2.84907
   D10       -1.14570  -0.00028  -0.02625  -0.05172  -0.07796  -1.22366
   D11        0.93233   0.00021  -0.02894  -0.04317  -0.07210   0.86023
   D12        3.01290   0.00033  -0.03021  -0.04058  -0.07079   2.94211
   D13        3.08909  -0.00061  -0.02078  -0.05859  -0.07937   3.00972
   D14       -1.11606  -0.00012  -0.02347  -0.05004  -0.07351  -1.18957
   D15        0.96451   0.00001  -0.02474  -0.04746  -0.07220   0.89231
   D16        0.96501  -0.00073  -0.02451  -0.05670  -0.08122   0.88378
   D17        3.04304  -0.00024  -0.02720  -0.04815  -0.07536   2.96768
   D18       -1.15958  -0.00011  -0.02847  -0.04557  -0.07405  -1.23362
   D19        0.73789  -0.00014  -0.01128  -0.03408  -0.04535   0.69254
   D20       -1.33142  -0.00001  -0.01176  -0.03199  -0.04374  -1.37516
   D21        2.84317   0.00000  -0.01316  -0.03512  -0.04827   2.79490
   D22       -1.36742  -0.00027  -0.00940  -0.03293  -0.04235  -1.40978
   D23        2.84645  -0.00014  -0.00989  -0.03085  -0.04074   2.80571
   D24        0.73785  -0.00013  -0.01129  -0.03398  -0.04527   0.69259
   D25        2.84645  -0.00014  -0.00988  -0.03085  -0.04074   2.80571
   D26        0.77714  -0.00001  -0.01037  -0.02877  -0.03913   0.73801
   D27       -1.33146   0.00000  -0.01177  -0.03190  -0.04366  -1.37512
   D28        0.80221   0.00028  -0.03004  -0.03148  -0.06152   0.74070
   D29       -1.27953   0.00018  -0.02242  -0.03704  -0.05945  -1.33898
   D30        2.90976  -0.00003  -0.02469  -0.03668  -0.06138   2.84838
   D31        2.92347  -0.00015  -0.03241  -0.03698  -0.06939   2.85407
   D32        0.84173  -0.00026  -0.02479  -0.04253  -0.06733   0.77440
   D33       -1.25217  -0.00046  -0.02707  -0.04218  -0.06926  -1.32143
   D34       -1.29536  -0.00013  -0.02937  -0.03801  -0.06738  -1.36274
   D35        2.90609  -0.00023  -0.02176  -0.04357  -0.06531   2.84077
   D36        0.81219  -0.00044  -0.02403  -0.04321  -0.06724   0.74494
   D37        3.04291  -0.00023  -0.02738  -0.04730  -0.07468   2.96823
   D38       -1.15969  -0.00010  -0.02865  -0.04473  -0.07339  -1.23308
   D39        0.96490  -0.00072  -0.02469  -0.05590  -0.08059   0.88431
   D40       -1.11614  -0.00012  -0.02364  -0.04931  -0.07294  -1.18909
   D41        0.96444   0.00001  -0.02490  -0.04674  -0.07165   0.89280
   D42        3.08903  -0.00061  -0.02094  -0.05791  -0.07885   3.01018
   D43        0.93224   0.00021  -0.02911  -0.04240  -0.07149   0.86075
   D44        3.01282   0.00033  -0.03038  -0.03982  -0.07020   2.94263
   D45       -1.14577  -0.00029  -0.02642  -0.05100  -0.07740  -1.22318
         Item               Value     Threshold  Converged?
 Maximum Force            0.001634     0.000450     NO 
 RMS     Force            0.000528     0.000300     NO 
 Maximum Displacement     0.374500     0.001800     NO 
 RMS     Displacement     0.097289     0.001200     NO 
 Predicted change in Energy=-3.543103D-04
 GradGradGradGradGradGradGradGradGradGradGradGradGradGradGradGradGradGrad

                          Input orientation:                          
 ---------------------------------------------------------------------
 Center     Atomic      Atomic             Coordinates (Angstroms)
 Number     Number       Type             X           Y           Z
 ---------------------------------------------------------------------
      1          6           0        1.982162   -0.011489    0.149074
      2          9           0        2.117155   -0.286975    1.450742
      3          9           0        2.147480   -1.138407   -0.556516
      4          6           0        0.551543    0.553510   -0.098175
      5          9           0        0.283029    1.444665    0.864746
      6          9           0        0.521980    1.173715   -1.284438
      7          6           0       -0.551559   -0.553571   -0.097946
      8          9           0       -0.282833   -1.444486    0.865141
      9          9           0       -0.522219   -1.174051   -1.284068
     10          6           0       -1.982160    0.011431    0.149369
     11          9           0       -2.147330    1.138580   -0.555886
     12          9           0       -2.117314    0.286481    1.451115
     13          6           0       -3.127375   -0.965745   -0.246206
     14          6           0        3.127399    0.965868   -0.246003
     15          9           0       -4.274950   -0.473856    0.203273
     16          9           0       -3.210551   -1.095386   -1.561460
     17          9           0       -2.928009   -2.159178    0.296927
     18          9           0        2.927572    2.159264    0.297039
     19          9           0        4.274840    0.474174    0.204030
     20          9           0        3.211203    1.095518   -1.561218
 ---------------------------------------------------------------------
                    Distance matrix (angstroms):
                    1          2          3          4          5
     1  C    0.000000
     2  F    1.337331   0.000000
     3  F    1.339825   2.180583   0.000000
     4  C    1.557891   2.357265   2.370585   0.000000
     5  F    2.349388   2.589592   3.488327   1.339206   0.000000
     6  F    2.364698   3.487034   2.918566   1.338935   2.179335
     7  C    2.602809   3.097021   2.799488   1.562838   2.369865
     8  F    2.774245   2.728132   2.832175   2.369842   2.944044
     9  F    3.110847   3.902869   2.767290   2.354523   3.481882
    10  C    3.964388   4.311264   4.344460   2.602841   2.774348
    11  F    4.344230   4.923880   4.861076   2.799237   2.831701
    12  F    4.311589   4.273122   4.924363   3.097483   2.728895
    13  C    5.212890   5.553869   5.286795   3.983026   4.321475
    14  C    1.556561   2.338622   2.341929   2.612838   3.090866
    15  F    6.274406   6.515375   6.501270   4.943823   4.989333
    16  F    5.573601   6.173438   5.451628   4.360437   4.954133
    17  F    5.361363   5.503646   5.246992   4.429681   4.860131
    18  F    2.372312   2.823454   3.494529   2.894849   2.797597
    19  F    2.344197   2.605618   2.775699   3.736383   4.160884
    20  F    2.379309   3.490005   2.670460   3.083514   3.818561
                    6          7          8          9         10
     6  F    0.000000
     7  C    2.354520   0.000000
     8  F    3.481866   1.339208   0.000000
     9  F    2.569505   1.338934   2.179344   0.000000
    10  C    3.110856   1.557887   2.349412   2.364644   0.000000
    11  F    2.767172   2.370563   3.488251   2.918818   1.339825
    12  F    3.903371   2.357300   2.589388   3.486934   1.337333
    13  C    4.355802   2.612795   3.091230   2.812008   1.556557
    14  C    2.812429   3.983133   4.321357   4.356208   5.212952
    15  F    5.285670   3.736405   4.161393   4.097005   2.344204
    16  F    4.376911   3.083127   3.818611   2.703749   2.379270
    17  F    5.050873   2.895067   2.798322   3.042671   2.372330
    18  F    3.042902   4.429429   4.859677   5.050936   5.361014
    19  F    4.097420   4.943842   4.989059   5.286100   6.274326
    20  F    2.704560   4.361083   4.954506   4.377922   5.574261
                   11         12         13         14         15
    11  F    0.000000
    12  F    2.180602   0.000000
    13  C    2.341917   2.338630   0.000000
    14  C    5.286646   5.554168   6.546245   0.000000
    15  F    2.775434   2.605881   1.326994   7.554431   0.000000
    16  F    2.670622   3.490033   1.324243   6.793291   2.152564
    17  F    3.494561   2.823230   1.326282   6.835836   2.159475
    18  F    5.246324   5.503643   6.835436   1.326280   7.669318
    19  F    6.501014   6.515373   7.554394   1.326994   8.602190
    20  F    5.452195   6.174284   6.793795   1.324245   7.849768
                   16         17         18         19         20
    16  F    0.000000
    17  F    2.159881   0.000000
    18  F    7.191893   7.275767   0.000000
    19  F    7.849302   7.669694   2.159470   0.000000
    20  F    6.785204   7.192752   2.159890   2.152555   0.000000
 Stoichiometry    C6F14
 Framework group  C1[X(C6F14)]
 Deg. of freedom    54
 Full point group                 C1      NOp   1
 Largest Abelian subgroup         C1      NOp   1
 Largest concise Abelian subgroup C1      NOp   1
                         Standard orientation:                         
 ---------------------------------------------------------------------
 Center     Atomic      Atomic             Coordinates (Angstroms)
 Number     Number       Type             X           Y           Z
 ---------------------------------------------------------------------
      1          6           0       -1.917984   -0.500421   -0.228547
      2          9           0       -1.980797   -0.800704   -1.530214
      3          9           0       -1.800013   -1.633275    0.477044
      4          6           0       -0.671103    0.400234    0.018703
      5          9           0       -0.630874    1.330094   -0.944218
      6          9           0       -0.795548    1.008544    1.204966
      7          6           0        0.671141   -0.400294    0.018473
      8          9           0        0.630648   -1.329973   -0.944613
      9          9           0        0.795871   -1.008816    1.204596
     10          6           0        1.918005    0.500360   -0.228841
     11          9           0        1.799834    1.633401    0.476414
     12          9           0        1.981082    0.800260   -1.530587
     13          6           0        3.268992   -0.163888    0.166734
     14          6           0       -3.269037    0.163996    0.166531
     15          9           0        4.259635    0.596052   -0.282745
     16          9           0        3.381594   -0.268986    1.481988
     17          9           0        3.370387   -1.369603   -0.376399
     18          9           0       -3.369977    1.369789   -0.376512
     19          9           0       -4.259599   -0.595722   -0.283502
     20          9           0       -3.382252    0.268948    1.481746
 ---------------------------------------------------------------------
 Rotational constants (GHZ):           0.8283747           0.2019088           0.1980208
 Standard basis: 6-311+G(2d) (5D, 7F)
 There are   580 symmetry adapted cartesian basis functions of A   symmetry.
 There are   540 symmetry adapted basis functions of A   symmetry.
   540 basis functions,   840 primitive gaussians,   580 cartesian basis functions
    81 alpha electrons       81 beta electrons
       nuclear repulsion energy      2107.6467766739 Hartrees.
 NAtoms=   20 NActive=   20 NUniq=   20 SFac= 1.00D+00 NAtFMM=   60 NAOKFM=F Big=F
 Integral buffers will be    131072 words long.
 Raffenetti 2 integral format.
 Two-electron integral symmetry is turned on.
 Nuclear repulsion after empirical dispersion term =     2107.6325136198 Hartrees.
 One-electron integrals computed using PRISM.
 NBasis=   540 RedAO= T EigKep=  3.67D-06  NBF=   540
 NBsUse=   540 1.00D-06 EigRej= -1.00D+00 NBFU=   540
 Initial guess from the checkpoint file:  "hexane.chk"
 B after Tr=    -0.000000    0.000000    0.000000
         Rot=    0.999999   -0.000001    0.000001    0.001024 Ang=  -0.12 deg.
 ExpMin= 4.38D-02 ExpMax= 1.14D+04 ExpMxC= 1.72D+03 IAcc=2 IRadAn=         4 AccDes= 0.00D+00
 Harris functional with IExCor= 4639 and IRadAn=       4 diagonalized for initial guess.
 HarFok:  IExCor= 4639 AccDes= 0.00D+00 IRadAn=         4 IDoV= 1 UseB2=F ITyADJ=14
 ICtDFT=  3500011 ScaDFX=  1.000000  1.000000  1.000000  1.000000
 FoFCou: FMM=F IPFlag=           0 FMFlag=      100000 FMFlg1=           0
         NFxFlg=           0 DoJE=T BraDBF=F KetDBF=T FulRan=T
         wScrn=  0.000000 ICntrl=       500 IOpCl=  0 I1Cent=   200000004 NGrid=           0
         NMat0=    1 NMatS0=      1 NMatT0=    0 NMatD0=    1 NMtDS0=    0 NMtDT0=    0
 Petite list used in FoFCou.
 Requested convergence on RMS density matrix=1.00D-08 within 128 cycles.
 Requested convergence on MAX density matrix=1.00D-06.
 Requested convergence on             energy=1.00D-06.
 No special actions if energy rises.
 SCF Done:  E(RwB97XD) =  -1626.50411711     A.U. after   11 cycles
            NFock= 11  Conv=0.23D-08     -V/T= 2.0025
 Calling FoFJK, ICntrl=      2127 FMM=F ISym2X=0 I1Cent= 0 IOpClX= 0 NMat=1 NMatS=1 NMatT=0.
 ***** Axes restored to original set *****
 -------------------------------------------------------------------
 Center     Atomic                   Forces (Hartrees/Bohr)
 Number     Number              X              Y              Z
 -------------------------------------------------------------------
      1        6           0.000626921   -0.000803595    0.000514570
      2        9          -0.000244707    0.000212051   -0.000023694
      3        9           0.000122567   -0.000058208   -0.000679359
      4        6          -0.001100049    0.000658513    0.000203029
      5        9           0.000027561    0.000117991    0.000109488
      6        9           0.000271138    0.000291338   -0.000074475
      7        6           0.001105029   -0.000660621    0.000208470
      8        9          -0.000042315   -0.000124232    0.000100338
      9        9          -0.000249654   -0.000294791   -0.000073871
     10        6          -0.000630679    0.000799012    0.000521492
     11        9          -0.000128473    0.000059118   -0.000678311
     12        9           0.000249488   -0.000204569   -0.000030067
     13        6          -0.001063071    0.000480942   -0.000434500
     14        6           0.001065766   -0.000479320   -0.000430950
     15        9           0.000078066   -0.000244218    0.000181645
     16        9           0.000465908    0.000274384   -0.000347301
     17        9           0.000083786   -0.000696569    0.000550707
     18        9          -0.000076543    0.000701903    0.000547092
     19        9          -0.000076236    0.000243525    0.000179286
     20        9          -0.000484503   -0.000272654   -0.000343589
 -------------------------------------------------------------------
 Cartesian Forces:  Max     0.001105029 RMS     0.000470313

 GradGradGradGradGradGradGradGradGradGradGradGradGradGradGradGradGradGrad
 Berny optimization.
 Using GEDIIS/GDIIS optimizer.
 FormGI is forming the generalized inverse of G from B-inverse, IUseBI=4.
 Internal  Forces:  Max     0.001003259 RMS     0.000321502
 Search for a local minimum.
 Step number   5 out of a maximum of  110
 All quantities printed in internal units (Hartrees-Bohrs-Radians)
 Mixed Optimization -- En-DIIS/RFO-DIIS
 Swapping is turned off.
 Update second derivatives using D2CorX and points    4    5
 DE= -2.65D-04 DEPred=-3.54D-04 R= 7.49D-01
 TightC=F SS=  1.41D+00  RLast= 4.42D-01 DXNew= 1.4270D+00 1.3247D+00
 Trust test= 7.49D-01 RLast= 4.42D-01 DXMaxT set to 1.32D+00
 ITU=  1  1  1  0  0
     Eigenvalues ---    0.00182   0.00230   0.00237   0.00265   0.00348
     Eigenvalues ---    0.05208   0.05227   0.05340   0.05374   0.06952
     Eigenvalues ---    0.06966   0.06970   0.07553   0.08457   0.08847
     Eigenvalues ---    0.08902   0.09763   0.12810   0.12943   0.13071
     Eigenvalues ---    0.15555   0.18952   0.18981   0.19135   0.19457
     Eigenvalues ---    0.23231   0.24442   0.25000   0.25000   0.25000
     Eigenvalues ---    0.25000   0.25000   0.25002   0.25709   0.26387
     Eigenvalues ---    0.27073   0.27754   0.28519   0.29572   0.35021
     Eigenvalues ---    0.53334   0.57117   0.57296   0.57735   0.57768
     Eigenvalues ---    0.60197   0.60505   0.60702   0.60702   0.60702
     Eigenvalues ---    0.60713   0.60784   0.61256   0.61437
 En-DIIS/RFO-DIIS/Sim-DIIS IScMMF=       -3 using points:     5    4
 RFO step:  Lambda=-1.15871034D-04.
 DidBck=F Rises=F RFO-DIIS coefs:    0.97251    0.02749
 Iteration  1 RMS(Cart)=  0.03071305 RMS(Int)=  0.00030934
 Iteration  2 RMS(Cart)=  0.00045639 RMS(Int)=  0.00000132
 Iteration  3 RMS(Cart)=  0.00000005 RMS(Int)=  0.00000132
 Variable       Old X    -DE/DX   Delta X   Delta X   Delta X     New X
                                 (Linear)    (Quad)   (Total)
    R1        2.52719  -0.00009  -0.00007  -0.00020  -0.00027   2.52692
    R2        2.53190   0.00042  -0.00009   0.00060   0.00051   2.53241
    R3        2.94399   0.00099   0.00019   0.00285   0.00303   2.94702
    R4        2.94147   0.00045   0.00010   0.00101   0.00111   2.94259
    R5        2.53073   0.00015   0.00001   0.00022   0.00024   2.53097
    R6        2.53022   0.00019  -0.00002   0.00035   0.00032   2.53054
    R7        2.95334   0.00052   0.00007   0.00105   0.00112   2.95445
    R8        2.53074   0.00015   0.00001   0.00022   0.00023   2.53097
    R9        2.53022   0.00020  -0.00002   0.00035   0.00033   2.53054
   R10        2.94398   0.00100   0.00019   0.00289   0.00308   2.94706
   R11        2.53190   0.00042  -0.00009   0.00060   0.00051   2.53241
   R12        2.52719  -0.00010  -0.00007  -0.00020  -0.00028   2.52692
   R13        2.94147   0.00045   0.00010   0.00101   0.00112   2.94258
   R14        2.50766  -0.00010  -0.00001  -0.00014  -0.00015   2.50750
   R15        2.50246   0.00029   0.00006   0.00017   0.00023   2.50269
   R16        2.50631   0.00086   0.00000   0.00118   0.00118   2.50749
   R17        2.50631   0.00087   0.00000   0.00118   0.00118   2.50749
   R18        2.50766  -0.00009  -0.00001  -0.00014  -0.00015   2.50750
   R19        2.50246   0.00028   0.00006   0.00016   0.00022   2.50268
    A1        1.90378   0.00024   0.00007   0.00245   0.00252   1.90630
    A2        1.89851  -0.00016   0.00007  -0.00032  -0.00024   1.89827
    A3        1.87771   0.00023  -0.00019   0.00249   0.00231   1.88002
    A4        1.91215   0.00005  -0.00012  -0.00029  -0.00042   1.91174
    A5        1.87934  -0.00024  -0.00004  -0.00181  -0.00186   1.87748
    A6        1.99066  -0.00011   0.00020  -0.00226  -0.00206   1.98860
    A7        1.88740   0.00023  -0.00008   0.00168   0.00160   1.88900
    A8        1.90591  -0.00037  -0.00008  -0.00198  -0.00206   1.90386
    A9        1.97277  -0.00020   0.00011  -0.00095  -0.00083   1.97194
   A10        1.90115  -0.00009   0.00003  -0.00052  -0.00049   1.90066
   A11        1.90684  -0.00001   0.00016  -0.00039  -0.00023   1.90661
   A12        1.88880   0.00043  -0.00014   0.00213   0.00199   1.89079
   A13        1.90681   0.00001   0.00016  -0.00034  -0.00018   1.90663
   A14        1.88880   0.00042  -0.00014   0.00212   0.00198   1.89078
   A15        1.97282  -0.00022   0.00011  -0.00102  -0.00091   1.97190
   A16        1.90116  -0.00009   0.00003  -0.00056  -0.00053   1.90062
   A17        1.88743   0.00022  -0.00008   0.00162   0.00154   1.88897
   A18        1.90585  -0.00034  -0.00008  -0.00183  -0.00191   1.90394
   A19        1.91213   0.00006  -0.00012  -0.00023  -0.00035   1.91178
   A20        1.89855  -0.00017   0.00007  -0.00041  -0.00034   1.89822
   A21        1.99062  -0.00008   0.00020  -0.00216  -0.00196   1.98866
   A22        1.90381   0.00024   0.00007   0.00240   0.00247   1.90627
   A23        1.87933  -0.00025  -0.00004  -0.00180  -0.00184   1.87749
   A24        1.87773   0.00023  -0.00019   0.00245   0.00226   1.87999
   A25        1.89386   0.00033  -0.00023   0.00249   0.00226   1.89612
   A26        1.93915  -0.00097   0.00007  -0.00351  -0.00344   1.93571
   A27        1.92861  -0.00002   0.00006  -0.00033  -0.00027   1.92834
   A28        1.89483   0.00042   0.00006   0.00147   0.00153   1.89636
   A29        1.90163  -0.00019  -0.00005  -0.00090  -0.00094   1.90069
   A30        1.90507   0.00047   0.00009   0.00084   0.00093   1.90600
   A31        1.92859  -0.00000   0.00006  -0.00027  -0.00021   1.92838
   A32        1.89385   0.00033  -0.00023   0.00253   0.00230   1.89615
   A33        1.93919  -0.00100   0.00006  -0.00361  -0.00355   1.93564
   A34        1.90163  -0.00020  -0.00005  -0.00088  -0.00093   1.90070
   A35        1.90508   0.00046   0.00009   0.00080   0.00089   1.90597
   A36        1.89482   0.00043   0.00006   0.00151   0.00157   1.89639
    D1        0.77506   0.00005   0.00183  -0.00110   0.00073   0.77579
    D2        2.84143  -0.00012   0.00177  -0.00187  -0.00010   2.84134
    D3       -1.33831   0.00003   0.00161  -0.00117   0.00044  -1.33786
    D4        2.85469   0.00028   0.00189   0.00151   0.00340   2.85809
    D5       -1.36212   0.00010   0.00183   0.00074   0.00257  -1.35955
    D6        0.74132   0.00026   0.00167   0.00144   0.00311   0.74444
    D7       -1.32076  -0.00006   0.00188  -0.00257  -0.00069  -1.32145
    D8        0.74562  -0.00024   0.00182  -0.00334  -0.00152   0.74410
    D9        2.84907  -0.00008   0.00166  -0.00264  -0.00098   2.84809
   D10       -1.22366   0.00011   0.00214  -0.01439  -0.01225  -1.23591
   D11        0.86023   0.00007   0.00198  -0.01407  -0.01209   0.84814
   D12        2.94211   0.00020   0.00195  -0.01279  -0.01085   2.93127
   D13        3.00972  -0.00016   0.00218  -0.01763  -0.01544   2.99428
   D14       -1.18957  -0.00020   0.00202  -0.01731  -0.01528  -1.20486
   D15        0.89231  -0.00007   0.00199  -0.01603  -0.01404   0.87827
   D16        0.88378   0.00001   0.00223  -0.01447  -0.01224   0.87155
   D17        2.96768  -0.00003   0.00207  -0.01415  -0.01208   2.95560
   D18       -1.23362   0.00010   0.00204  -0.01287  -0.01083  -1.24446
   D19        0.69254   0.00031   0.00125   0.05252   0.05377   0.74631
   D20       -1.37516   0.00017   0.00120   0.05217   0.05337  -1.32179
   D21        2.79490   0.00045   0.00133   0.05367   0.05500   2.84990
   D22       -1.40978   0.00015   0.00116   0.05128   0.05245  -1.35733
   D23        2.80571   0.00002   0.00112   0.05093   0.05205   2.85776
   D24        0.69259   0.00029   0.00124   0.05243   0.05367   0.74626
   D25        2.80571   0.00001   0.00112   0.05090   0.05202   2.85773
   D26        0.73801  -0.00012   0.00108   0.05055   0.05163   0.78963
   D27       -1.37512   0.00016   0.00120   0.05205   0.05325  -1.32187
   D28        0.74070   0.00026   0.00169   0.00301   0.00470   0.74540
   D29       -1.33898   0.00004   0.00163   0.00048   0.00211  -1.33686
   D30        2.84838  -0.00007   0.00169  -0.00094   0.00075   2.84913
   D31        2.85407   0.00028   0.00191   0.00305   0.00495   2.85903
   D32        0.77440   0.00006   0.00185   0.00052   0.00237   0.77677
   D33       -1.32143  -0.00005   0.00190  -0.00090   0.00100  -1.32043
   D34       -1.36274   0.00011   0.00185   0.00227   0.00412  -1.35862
   D35        2.84077  -0.00011   0.00180  -0.00026   0.00154   2.84231
   D36        0.74494  -0.00023   0.00185  -0.00168   0.00017   0.74512
   D37        2.96823  -0.00004   0.00205  -0.01561  -0.01356   2.95467
   D38       -1.23308   0.00009   0.00202  -0.01434  -0.01232  -1.24540
   D39        0.88431   0.00000   0.00222  -0.01586  -0.01364   0.87066
   D40       -1.18909  -0.00020   0.00201  -0.01861  -0.01660  -1.20569
   D41        0.89280  -0.00007   0.00197  -0.01733  -0.01536   0.87743
   D42        3.01018  -0.00016   0.00217  -0.01885  -0.01668   2.99349
   D43        0.86075   0.00006   0.00197  -0.01545  -0.01349   0.84726
   D44        2.94263   0.00019   0.00193  -0.01418  -0.01225   2.93038
   D45       -1.22318   0.00011   0.00213  -0.01570  -0.01357  -1.23675
         Item               Value     Threshold  Converged?
 Maximum Force            0.001003     0.000450     NO 
 RMS     Force            0.000322     0.000300     NO 
 Maximum Displacement     0.097276     0.001800     NO 
 RMS     Displacement     0.030696     0.001200     NO 
 Predicted change in Energy=-5.960258D-05
 GradGradGradGradGradGradGradGradGradGradGradGradGradGradGradGradGradGrad

                          Input orientation:                          
 ---------------------------------------------------------------------
 Center     Atomic      Atomic             Coordinates (Angstroms)
 Number     Number       Type             X           Y           Z
 ---------------------------------------------------------------------
      1          6           0        1.987765   -0.018830    0.140518
      2          9           0        2.146643   -0.320706    1.433462
      3          9           0        2.138465   -1.129721   -0.593693
      4          6           0        0.552160    0.553438   -0.068238
      5          9           0        0.301786    1.426342    0.916222
      6          9           0        0.503796    1.197197   -1.241456
      7          6           0       -0.552111   -0.553312   -0.068675
      8          9           0       -0.302115   -1.426648    0.915495
      9          9           0       -0.503283   -1.196590   -1.242137
     10          6           0       -1.987782    0.018918    0.139879
     11          9           0       -2.138661    1.129488   -0.594780
     12          9           0       -2.146573    0.321355    1.432700
     13          6           0       -3.125116   -0.966910   -0.259275
     14          6           0        3.125114    0.966748   -0.259220
     15          9           0       -4.281000   -0.477445    0.170903
     16          9           0       -3.188160   -1.108141   -1.574577
     17          9           0       -2.927109   -2.154602    0.298271
     18          9           0        2.927830    2.154430    0.298604
     19          9           0        4.281164    0.476903    0.170083
     20          9           0        3.187248    1.108152   -1.574546
 ---------------------------------------------------------------------
                    Distance matrix (angstroms):
                    1          2          3          4          5
     1  C    0.000000
     2  F    1.337189   0.000000
     3  F    1.340095   2.182642   0.000000
     4  C    1.559497   2.358305   2.371811   0.000000
     5  F    2.352183   2.592915   3.490944   1.339332   0.000000
     6  F    2.364474   3.486855   2.916553   1.339106   2.179195
     7  C    2.603921   3.097385   2.801266   1.563429   2.370272
     8  F    2.797515   2.736387   2.884829   2.370286   2.916205
     9  F    3.082885   3.866279   2.720990   2.356820   3.490906
    10  C    3.975727   4.345362   4.345505   2.603907   2.797440
    11  F    4.345882   4.957888   4.837130   2.801713   2.885659
    12  F    4.344907   4.340961   4.957160   3.096746   2.735363
    13  C    5.215385   5.574439   5.276705   3.983756   4.342016
    14  C    1.557150   2.340964   2.341053   2.612928   3.092584
    15  F    6.285593   6.552345   6.497661   4.947661   5.018151
    16  F    5.560428   6.174826   5.416229   4.361181   4.980704
    17  F    5.361193   5.513147   5.244618   4.424152   4.861151
    18  F    2.373136   2.832747   3.493557   2.888175   2.794221
    19  F    2.346551   2.605472   2.784915   3.737395   4.158558
    20  F    2.377035   3.488926   2.658965   3.085509   3.825057
                    6          7          8          9         10
     6  F    0.000000
     7  C    2.356827   0.000000
     8  F    3.490915   1.339330   0.000000
     9  F    2.597003   1.339106   2.179167   0.000000
    10  C    3.082919   1.559517   2.352173   2.364565   0.000000
    11  F    2.721278   2.371865   3.491084   2.916191   1.340095
    12  F    3.865575   2.358279   2.593269   3.487021   1.337187
    13  C    4.337861   2.612995   3.092051   2.809409   1.557147
    14  C    2.808773   3.983576   4.342142   4.337214   5.215302
    15  F    5.262458   3.737348   4.157756   4.096950   2.346527
    16  F    4.365328   3.086152   3.825071   2.706825   2.377084
    17  F    5.037502   2.887801   2.793112   3.027470   2.373102
    18  F    3.027213   4.424562   4.861812   5.037436   5.361795
    19  F    4.096312   4.947615   5.018524   5.261737   6.285725
    20  F    2.705512   4.360151   4.980077   4.363755   5.559373
                   11         12         13         14         15
    11  F    0.000000
    12  F    2.182618   0.000000
    13  C    2.341056   2.340929   0.000000
    14  C    5.276970   5.574031   6.542508   0.000000
    15  F    2.785341   2.604994   1.326913   7.557859   0.000000
    16  F    2.658653   3.488851   1.324365   6.774420   2.153782
    17  F    3.493486   2.833113   1.326905   6.832498   2.159190
    18  F    5.245757   5.513248   6.833165   1.326905   7.675305
    19  F    6.498079   6.552419   7.557904   1.326913   8.615186
    20  F    5.415321   6.173511   6.773608   1.324363   7.831695
                   16         17         18         19         20
    16  F    0.000000
    17  F    2.161201   0.000000
    18  F    7.180426   7.269668   0.000000
    19  F    7.832433   7.674662   2.159196   0.000000
    20  F    6.749651   7.179023   2.161176   2.153801   0.000000
 Stoichiometry    C6F14
 Framework group  C1[X(C6F14)]
 Deg. of freedom    54
 Full point group                 C1      NOp   1
 Largest Abelian subgroup         C1      NOp   1
 Largest concise Abelian subgroup C1      NOp   1
                         Standard orientation:                         
 ---------------------------------------------------------------------
 Center     Atomic      Atomic             Coordinates (Angstroms)
 Number     Number       Type             X           Y           Z
 ---------------------------------------------------------------------
      1          6           0       -1.921831   -0.508055   -0.220266
      2          9           0       -2.001425   -0.839772   -1.513209
      3          9           0       -1.794150   -1.621826    0.513945
      4          6           0       -0.671504    0.400314   -0.011510
      5          9           0       -0.643941    1.307997   -0.995969
      6          9           0       -0.783259    1.036140    1.161708
      7          6           0        0.671432   -0.400207   -0.011073
      8          9           0        0.644342   -1.308217   -0.995242
      9          9           0        0.782619   -1.035683    1.162390
     10          6           0        1.921832    0.508141   -0.219626
     11          9           0        1.794404    1.621646    0.515032
     12          9           0        2.001204    0.840380   -1.512448
     13          6           0        3.267014   -0.167040    0.179527
     14          6           0       -3.266966    0.166880    0.179472
     15          9           0        4.266650    0.592152   -0.250651
     16          9           0        3.362916   -0.288382    1.494830
     17          9           0        3.367771   -1.366902   -0.378018
     18          9           0       -3.368421    1.366554   -0.378351
     19          9           0       -4.266668   -0.592722   -0.249831
     20          9           0       -3.362028    0.288614    1.494798
 ---------------------------------------------------------------------
 Rotational constants (GHZ):           0.8266317           0.2019750           0.1980119
 Standard basis: 6-311+G(2d) (5D, 7F)
 There are   580 symmetry adapted cartesian basis functions of A   symmetry.
 There are   540 symmetry adapted basis functions of A   symmetry.
   540 basis functions,   840 primitive gaussians,   580 cartesian basis functions
    81 alpha electrons       81 beta electrons
       nuclear repulsion energy      2107.1864901093 Hartrees.
 NAtoms=   20 NActive=   20 NUniq=   20 SFac= 1.00D+00 NAtFMM=   60 NAOKFM=F Big=F
 Integral buffers will be    131072 words long.
 Raffenetti 2 integral format.
 Two-electron integral symmetry is turned on.
 Nuclear repulsion after empirical dispersion term =     2107.1722215429 Hartrees.
 One-electron integrals computed using PRISM.
 NBasis=   540 RedAO= T EigKep=  3.80D-06  NBF=   540
 NBsUse=   540 1.00D-06 EigRej= -1.00D+00 NBFU=   540
 Initial guess from the checkpoint file:  "hexane.chk"
 B after Tr=    -0.000000   -0.000000   -0.000000
         Rot=    1.000000    0.000001   -0.000002    0.000248 Ang=   0.03 deg.
 ExpMin= 4.38D-02 ExpMax= 1.14D+04 ExpMxC= 1.72D+03 IAcc=2 IRadAn=         4 AccDes= 0.00D+00
 Harris functional with IExCor= 4639 and IRadAn=       4 diagonalized for initial guess.
 HarFok:  IExCor= 4639 AccDes= 0.00D+00 IRadAn=         4 IDoV= 1 UseB2=F ITyADJ=14
 ICtDFT=  3500011 ScaDFX=  1.000000  1.000000  1.000000  1.000000
 FoFCou: FMM=F IPFlag=           0 FMFlag=      100000 FMFlg1=           0
         NFxFlg=           0 DoJE=T BraDBF=F KetDBF=T FulRan=T
         wScrn=  0.000000 ICntrl=       500 IOpCl=  0 I1Cent=   200000004 NGrid=           0
         NMat0=    1 NMatS0=      1 NMatT0=    0 NMatD0=    1 NMtDS0=    0 NMtDT0=    0
 Petite list used in FoFCou.
 Requested convergence on RMS density matrix=1.00D-08 within 128 cycles.
 Requested convergence on MAX density matrix=1.00D-06.
 Requested convergence on             energy=1.00D-06.
 No special actions if energy rises.
 SCF Done:  E(RwB97XD) =  -1626.50413455     A.U. after    9 cycles
            NFock=  9  Conv=0.82D-08     -V/T= 2.0025
 Calling FoFJK, ICntrl=      2127 FMM=F ISym2X=0 I1Cent= 0 IOpClX= 0 NMat=1 NMatS=1 NMatT=0.
 ***** Axes restored to original set *****
 -------------------------------------------------------------------
 Center     Atomic                   Forces (Hartrees/Bohr)
 Number     Number              X              Y              Z
 -------------------------------------------------------------------
      1        6           0.000231496   -0.000208536    0.000196452
      2        9          -0.000139018   -0.000067507   -0.000308989
      3        9           0.000277117   -0.000125147    0.000223792
      4        6          -0.000664851   -0.000041790    0.000209041
      5        9          -0.000233576   -0.000332649   -0.000070240
      6        9           0.000321711   -0.000160776   -0.000250298
      7        6           0.000656807    0.000046121    0.000203649
      8        9           0.000250347    0.000342552   -0.000054161
      9        9          -0.000354488    0.000167896   -0.000255587
     10        6          -0.000223756    0.000213923    0.000187989
     11        9          -0.000263852    0.000124538    0.000222775
     12        9           0.000138839    0.000058760   -0.000300819
     13        6          -0.000512647    0.000281500   -0.000094460
     14        6           0.000506664   -0.000285154   -0.000100205
     15        9           0.000241443   -0.000153243   -0.000066177
     16        9           0.000137438    0.000014621   -0.000070650
     17        9          -0.000098387   -0.000413888    0.000229147
     18        9           0.000085572    0.000406245    0.000237662
     19        9          -0.000245840    0.000153137   -0.000062493
     20        9          -0.000111016   -0.000020602   -0.000076428
 -------------------------------------------------------------------
 Cartesian Forces:  Max     0.000664851 RMS     0.000254344

 GradGradGradGradGradGradGradGradGradGradGradGradGradGradGradGradGradGrad
 Berny optimization.
 Using GEDIIS/GDIIS optimizer.
 FormGI is forming the generalized inverse of G from B-inverse, IUseBI=4.
 Internal  Forces:  Max     0.000628237 RMS     0.000215813
 Search for a local minimum.
 Step number   6 out of a maximum of  110
 All quantities printed in internal units (Hartrees-Bohrs-Radians)
 Mixed Optimization -- En-DIIS/RFO-DIIS
 Swapping is turned off.
 Update second derivatives using D2CorX and points    4    5    6
 DE= -1.74D-05 DEPred=-5.96D-05 R= 2.93D-01
 Trust test= 2.93D-01 RLast= 1.70D-01 DXMaxT set to 1.32D+00
 ITU=  0  1  1  1  0  0
     Eigenvalues ---    0.00225   0.00230   0.00237   0.00265   0.00547
     Eigenvalues ---    0.05214   0.05233   0.05345   0.05503   0.06942
     Eigenvalues ---    0.06960   0.06970   0.07679   0.08487   0.08831
     Eigenvalues ---    0.08890   0.09811   0.12800   0.12920   0.13032
     Eigenvalues ---    0.15521   0.17216   0.18945   0.18993   0.19108
     Eigenvalues ---    0.22971   0.24879   0.24999   0.25000   0.25000
     Eigenvalues ---    0.25000   0.25000   0.25109   0.25725   0.26376
     Eigenvalues ---    0.27074   0.27970   0.28519   0.29068   0.35072
     Eigenvalues ---    0.52514   0.57117   0.57351   0.57735   0.57788
     Eigenvalues ---    0.60197   0.60223   0.60534   0.60702   0.60702
     Eigenvalues ---    0.60702   0.60784   0.61150   0.61536
 En-DIIS/RFO-DIIS/Sim-DIIS IScMMF=       -3 using points:     6    5    4
 RFO step:  Lambda=-5.36887177D-05.
 DidBck=T Rises=F RFO-DIIS coefs:    0.52760    0.45830    0.01410
 Iteration  1 RMS(Cart)=  0.01463283 RMS(Int)=  0.00006446
 Iteration  2 RMS(Cart)=  0.00010270 RMS(Int)=  0.00000073
 Iteration  3 RMS(Cart)=  0.00000000 RMS(Int)=  0.00000073
 Variable       Old X    -DE/DX   Delta X   Delta X   Delta X     New X
                                 (Linear)    (Quad)   (Total)
    R1        2.52692  -0.00030   0.00009  -0.00037  -0.00028   2.52664
    R2        2.53241   0.00001  -0.00028   0.00042   0.00014   2.53255
    R3        2.94702   0.00063  -0.00134   0.00318   0.00184   2.94887
    R4        2.94259   0.00033  -0.00047   0.00138   0.00091   2.94350
    R5        2.53097  -0.00022  -0.00011  -0.00007  -0.00018   2.53079
    R6        2.53054   0.00013  -0.00017   0.00034   0.00018   2.53072
    R7        2.95445  -0.00047  -0.00049  -0.00015  -0.00064   2.95381
    R8        2.53097  -0.00022  -0.00010  -0.00007  -0.00017   2.53079
    R9        2.53054   0.00013  -0.00017   0.00034   0.00018   2.53072
   R10        2.94706   0.00060  -0.00136   0.00315   0.00179   2.94885
   R11        2.53241   0.00001  -0.00029   0.00042   0.00014   2.53255
   R12        2.52692  -0.00029   0.00009  -0.00037  -0.00028   2.52664
   R13        2.94258   0.00034  -0.00047   0.00140   0.00093   2.94351
   R14        2.50750  -0.00029   0.00007  -0.00038  -0.00032   2.50719
   R15        2.50269   0.00006  -0.00008   0.00024   0.00017   2.50285
   R16        2.50749   0.00045  -0.00056   0.00122   0.00066   2.50815
   R17        2.50749   0.00045  -0.00056   0.00122   0.00066   2.50815
   R18        2.50750  -0.00029   0.00007  -0.00038  -0.00032   2.50718
   R19        2.50268   0.00007  -0.00007   0.00024   0.00017   2.50285
    A1        1.90630  -0.00015  -0.00116   0.00049  -0.00067   1.90564
    A2        1.89827  -0.00010   0.00015  -0.00062  -0.00047   1.89779
    A3        1.88002   0.00015  -0.00119   0.00168   0.00050   1.88052
    A4        1.91174   0.00030   0.00014   0.00086   0.00100   1.91273
    A5        1.87748  -0.00012   0.00086  -0.00124  -0.00038   1.87710
    A6        1.98860  -0.00009   0.00108  -0.00110  -0.00002   1.98858
    A7        1.88900  -0.00002  -0.00080   0.00060  -0.00020   1.88880
    A8        1.90386  -0.00030   0.00093  -0.00164  -0.00071   1.90314
    A9        1.97194   0.00046   0.00045   0.00016   0.00062   1.97256
   A10        1.90066   0.00023   0.00025   0.00071   0.00096   1.90161
   A11        1.90661  -0.00045   0.00019  -0.00178  -0.00159   1.90502
   A12        1.89079   0.00008  -0.00101   0.00197   0.00095   1.89174
   A13        1.90663  -0.00048   0.00017  -0.00178  -0.00161   1.90502
   A14        1.89078   0.00009  -0.00101   0.00198   0.00097   1.89175
   A15        1.97190   0.00048   0.00049   0.00015   0.00064   1.97255
   A16        1.90062   0.00025   0.00027   0.00074   0.00101   1.90163
   A17        1.88897  -0.00001  -0.00077   0.00061  -0.00016   1.88881
   A18        1.90394  -0.00034   0.00086  -0.00168  -0.00082   1.90312
   A19        1.91178   0.00030   0.00011   0.00082   0.00093   1.91271
   A20        1.89822  -0.00009   0.00020  -0.00062  -0.00042   1.89779
   A21        1.98866  -0.00012   0.00103  -0.00111  -0.00008   1.98858
   A22        1.90627  -0.00015  -0.00113   0.00050  -0.00063   1.90564
   A23        1.87749  -0.00011   0.00085  -0.00123  -0.00038   1.87710
   A24        1.87999   0.00016  -0.00116   0.00172   0.00055   1.88054
   A25        1.89612   0.00005  -0.00119   0.00135   0.00017   1.89629
   A26        1.93571  -0.00025   0.00166  -0.00273  -0.00106   1.93464
   A27        1.92834   0.00024   0.00016   0.00029   0.00045   1.92879
   A28        1.89636   0.00010  -0.00070   0.00127   0.00057   1.89694
   A29        1.90069  -0.00015   0.00042  -0.00108  -0.00065   1.90004
   A30        1.90600   0.00001  -0.00039   0.00092   0.00053   1.90653
   A31        1.92838   0.00021   0.00013   0.00027   0.00040   1.92878
   A32        1.89615   0.00004  -0.00120   0.00134   0.00013   1.89628
   A33        1.93564  -0.00021   0.00171  -0.00270  -0.00099   1.93465
   A34        1.90070  -0.00014   0.00042  -0.00107  -0.00066   1.90004
   A35        1.90597   0.00002  -0.00037   0.00095   0.00057   1.90654
   A36        1.89639   0.00008  -0.00071   0.00126   0.00055   1.89693
    D1        0.77579  -0.00008   0.00059   0.00194   0.00253   0.77832
    D2        2.84134   0.00002   0.00095   0.00221   0.00317   2.84450
    D3       -1.33786   0.00021   0.00062   0.00366   0.00428  -1.33358
    D4        2.85809  -0.00015  -0.00064   0.00266   0.00202   2.86011
    D5       -1.35955  -0.00005  -0.00028   0.00293   0.00266  -1.35689
    D6        0.74444   0.00015  -0.00061   0.00439   0.00377   0.74821
    D7       -1.32145  -0.00014   0.00129   0.00095   0.00225  -1.31920
    D8        0.74410  -0.00004   0.00165   0.00123   0.00288   0.74698
    D9        2.84809   0.00015   0.00132   0.00268   0.00400   2.85208
   D10       -1.23591   0.00002   0.00689  -0.00136   0.00553  -1.23039
   D11        0.84814  -0.00000   0.00673  -0.00169   0.00504   0.85318
   D12        2.93127  -0.00000   0.00612  -0.00093   0.00520   2.93647
   D13        2.99428   0.00018   0.00841  -0.00216   0.00625   3.00053
   D14       -1.20486   0.00016   0.00826  -0.00249   0.00576  -1.19909
   D15        0.87827   0.00016   0.00765  -0.00173   0.00592   0.88419
   D16        0.87155  -0.00006   0.00693  -0.00166   0.00527   0.87682
   D17        2.95560  -0.00008   0.00677  -0.00199   0.00478   2.96038
   D18       -1.24446  -0.00009   0.00616  -0.00122   0.00494  -1.23952
   D19        0.74631  -0.00013  -0.02476  -0.00063  -0.02539   0.72092
   D20       -1.32179  -0.00021  -0.02460  -0.00165  -0.02625  -1.34803
   D21        2.84990  -0.00016  -0.02530  -0.00100  -0.02630   2.82360
   D22       -1.35733  -0.00009  -0.02418  -0.00025  -0.02443  -1.38176
   D23        2.85776  -0.00017  -0.02402  -0.00128  -0.02529   2.83247
   D24        0.74626  -0.00012  -0.02472  -0.00062  -0.02534   0.72092
   D25        2.85773  -0.00016  -0.02400  -0.00123  -0.02523   2.83250
   D26        0.78963  -0.00024  -0.02384  -0.00225  -0.02609   0.76355
   D27       -1.32187  -0.00019  -0.02454  -0.00160  -0.02614  -1.34800
   D28        0.74540   0.00015  -0.00135   0.00409   0.00274   0.74814
   D29       -1.33686   0.00021  -0.00016   0.00338   0.00322  -1.33365
   D30        2.84913   0.00014   0.00051   0.00236   0.00287   2.85200
   D31        2.85903  -0.00015  -0.00136   0.00237   0.00101   2.86003
   D32        0.77677  -0.00009  -0.00017   0.00165   0.00149   0.77825
   D33       -1.32043  -0.00015   0.00050   0.00063   0.00114  -1.31929
   D34       -1.35862  -0.00005  -0.00100   0.00266   0.00166  -1.35695
   D35        2.84231   0.00001   0.00020   0.00195   0.00214   2.84445
   D36        0.74512  -0.00005   0.00087   0.00093   0.00179   0.74691
   D37        2.95467  -0.00006   0.00746  -0.00158   0.00588   2.96055
   D38       -1.24540  -0.00006   0.00686  -0.00081   0.00605  -1.23935
   D39        0.87066  -0.00005   0.00758  -0.00128   0.00631   0.87697
   D40       -1.20569   0.00016   0.00887  -0.00214   0.00673  -1.19895
   D41        0.87743   0.00016   0.00827  -0.00137   0.00690   0.88433
   D42        2.99349   0.00017   0.00899  -0.00183   0.00716   3.00065
   D43        0.84726   0.00001   0.00738  -0.00130   0.00608   0.85333
   D44        2.93038   0.00001   0.00678  -0.00053   0.00624   2.93662
   D45       -1.23675   0.00002   0.00750  -0.00100   0.00650  -1.23024
         Item               Value     Threshold  Converged?
 Maximum Force            0.000628     0.000450     NO 
 RMS     Force            0.000216     0.000300     YES
 Maximum Displacement     0.047796     0.001800     NO 
 RMS     Displacement     0.014626     0.001200     NO 
 Predicted change in Energy=-2.702196D-05
 GradGradGradGradGradGradGradGradGradGradGradGradGradGradGradGradGradGrad

                          Input orientation:                          
 ---------------------------------------------------------------------
 Center     Atomic      Atomic             Coordinates (Angstroms)
 Number     Number       Type             X           Y           Z
 ---------------------------------------------------------------------
      1          6           0        1.986881   -0.017301    0.143291
      2          9           0        2.131600   -0.311531    1.439501
      3          9           0        2.147243   -1.132725   -0.582081
      4          6           0        0.552262    0.552998   -0.084099
      5          9           0        0.292263    1.433495    0.890929
      6          9           0        0.515765    1.186518   -1.263411
      7          6           0       -0.552259   -0.553025   -0.084111
      8          9           0       -0.292261   -1.433544    0.890900
      9          9           0       -0.515789   -1.186504   -1.263447
     10          6           0       -1.986866    0.017282    0.143283
     11          9           0       -2.147152    1.132769   -0.582007
     12          9           0       -2.131610    0.311416    1.439513
     13          6           0       -3.128029   -0.967043   -0.250524
     14          6           0        3.128029    0.967086   -0.250382
     15          9           0       -4.280557   -0.477815    0.188326
     16          9           0       -3.198798   -1.104598   -1.565912
     17          9           0       -2.928010   -2.156488    0.303392
     18          9           0        2.927845    2.156520    0.303498
     19          9           0        4.280524    0.477936    0.188642
     20          9           0        3.198980    1.104620   -1.565763
 ---------------------------------------------------------------------
                    Distance matrix (angstroms):
                    1          2          3          4          5
     1  C    0.000000
     2  F    1.337040   0.000000
     3  F    1.340168   2.182062   0.000000
     4  C    1.560473   2.358617   2.373523   0.000000
     5  F    2.352765   2.594072   3.492305   1.339237   0.000000
     6  F    2.364778   3.487235   2.916302   1.339200   2.179939
     7  C    2.604984   3.095612   2.805590   1.563091   2.368583
     8  F    2.785525   2.726715   2.865544   2.368583   2.926018
     9  F    3.099887   3.883319   2.749343   2.357427   3.486930
    10  C    3.973897   4.330133   4.351956   2.604969   2.785509
    11  F    4.351890   4.947749   4.855337   2.805510   2.865437
    12  F    4.330151   4.308482   4.947824   3.095630   2.726750
    13  C    5.217222   5.563234   5.288277   3.985319   4.331732
    14  C    1.557632   2.341674   2.341190   2.614134   3.092199
    15  F    6.284495   6.535200   6.506846   4.949033   5.005741
    16  F    5.567303   6.170462   5.435887   4.360487   4.966437
    17  F    5.362639   5.504022   5.252651   4.427613   4.858326
    18  F    2.374148   2.831216   3.494670   2.892215   2.795377
    19  F    2.346937   2.608789   2.781929   3.738978   4.160832
    20  F    2.376711   3.489469   2.660732   3.082974   3.820013
                    6          7          8          9         10
     6  F    0.000000
     7  C    2.357421   0.000000
     8  F    3.486930   1.339238   0.000000
     9  F    2.587535   1.339200   2.179954   0.000000
    10  C    3.099848   1.560466   2.352766   2.364753   0.000000
    11  F    2.749241   2.373497   3.492282   2.916288   1.340168
    12  F    3.883322   2.358610   2.594044   3.487210   1.337040
    13  C    4.352126   2.614134   3.092256   2.810334   1.557637
    14  C    2.810393   3.985336   4.331736   4.352202   5.217207
    15  F    5.280364   3.738995   4.160953   4.096750   2.346949
    16  F    4.374780   3.082878   3.819959   2.701247   2.376709
    17  F    5.048776   2.892308   2.795529   3.035566   2.374166
    18  F    3.035497   4.427528   4.858259   5.048737   5.362499
    19  F    4.096823   4.949047   5.005725   5.280486   6.284459
    20  F    2.701438   4.360605   4.966511   4.374946   5.567417
                   11         12         13         14         15
    11  F    0.000000
    12  F    2.182065   0.000000
    13  C    2.341199   2.341695   0.000000
    14  C    5.288192   5.563223   6.548215   0.000000
    15  F    2.781871   2.608894   1.326745   7.560910   0.000000
    16  F    2.660797   3.489494   1.324453   6.786107   2.154161
    17  F    3.494693   2.831179   1.327256   6.836592   2.158834
    18  F    5.252408   5.503910   6.836461   1.327256   7.675549
    19  F    6.506745   6.535125   7.560918   1.326745   8.614265
    20  F    5.435964   6.170579   6.786213   1.324453   7.843749
                   16         17         18         19         20
    16  F    0.000000
    17  F    2.161966   0.000000
    18  F    7.187861   7.272762   0.000000
    19  F    7.843668   7.675696   2.158836   0.000000
    20  F    6.768472   7.188085   2.161977   2.154160   0.000000
 Stoichiometry    C6F14
 Framework group  C1[X(C6F14)]
 Deg. of freedom    54
 Full point group                 C1      NOp   1
 Largest Abelian subgroup         C1      NOp   1
 Largest concise Abelian subgroup C1      NOp   1
                         Standard orientation:                         
 ---------------------------------------------------------------------
 Center     Atomic      Atomic             Coordinates (Angstroms)
 Number     Number       Type             X           Y           Z
 ---------------------------------------------------------------------
      1          6           0       -1.921309   -0.506512   -0.222899
      2          9           0       -1.989039   -0.827335   -1.519109
      3          9           0       -1.801785   -1.627047    0.502473
      4          6           0       -0.671526    0.399807    0.004490
      5          9           0       -0.636581    1.317224   -0.970537
      6          9           0       -0.792309    1.022776    1.183803
      7          6           0        0.671537   -0.399840    0.004503
      8          9           0        0.636599   -1.317277   -0.970508
      9          9           0        0.792337   -1.022763    1.183839
     10          6           0        1.921307    0.506484   -0.222891
     11          9           0        1.801694    1.627062    0.502399
     12          9           0        1.989085    0.827220   -1.519121
     13          6           0        3.269885   -0.166188    0.170916
     14          6           0       -3.269888    0.166224    0.170773
     15          9           0        4.266264    0.592029   -0.267934
     16          9           0        3.372376   -0.282056    1.486304
     17          9           0        3.369220   -1.368236   -0.383001
     18          9           0       -3.369061    1.368302   -0.383106
     19          9           0       -4.266253   -0.591909   -0.268250
     20          9           0       -3.372550    0.282026    1.486154
 ---------------------------------------------------------------------
 Rotational constants (GHZ):           0.8273398           0.2017928           0.1978465
 Standard basis: 6-311+G(2d) (5D, 7F)
 There are   580 symmetry adapted cartesian basis functions of A   symmetry.
 There are   540 symmetry adapted basis functions of A   symmetry.
   540 basis functions,   840 primitive gaussians,   580 cartesian basis functions
    81 alpha electrons       81 beta electrons
       nuclear repulsion energy      2106.7931062356 Hartrees.
 NAtoms=   20 NActive=   20 NUniq=   20 SFac= 1.00D+00 NAtFMM=   60 NAOKFM=F Big=F
 Integral buffers will be    131072 words long.
 Raffenetti 2 integral format.
 Two-electron integral symmetry is turned on.
 Nuclear repulsion after empirical dispersion term =     2106.7788373499 Hartrees.
 One-electron integrals computed using PRISM.
 NBasis=   540 RedAO= T EigKep=  3.75D-06  NBF=   540
 NBsUse=   540 1.00D-06 EigRej= -1.00D+00 NBFU=   540
 Initial guess from the checkpoint file:  "hexane.chk"
 B after Tr=     0.000000    0.000000    0.000000
         Rot=    1.000000   -0.000001    0.000002   -0.000042 Ang=  -0.00 deg.
 ExpMin= 4.38D-02 ExpMax= 1.14D+04 ExpMxC= 1.72D+03 IAcc=2 IRadAn=         4 AccDes= 0.00D+00
 Harris functional with IExCor= 4639 and IRadAn=       4 diagonalized for initial guess.
 HarFok:  IExCor= 4639 AccDes= 0.00D+00 IRadAn=         4 IDoV= 1 UseB2=F ITyADJ=14
 ICtDFT=  3500011 ScaDFX=  1.000000  1.000000  1.000000  1.000000
 FoFCou: FMM=F IPFlag=           0 FMFlag=      100000 FMFlg1=           0
         NFxFlg=           0 DoJE=T BraDBF=F KetDBF=T FulRan=T
         wScrn=  0.000000 ICntrl=       500 IOpCl=  0 I1Cent=   200000004 NGrid=           0
         NMat0=    1 NMatS0=      1 NMatT0=    0 NMatD0=    1 NMtDS0=    0 NMtDT0=    0
 Petite list used in FoFCou.
 Requested convergence on RMS density matrix=1.00D-08 within 128 cycles.
 Requested convergence on MAX density matrix=1.00D-06.
 Requested convergence on             energy=1.00D-06.
 No special actions if energy rises.
 SCF Done:  E(RwB97XD) =  -1626.50415990     A.U. after    9 cycles
            NFock=  9  Conv=0.38D-08     -V/T= 2.0026
 Calling FoFJK, ICntrl=      2127 FMM=F ISym2X=0 I1Cent= 0 IOpClX= 0 NMat=1 NMatS=1 NMatT=0.
 ***** Axes restored to original set *****
 -------------------------------------------------------------------
 Center     Atomic                   Forces (Hartrees/Bohr)
 Number     Number              X              Y              Z
 -------------------------------------------------------------------
      1        6           0.000040379   -0.000043667    0.000233670
      2        9           0.000035272    0.000074806   -0.000165242
      3        9          -0.000061547    0.000007074    0.000001248
      4        6          -0.000206280   -0.000048313   -0.000042361
      5        9           0.000105655   -0.000056222   -0.000085872
      6        9          -0.000045110   -0.000042750    0.000060129
      7        6           0.000206226    0.000048169   -0.000041584
      8        9          -0.000106895    0.000054479   -0.000089824
      9        9           0.000052376    0.000040213    0.000062387
     10        6          -0.000040210    0.000042975    0.000235955
     11        9           0.000056775   -0.000007113    0.000000846
     12        9          -0.000038609   -0.000075146   -0.000166535
     13        6          -0.000182369    0.000249011    0.000057304
     14        6           0.000182398   -0.000249190    0.000057868
     15        9           0.000192575   -0.000062854   -0.000106493
     16        9          -0.000044460   -0.000070185    0.000055137
     17        9          -0.000002782   -0.000144192   -0.000006755
     18        9           0.000006302    0.000146438   -0.000009183
     19        9          -0.000190921    0.000064044   -0.000107698
     20        9           0.000041223    0.000072421    0.000057001
 -------------------------------------------------------------------
 Cartesian Forces:  Max     0.000249190 RMS     0.000108850

 GradGradGradGradGradGradGradGradGradGradGradGradGradGradGradGradGradGrad
 Berny optimization.
 Using GEDIIS/GDIIS optimizer.
 FormGI is forming the generalized inverse of G from B-inverse, IUseBI=4.
 Internal  Forces:  Max     0.000225864 RMS     0.000069015
 Search for a local minimum.
 Step number   7 out of a maximum of  110
 All quantities printed in internal units (Hartrees-Bohrs-Radians)
 Mixed Optimization -- En-DIIS/RFO-DIIS
 Swapping is turned off.
 Update second derivatives using D2CorX and points    4    5    6    7
 DE= -2.54D-05 DEPred=-2.70D-05 R= 9.38D-01
 TightC=F SS=  1.41D+00  RLast= 8.19D-02 DXNew= 2.2279D+00 2.4562D-01
 Trust test= 9.38D-01 RLast= 8.19D-02 DXMaxT set to 1.32D+00
 ITU=  1  0  1  1  1  0  0
     Eigenvalues ---    0.00230   0.00237   0.00240   0.00275   0.00545
     Eigenvalues ---    0.05218   0.05232   0.05344   0.05595   0.06958
     Eigenvalues ---    0.06966   0.06973   0.07685   0.08491   0.08847
     Eigenvalues ---    0.08891   0.09829   0.12806   0.12941   0.13034
     Eigenvalues ---    0.15688   0.18944   0.18977   0.19108   0.19827
     Eigenvalues ---    0.22518   0.24698   0.25000   0.25000   0.25000
     Eigenvalues ---    0.25000   0.25002   0.25069   0.25712   0.26069
     Eigenvalues ---    0.27074   0.27943   0.28519   0.28933   0.35234
     Eigenvalues ---    0.52673   0.57117   0.57448   0.57735   0.57764
     Eigenvalues ---    0.58779   0.60197   0.60539   0.60702   0.60702
     Eigenvalues ---    0.60702   0.60784   0.61055   0.61832
 En-DIIS/RFO-DIIS/Sim-DIIS IScMMF=       -3 using points:     7    6    5    4
 RFO step:  Lambda=-2.25830896D-06.
 DidBck=T Rises=F RFO-DIIS coefs:    0.29174    0.36440    0.32041    0.02345
 Iteration  1 RMS(Cart)=  0.00255742 RMS(Int)=  0.00000302
 Iteration  2 RMS(Cart)=  0.00000368 RMS(Int)=  0.00000063
 Iteration  3 RMS(Cart)=  0.00000000 RMS(Int)=  0.00000063
 Variable       Old X    -DE/DX   Delta X   Delta X   Delta X     New X
                                 (Linear)    (Quad)   (Total)
    R1        2.52664  -0.00017   0.00023  -0.00052  -0.00029   2.52635
    R2        2.53255  -0.00001  -0.00035   0.00024  -0.00011   2.53244
    R3        2.94887   0.00003  -0.00219   0.00239   0.00020   2.94907
    R4        2.94350   0.00005  -0.00094   0.00112   0.00018   2.94368
    R5        2.53079  -0.00012   0.00006  -0.00021  -0.00015   2.53064
    R6        2.53072  -0.00007  -0.00026   0.00015  -0.00011   2.53061
    R7        2.95381  -0.00012   0.00013  -0.00053  -0.00041   2.95341
    R8        2.53079  -0.00012   0.00006  -0.00021  -0.00015   2.53064
    R9        2.53072  -0.00007  -0.00026   0.00015  -0.00011   2.53061
   R10        2.94885   0.00004  -0.00217   0.00238   0.00022   2.94907
   R11        2.53255  -0.00001  -0.00035   0.00024  -0.00011   2.53244
   R12        2.52664  -0.00017   0.00023  -0.00052  -0.00029   2.52635
   R13        2.94351   0.00005  -0.00095   0.00112   0.00017   2.94368
   R14        2.50719  -0.00023   0.00027  -0.00056  -0.00029   2.50690
   R15        2.50285  -0.00005  -0.00014   0.00011  -0.00003   2.50282
   R16        2.50815   0.00013  -0.00087   0.00101   0.00013   2.50828
   R17        2.50815   0.00013  -0.00087   0.00101   0.00013   2.50828
   R18        2.50718  -0.00023   0.00027  -0.00056  -0.00029   2.50690
   R19        2.50285  -0.00005  -0.00014   0.00011  -0.00003   2.50282
    A1        1.90564   0.00003  -0.00033   0.00035   0.00001   1.90565
    A2        1.89779   0.00004   0.00048  -0.00023   0.00025   1.89804
    A3        1.88052  -0.00009  -0.00130   0.00097  -0.00033   1.88019
    A4        1.91273  -0.00010  -0.00066   0.00026  -0.00041   1.91233
    A5        1.87710   0.00003   0.00087  -0.00075   0.00012   1.87722
    A6        1.98858   0.00009   0.00089  -0.00055   0.00035   1.98893
    A7        1.88880  -0.00008  -0.00048   0.00025  -0.00023   1.88857
    A8        1.90314   0.00004   0.00114  -0.00107   0.00007   1.90321
    A9        1.97256   0.00003  -0.00005   0.00025   0.00020   1.97275
   A10        1.90161   0.00000  -0.00048   0.00048  -0.00001   1.90161
   A11        1.90502   0.00009   0.00134  -0.00089   0.00046   1.90547
   A12        1.89174  -0.00008  -0.00148   0.00099  -0.00049   1.89126
   A13        1.90502   0.00009   0.00134  -0.00089   0.00045   1.90547
   A14        1.89175  -0.00009  -0.00149   0.00099  -0.00050   1.89125
   A15        1.97255   0.00004  -0.00005   0.00026   0.00021   1.97276
   A16        1.90163  -0.00000  -0.00051   0.00047  -0.00003   1.90160
   A17        1.88881  -0.00009  -0.00049   0.00024  -0.00024   1.88857
   A18        1.90312   0.00005   0.00117  -0.00107   0.00010   1.90323
   A19        1.91271  -0.00009  -0.00064   0.00026  -0.00038   1.91233
   A20        1.89779   0.00004   0.00048  -0.00023   0.00025   1.89804
   A21        1.98858   0.00009   0.00090  -0.00055   0.00035   1.98894
   A22        1.90564   0.00003  -0.00034   0.00035   0.00001   1.90565
   A23        1.87710   0.00003   0.00087  -0.00076   0.00011   1.87722
   A24        1.88054  -0.00009  -0.00133   0.00097  -0.00036   1.88018
   A25        1.89629  -0.00003  -0.00109   0.00096  -0.00013   1.89616
   A26        1.93464   0.00013   0.00200  -0.00158   0.00042   1.93506
   A27        1.92879   0.00007  -0.00018   0.00048   0.00031   1.92910
   A28        1.89694  -0.00005  -0.00089   0.00065  -0.00024   1.89670
   A29        1.90004  -0.00000   0.00075  -0.00073   0.00002   1.90006
   A30        1.90653  -0.00011  -0.00062   0.00023  -0.00039   1.90614
   A31        1.92878   0.00008  -0.00016   0.00049   0.00033   1.92911
   A32        1.89628  -0.00003  -0.00108   0.00096  -0.00012   1.89616
   A33        1.93465   0.00012   0.00198  -0.00158   0.00040   1.93505
   A34        1.90004  -0.00001   0.00075  -0.00073   0.00002   1.90006
   A35        1.90654  -0.00012  -0.00064   0.00023  -0.00040   1.90614
   A36        1.89693  -0.00005  -0.00088   0.00064  -0.00024   1.89669
    D1        0.77832   0.00002  -0.00048  -0.00096  -0.00145   0.77687
    D2        2.84450  -0.00001  -0.00070  -0.00085  -0.00155   2.84295
    D3       -1.33358  -0.00006  -0.00181  -0.00017  -0.00198  -1.33557
    D4        2.86011   0.00001  -0.00099  -0.00053  -0.00152   2.85859
    D5       -1.35689  -0.00001  -0.00121  -0.00041  -0.00162  -1.35851
    D6        0.74821  -0.00006  -0.00232   0.00026  -0.00206   0.74615
    D7       -1.31920   0.00004   0.00025  -0.00168  -0.00142  -1.32063
    D8        0.74698   0.00002   0.00004  -0.00156  -0.00153   0.74546
    D9        2.85208  -0.00003  -0.00108  -0.00089  -0.00196   2.85012
   D10       -1.23039  -0.00002   0.00213   0.00066   0.00278  -1.22760
   D11        0.85318   0.00000   0.00228   0.00065   0.00293   0.85611
   D12        2.93647  -0.00001   0.00171   0.00109   0.00280   2.93927
   D13        3.00053  -0.00002   0.00274   0.00013   0.00288   3.00341
   D14       -1.19909   0.00000   0.00290   0.00013   0.00302  -1.19607
   D15        0.88419  -0.00001   0.00233   0.00057   0.00290   0.88709
   D16        0.87682   0.00002   0.00238   0.00070   0.00308   0.87990
   D17        2.96038   0.00005   0.00253   0.00070   0.00323   2.96361
   D18       -1.23952   0.00004   0.00196   0.00114   0.00310  -1.23642
   D19        0.72092   0.00000   0.00056   0.00066   0.00122   0.72214
   D20       -1.34803   0.00000   0.00126   0.00003   0.00129  -1.34674
   D21        2.82360  -0.00002   0.00085   0.00052   0.00137   2.82497
   D22       -1.38176   0.00003   0.00026   0.00081   0.00107  -1.38069
   D23        2.83247   0.00002   0.00097   0.00017   0.00114   2.83361
   D24        0.72092   0.00000   0.00055   0.00067   0.00122   0.72214
   D25        2.83250   0.00002   0.00094   0.00016   0.00110   2.83360
   D26        0.76355   0.00002   0.00164  -0.00047   0.00117   0.76472
   D27       -1.34800  -0.00000   0.00122   0.00002   0.00125  -1.34676
   D28        0.74814  -0.00006  -0.00211   0.00024  -0.00188   0.74626
   D29       -1.33365  -0.00006  -0.00161  -0.00021  -0.00182  -1.33546
   D30        2.85200  -0.00003  -0.00085  -0.00092  -0.00177   2.85023
   D31        2.86003   0.00002  -0.00079  -0.00055  -0.00134   2.85870
   D32        0.77825   0.00002  -0.00029  -0.00099  -0.00128   0.77697
   D33       -1.31929   0.00004   0.00047  -0.00170  -0.00123  -1.32052
   D34       -1.35695  -0.00001  -0.00102  -0.00044  -0.00146  -1.35841
   D35        2.84445  -0.00001  -0.00051  -0.00089  -0.00140   2.84305
   D36        0.74691   0.00002   0.00025  -0.00160  -0.00135   0.74556
   D37        2.96055   0.00004   0.00225   0.00071   0.00296   2.96351
   D38       -1.23935   0.00003   0.00168   0.00115   0.00283  -1.23652
   D39        0.87697   0.00002   0.00212   0.00071   0.00283   0.87980
   D40       -1.19895   0.00000   0.00265   0.00014   0.00279  -1.19616
   D41        0.88433  -0.00001   0.00208   0.00058   0.00266   0.88699
   D42        3.00065  -0.00002   0.00251   0.00015   0.00266   3.00331
   D43        0.85333   0.00000   0.00201   0.00066   0.00267   0.85601
   D44        2.93662  -0.00001   0.00144   0.00111   0.00254   2.93916
   D45       -1.23024  -0.00002   0.00188   0.00067   0.00254  -1.22770
         Item               Value     Threshold  Converged?
 Maximum Force            0.000226     0.000450     YES
 RMS     Force            0.000069     0.000300     YES
 Maximum Displacement     0.010898     0.001800     NO 
 RMS     Displacement     0.002557     0.001200     NO 
 Predicted change in Energy=-1.098350D-06
 GradGradGradGradGradGradGradGradGradGradGradGradGradGradGradGradGradGrad

                          Input orientation:                          
 ---------------------------------------------------------------------
 Center     Atomic      Atomic             Coordinates (Angstroms)
 Number     Number       Type             X           Y           Z
 ---------------------------------------------------------------------
      1          6           0        1.987129   -0.016711    0.144140
      2          9           0        2.133745   -0.309259    1.440362
      3          9           0        2.146254   -1.133029   -0.580022
      4          6           0        0.552050    0.553092   -0.082304
      5          9           0        0.292678    1.433393    0.892960
      6          9           0        0.514468    1.186696   -1.261472
      7          6           0       -0.552039   -0.553059   -0.082383
      8          9           0       -0.292728   -1.433433    0.892832
      9          9           0       -0.514364   -1.186580   -1.261593
     10          6           0       -1.987138    0.016721    0.144010
     11          9           0       -2.146273    1.133022   -0.580175
     12          9           0       -2.133794    0.309286    1.440223
     13          6           0       -3.128069   -0.967050   -0.252198
     14          6           0        3.128083    0.967036   -0.252065
     15          9           0       -4.281230   -0.476312    0.182823
     16          9           0       -3.195637   -1.106051   -1.567584
     17          9           0       -2.930956   -2.156377    0.303180
     18          9           0        2.931043    2.156344    0.303378
     19          9           0        4.281247    0.476235    0.182875
     20          9           0        3.195593    1.106103   -1.567447
 ---------------------------------------------------------------------
                    Distance matrix (angstroms):
                    1          2          3          4          5
     1  C    0.000000
     2  F    1.336889   0.000000
     3  F    1.340110   2.181904   0.000000
     4  C    1.560578   2.358796   2.373229   0.000000
     5  F    2.352594   2.593455   3.491696   1.339158   0.000000
     6  F    2.364881   3.487097   2.916886   1.339143   2.179823
     7  C    2.605063   3.097035   2.804424   1.562876   2.368720
     8  F    2.786644   2.729711   2.864991   2.368716   2.925985
     9  F    3.098732   3.883649   2.747052   2.356781   3.486786
    10  C    3.974407   4.332258   4.350985   2.605069   2.786655
    11  F    4.351037   4.947857   4.853944   2.804485   2.865106
    12  F    4.332218   4.312132   4.947775   3.096980   2.729631
    13  C    5.217804   5.566339   5.287108   3.985344   4.333016
    14  C    1.557727   2.341355   2.341328   2.614597   3.093233
    15  F    6.285305   6.539206   6.505826   4.948794   5.007186
    16  F    5.565763   6.171299   5.432478   4.359354   4.967032
    17  F    5.365726   5.509648   5.254080   4.429576   4.860669
    18  F    2.374553   2.829773   3.495177   2.894612   2.798434
    19  F    2.346801   2.609605   2.780276   3.739404   4.162818
    20  F    2.377105   3.489654   2.662674   3.082174   3.819377
                    6          7          8          9         10
     6  F    0.000000
     7  C    2.356785   0.000000
     8  F    3.486784   1.339158   0.000000
     9  F    2.586684   1.339143   2.179817   0.000000
    10  C    3.098750   1.560581   2.352595   2.364892   0.000000
    11  F    2.747105   2.373236   3.491714   2.916850   1.340110
    12  F    3.883594   2.358796   2.593498   3.487117   1.336889
    13  C    4.350326   2.614605   3.093181   2.810432   1.557726
    14  C    2.810362   3.985320   4.333011   4.350244   5.217801
    15  F    5.277339   3.739398   4.162733   4.096353   2.346796
    16  F    4.372102   3.082245   3.819386   2.699878   2.377108
    17  F    5.049279   2.894570   2.798319   3.037917   2.374548
    18  F    3.037896   4.429620   4.860725   5.049268   5.365807
    19  F    4.096281   4.948784   5.007206   5.277246   6.285325
    20  F    2.699731   4.359241   4.966950   4.371924   5.565657
                   11         12         13         14         15
    11  F    0.000000
    12  F    2.181904   0.000000
    13  C    2.341323   2.341347   0.000000
    14  C    5.287157   5.566312   6.548292   0.000000
    15  F    2.780318   2.609540   1.326593   7.561105   0.000000
    16  F    2.662629   3.489641   1.324435   6.783636   2.153837
    17  F    3.495166   2.829810   1.327326   6.839295   2.158783
    18  F    5.254235   5.509684   6.839378   1.327326   7.678691
    19  F    6.505892   6.539232   7.561106   1.326593   8.615299
    20  F    5.432399   6.171173   6.783550   1.324435   7.840305
                   16         17         18         19         20
    16  F    0.000000
    17  F    2.161712   0.000000
    18  F    7.188876   7.277540   0.000000
    19  F    7.840379   7.678606   2.158782   0.000000
    20  F    6.763243   7.188715   2.161708   2.153836   0.000000
 Stoichiometry    C6F14
 Framework group  C1[X(C6F14)]
 Deg. of freedom    54
 Full point group                 C1      NOp   1
 Largest Abelian subgroup         C1      NOp   1
 Largest concise Abelian subgroup C1      NOp   1
                         Standard orientation:                         
 ---------------------------------------------------------------------
 Center     Atomic      Atomic             Coordinates (Angstroms)
 Number     Number       Type             X           Y           Z
 ---------------------------------------------------------------------
      1          6           0       -1.921669   -0.506099   -0.223780
      2          9           0       -1.991635   -0.825763   -1.520002
      3          9           0       -1.800669   -1.627190    0.500382
      4          6           0       -0.671364    0.399916    0.002663
      5          9           0       -0.637025    1.316990   -0.972601
      6          9           0       -0.791149    1.023228    1.181832
      7          6           0        0.671353   -0.399892    0.002743
      8          9           0        0.637091   -1.317021   -0.972472
      9          9           0        0.791027   -1.023147    1.181952
     10          6           0        1.921683    0.506106   -0.223650
     11          9           0        1.800696    1.627183    0.500534
     12          9           0        1.991684    0.825797   -1.519864
     13          6           0        3.269934   -0.166017    0.172557
     14          6           0       -3.269936    0.165995    0.172425
     15          9           0        4.266515    0.593871   -0.262464
     16          9           0        3.369685   -0.284069    1.487944
     17          9           0        3.372118   -1.367228   -0.382820
     18          9           0       -3.372187    1.367171   -0.383019
     19          9           0       -4.266505   -0.593955   -0.262516
     20          9           0       -3.369648    0.284126    1.487807
 ---------------------------------------------------------------------
 Rotational constants (GHZ):           0.8273033           0.2017561           0.1978224
 Standard basis: 6-311+G(2d) (5D, 7F)
 There are   580 symmetry adapted cartesian basis functions of A   symmetry.
 There are   540 symmetry adapted basis functions of A   symmetry.
   540 basis functions,   840 primitive gaussians,   580 cartesian basis functions
    81 alpha electrons       81 beta electrons
       nuclear repulsion energy      2106.7311482073 Hartrees.
 NAtoms=   20 NActive=   20 NUniq=   20 SFac= 1.00D+00 NAtFMM=   60 NAOKFM=F Big=F
 Integral buffers will be    131072 words long.
 Raffenetti 2 integral format.
 Two-electron integral symmetry is turned on.
 Nuclear repulsion after empirical dispersion term =     2106.7168790466 Hartrees.
 One-electron integrals computed using PRISM.
 NBasis=   540 RedAO= T EigKep=  3.75D-06  NBF=   540
 NBsUse=   540 1.00D-06 EigRej= -1.00D+00 NBFU=   540
 Initial guess from the checkpoint file:  "hexane.chk"
 B after Tr=    -0.000000    0.000000   -0.000000
         Rot=    1.000000    0.000000   -0.000000   -0.000029 Ang=   0.00 deg.
 Requested convergence on RMS density matrix=1.00D-08 within 128 cycles.
 Requested convergence on MAX density matrix=1.00D-06.
 Requested convergence on             energy=1.00D-06.
 No special actions if energy rises.
 SCF Done:  E(RwB97XD) =  -1626.50416061     A.U. after    8 cycles
            NFock=  8  Conv=0.27D-08     -V/T= 2.0026
 Calling FoFJK, ICntrl=      2127 FMM=F ISym2X=0 I1Cent= 0 IOpClX= 0 NMat=1 NMatS=1 NMatT=0.
 ***** Axes restored to original set *****
 -------------------------------------------------------------------
 Center     Atomic                   Forces (Hartrees/Bohr)
 Number     Number              X              Y              Z
 -------------------------------------------------------------------
      1        6          -0.000000531    0.000031748    0.000123270
      2        9          -0.000004504    0.000023931   -0.000048625
      3        9           0.000026453   -0.000029450   -0.000046329
      4        6          -0.000095734    0.000010672   -0.000004889
      5        9           0.000037310   -0.000017303   -0.000023874
      6        9          -0.000018344    0.000009312    0.000010425
      7        6           0.000095668   -0.000010251   -0.000004977
      8        9          -0.000036616    0.000018346   -0.000021589
      9        9           0.000014034   -0.000008286    0.000009303
     10        6           0.000000619   -0.000031796    0.000122249
     11        9          -0.000024129    0.000030009   -0.000045852
     12        9           0.000005571   -0.000024264   -0.000048060
     13        6          -0.000145734    0.000128837   -0.000032826
     14        6           0.000146164   -0.000128978   -0.000033527
     15        9           0.000099044   -0.000003312   -0.000008751
     16        9          -0.000000946   -0.000010153   -0.000007948
     17        9           0.000070633   -0.000067746    0.000038752
     18        9          -0.000072480    0.000066828    0.000039814
     19        9          -0.000099581    0.000002640   -0.000007708
     20        9           0.000003103    0.000009218   -0.000008857
 -------------------------------------------------------------------
 Cartesian Forces:  Max     0.000146164 RMS     0.000056253

 GradGradGradGradGradGradGradGradGradGradGradGradGradGradGradGradGradGrad
 Berny optimization.
 Using GEDIIS/GDIIS optimizer.
 FormGI is forming the generalized inverse of G from B-inverse, IUseBI=4.
 Internal  Forces:  Max     0.000094029 RMS     0.000034069
 Search for a local minimum.
 Step number   8 out of a maximum of  110
 All quantities printed in internal units (Hartrees-Bohrs-Radians)
 Mixed Optimization -- En-DIIS/RFO-DIIS
 Swapping is turned off.
 Update second derivatives using D2CorX and points    4    5    6    7    8
 DE= -7.09D-07 DEPred=-1.10D-06 R= 6.46D-01
 TightC=F SS=  1.41D+00  RLast= 1.45D-02 DXNew= 2.2279D+00 4.3461D-02
 Trust test= 6.46D-01 RLast= 1.45D-02 DXMaxT set to 1.32D+00
 ITU=  1  1  0  1  1  1  0  0
     Eigenvalues ---    0.00230   0.00237   0.00238   0.00438   0.00551
     Eigenvalues ---    0.05216   0.05229   0.05342   0.06033   0.06957
     Eigenvalues ---    0.06969   0.06992   0.07685   0.08486   0.08887
     Eigenvalues ---    0.08891   0.09820   0.12809   0.12899   0.13040
     Eigenvalues ---    0.14719   0.18132   0.18952   0.19112   0.19515
     Eigenvalues ---    0.23369   0.23938   0.24999   0.25000   0.25000
     Eigenvalues ---    0.25000   0.25000   0.25074   0.25701   0.27070
     Eigenvalues ---    0.27438   0.28151   0.28520   0.29622   0.36884
     Eigenvalues ---    0.51036   0.53102   0.57117   0.57735   0.57758
     Eigenvalues ---    0.57828   0.60197   0.60558   0.60702   0.60702
     Eigenvalues ---    0.60702   0.60784   0.60936   0.61790
 En-DIIS/RFO-DIIS/Sim-DIIS IScMMF=       -3 using points:     8    7    6    5    4
 RFO step:  Lambda=-6.72675556D-07.
 DidBck=T Rises=F RFO-DIIS coefs:    0.44217    0.48169    0.03663    0.03155    0.00796
 Iteration  1 RMS(Cart)=  0.00148292 RMS(Int)=  0.00000078
 Iteration  2 RMS(Cart)=  0.00000111 RMS(Int)=  0.00000013
 Iteration  3 RMS(Cart)=  0.00000000 RMS(Int)=  0.00000013
 Variable       Old X    -DE/DX   Delta X   Delta X   Delta X     New X
                                 (Linear)    (Quad)   (Total)
    R1        2.52635  -0.00005   0.00017  -0.00029  -0.00012   2.52623
    R2        2.53244   0.00005   0.00001   0.00007   0.00008   2.53252
    R3        2.94907   0.00001  -0.00032   0.00043   0.00011   2.94918
    R4        2.94368  -0.00005  -0.00018   0.00015  -0.00003   2.94365
    R5        2.53064  -0.00004   0.00009  -0.00019  -0.00010   2.53054
    R6        2.53061  -0.00000   0.00003  -0.00006  -0.00003   2.53059
    R7        2.95341  -0.00007   0.00025  -0.00051  -0.00026   2.95315
    R8        2.53064  -0.00003   0.00009  -0.00019  -0.00010   2.53054
    R9        2.53061  -0.00000   0.00003  -0.00006  -0.00003   2.53058
   R10        2.94907   0.00001  -0.00032   0.00043   0.00010   2.94917
   R11        2.53244   0.00005   0.00001   0.00007   0.00008   2.53252
   R12        2.52635  -0.00005   0.00017  -0.00029  -0.00012   2.52623
   R13        2.94368  -0.00004  -0.00018   0.00015  -0.00003   2.94364
   R14        2.50690  -0.00009   0.00019  -0.00038  -0.00020   2.50670
   R15        2.50282   0.00001   0.00002  -0.00002  -0.00000   2.50282
   R16        2.50828   0.00009  -0.00017   0.00035   0.00018   2.50846
   R17        2.50828   0.00009  -0.00017   0.00035   0.00018   2.50846
   R18        2.50690  -0.00009   0.00019  -0.00038  -0.00020   2.50670
   R19        2.50282   0.00001   0.00002  -0.00002   0.00000   2.50282
    A1        1.90565   0.00001  -0.00004   0.00022   0.00018   1.90583
    A2        1.89804  -0.00002  -0.00007   0.00003  -0.00004   1.89800
    A3        1.88019  -0.00001   0.00000  -0.00023  -0.00023   1.87996
    A4        1.91233   0.00002   0.00013  -0.00010   0.00003   1.91236
    A5        1.87722  -0.00002   0.00002  -0.00009  -0.00006   1.87716
    A6        1.98893   0.00002  -0.00005   0.00018   0.00013   1.98905
    A7        1.88857  -0.00002   0.00006  -0.00037  -0.00031   1.88826
    A8        1.90321   0.00004   0.00007   0.00008   0.00016   1.90337
    A9        1.97275  -0.00004  -0.00009   0.00004  -0.00005   1.97270
   A10        1.90161  -0.00001  -0.00004   0.00000  -0.00004   1.90157
   A11        1.90547   0.00003  -0.00008   0.00028   0.00020   1.90568
   A12        1.89126   0.00001   0.00008  -0.00004   0.00004   1.89130
   A13        1.90547   0.00003  -0.00008   0.00028   0.00020   1.90567
   A14        1.89125   0.00001   0.00008  -0.00004   0.00004   1.89130
   A15        1.97276  -0.00004  -0.00010   0.00005  -0.00005   1.97271
   A16        1.90160  -0.00001  -0.00003  -0.00000  -0.00003   1.90157
   A17        1.88857  -0.00002   0.00006  -0.00037  -0.00031   1.88826
   A18        1.90323   0.00004   0.00006   0.00009   0.00014   1.90337
   A19        1.91233   0.00002   0.00012  -0.00009   0.00003   1.91236
   A20        1.89804  -0.00002  -0.00007   0.00003  -0.00004   1.89800
   A21        1.98894   0.00002  -0.00006   0.00017   0.00012   1.98905
   A22        1.90565   0.00001  -0.00004   0.00022   0.00018   1.90583
   A23        1.87722  -0.00002   0.00003  -0.00009  -0.00006   1.87715
   A24        1.88018  -0.00001   0.00002  -0.00024  -0.00022   1.87996
   A25        1.89616  -0.00006  -0.00010  -0.00008  -0.00017   1.89598
   A26        1.93506   0.00004   0.00000   0.00017   0.00017   1.93523
   A27        1.92910  -0.00009  -0.00018  -0.00003  -0.00021   1.92890
   A28        1.89670   0.00003   0.00005   0.00008   0.00013   1.89683
   A29        1.90006   0.00007   0.00006   0.00013   0.00019   1.90025
   A30        1.90614   0.00002   0.00016  -0.00028  -0.00011   1.90603
   A31        1.92911  -0.00009  -0.00019  -0.00002  -0.00021   1.92890
   A32        1.89616  -0.00006  -0.00010  -0.00007  -0.00018   1.89599
   A33        1.93505   0.00004   0.00001   0.00017   0.00018   1.93523
   A34        1.90006   0.00007   0.00006   0.00013   0.00019   1.90025
   A35        1.90614   0.00002   0.00017  -0.00028  -0.00011   1.90603
   A36        1.89669   0.00003   0.00005   0.00008   0.00013   1.89682
    D1        0.77687  -0.00000   0.00111   0.00002   0.00113   0.77800
    D2        2.84295  -0.00001   0.00114  -0.00014   0.00100   2.84395
    D3       -1.33557   0.00000   0.00123  -0.00010   0.00113  -1.33444
    D4        2.85859   0.00001   0.00111   0.00024   0.00134   2.85994
    D5       -1.35851   0.00001   0.00113   0.00008   0.00121  -1.35730
    D6        0.74615   0.00002   0.00122   0.00012   0.00134   0.74749
    D7       -1.32063   0.00001   0.00120   0.00017   0.00137  -1.31926
    D8        0.74546   0.00001   0.00122   0.00001   0.00123   0.74669
    D9        2.85012   0.00002   0.00131   0.00005   0.00136   2.85148
   D10       -1.22760  -0.00000  -0.00087  -0.00012  -0.00099  -1.22859
   D11        0.85611  -0.00001  -0.00097  -0.00002  -0.00099   0.85512
   D12        2.93927   0.00001  -0.00097   0.00014  -0.00083   2.93844
   D13        3.00341   0.00000  -0.00084  -0.00021  -0.00105   3.00236
   D14       -1.19607  -0.00001  -0.00094  -0.00011  -0.00105  -1.19712
   D15        0.88709   0.00001  -0.00094   0.00005  -0.00089   0.88620
   D16        0.87990  -0.00002  -0.00099  -0.00013  -0.00112   0.87878
   D17        2.96361  -0.00003  -0.00109  -0.00004  -0.00112   2.96249
   D18       -1.23642  -0.00001  -0.00109   0.00012  -0.00097  -1.23738
   D19        0.72214  -0.00001  -0.00051  -0.00001  -0.00052   0.72162
   D20       -1.34674  -0.00002  -0.00048  -0.00013  -0.00062  -1.34736
   D21        2.82497  -0.00005  -0.00055  -0.00025  -0.00080   2.82417
   D22       -1.38069   0.00003  -0.00047   0.00024  -0.00023  -1.38092
   D23        2.83361   0.00002  -0.00044   0.00011  -0.00033   2.83328
   D24        0.72214  -0.00001  -0.00051  -0.00000  -0.00051   0.72163
   D25        2.83360   0.00002  -0.00042   0.00010  -0.00032   2.83328
   D26        0.76472   0.00001  -0.00039  -0.00003  -0.00042   0.76429
   D27       -1.34676  -0.00002  -0.00046  -0.00014  -0.00061  -1.34736
   D28        0.74626   0.00002   0.00114   0.00005   0.00119   0.74745
   D29       -1.33546   0.00000   0.00116  -0.00019   0.00097  -1.33449
   D30        2.85023   0.00001   0.00123  -0.00002   0.00121   2.85143
   D31        2.85870   0.00001   0.00103   0.00017   0.00120   2.85990
   D32        0.77697  -0.00000   0.00104  -0.00006   0.00098   0.77796
   D33       -1.32052   0.00001   0.00111   0.00010   0.00122  -1.31930
   D34       -1.35841   0.00001   0.00106   0.00000   0.00106  -1.35735
   D35        2.84305  -0.00001   0.00108  -0.00023   0.00085   2.84390
   D36        0.74556   0.00000   0.00114  -0.00006   0.00108   0.74664
   D37        2.96351  -0.00003  -0.00097  -0.00003  -0.00100   2.96251
   D38       -1.23652  -0.00001  -0.00097   0.00013  -0.00084  -1.23736
   D39        0.87980  -0.00002  -0.00088  -0.00012  -0.00100   0.87880
   D40       -1.19616  -0.00001  -0.00083  -0.00010  -0.00093  -1.19710
   D41        0.88699   0.00001  -0.00083   0.00006  -0.00078   0.88622
   D42        3.00331  -0.00000  -0.00074  -0.00020  -0.00094   3.00238
   D43        0.85601  -0.00001  -0.00085  -0.00001  -0.00086   0.85514
   D44        2.93916   0.00001  -0.00085   0.00014  -0.00071   2.93846
   D45       -1.22770  -0.00000  -0.00076  -0.00011  -0.00087  -1.22857
         Item               Value     Threshold  Converged?
 Maximum Force            0.000094     0.000450     YES
 RMS     Force            0.000034     0.000300     YES
 Maximum Displacement     0.005594     0.001800     NO 
 RMS     Displacement     0.001483     0.001200     NO 
 Predicted change in Energy=-3.331485D-07
 GradGradGradGradGradGradGradGradGradGradGradGradGradGradGradGradGradGrad

                          Input orientation:                          
 ---------------------------------------------------------------------
 Center     Atomic      Atomic             Coordinates (Angstroms)
 Number     Number       Type             X           Y           Z
 ---------------------------------------------------------------------
      1          6           0        1.987040   -0.016936    0.143493
      2          9           0        2.132727   -0.310384    1.439551
      3          9           0        2.146837   -1.132614   -0.581583
      4          6           0        0.552038    0.552994   -0.083518
      5          9           0        0.292903    1.433531    0.891523
      6          9           0        0.514690    1.186414   -1.262775
      7          6           0       -0.552033   -0.552983   -0.083537
      8          9           0       -0.292914   -1.433530    0.891500
      9          9           0       -0.514654   -1.186392   -1.262799
     10          6           0       -1.987045    0.016932    0.143446
     11          9           0       -2.146817    1.132647   -0.581579
     12          9           0       -2.132792    0.310309    1.439513
     13          6           0       -3.128328   -0.967113   -0.251001
     14          6           0        3.128343    0.967127   -0.250854
     15          9           0       -4.280768   -0.476405    0.185643
     16          9           0       -3.197788   -1.106602   -1.566237
     17          9           0       -2.929939   -2.156316    0.304409
     18          9           0        2.929921    2.156309    0.304590
     19          9           0        4.280762    0.476408    0.185836
     20          9           0        3.197878    1.106669   -1.566080
 ---------------------------------------------------------------------
                    Distance matrix (angstroms):
                    1          2          3          4          5
     1  C    0.000000
     2  F    1.336825   0.000000
     3  F    1.340152   2.182027   0.000000
     4  C    1.560636   2.358758   2.373336   0.000000
     5  F    2.352340   2.593554   3.491734   1.339105   0.000000
     6  F    2.365049   3.487264   2.916473   1.339128   2.179738
     7  C    2.604953   3.096221   2.804982   1.562740   2.368733
     8  F    2.786475   2.728653   2.865818   2.368729   2.926297
     9  F    3.098993   3.883131   2.747814   2.356692   3.486724
    10  C    3.974230   4.331229   4.351564   2.604960   2.786491
    11  F    4.351556   4.947908   4.854572   2.804974   2.865797
    12  F    4.331256   4.310442   4.947937   3.096261   2.728721
    13  C    5.217801   5.564886   5.288104   3.985457   4.332813
    14  C    1.557710   2.341101   2.341292   2.614738   3.092293
    15  F    6.284768   6.537030   6.506409   4.948548   5.006455
    16  F    5.567136   6.171152   5.434634   4.360494   4.967674
    17  F    5.364655   5.506959   5.254199   4.428884   4.859878
    18  F    2.374441   2.829882   3.495073   2.894059   2.796562
    19  F    2.346559   2.608620   2.780561   3.739225   4.161382
    20  F    2.377238   3.489471   2.662388   3.083021   3.819101
                    6          7          8          9         10
     6  F    0.000000
     7  C    2.356694   0.000000
     8  F    3.486723   1.339105   0.000000
     9  F    2.586457   1.339128   2.179736   0.000000
    10  C    3.099005   1.560636   2.352340   2.365048   0.000000
    11  F    2.747824   2.373337   3.491730   2.916497   1.340152
    12  F    3.883180   2.358761   2.593539   3.487259   1.336825
    13  C    4.351201   2.614736   3.092317   2.811247   1.557709
    14  C    2.811272   3.985461   4.332796   4.351219   5.217810
    15  F    5.278192   3.739223   4.161407   4.097034   2.346557
    16  F    4.374073   3.083004   3.819116   2.701417   2.377235
    17  F    5.049296   2.894066   2.796605   3.038173   2.374440
    18  F    3.038201   4.428872   4.859843   5.049302   5.364649
    19  F    4.097057   4.948547   5.006429   5.278206   6.284769
    20  F    2.701454   4.360529   4.967690   4.374129   5.567175
                   11         12         13         14         15
    11  F    0.000000
    12  F    2.182029   0.000000
    13  C    2.341289   2.341097   0.000000
    14  C    5.288108   5.564917   6.548833   0.000000
    15  F    2.780545   2.608622   1.326488   7.561035   0.000000
    16  F    2.662391   3.489468   1.324435   6.786054   2.153852
    17  F    3.495073   2.829866   1.327420   6.838640   2.158922
    18  F    5.254183   5.506980   6.838627   1.327420   7.677198
    19  F    6.506408   6.537046   7.561031   1.326488   8.614387
    20  F    5.434674   6.171210   6.786080   1.324435   7.842501
                   16         17         18         19         20
    16  F    0.000000
    17  F    2.161703   0.000000
    18  F    7.189952   7.275761   0.000000
    19  F    7.842474   7.677207   2.158922   0.000000
    20  F    6.767800   7.189989   2.161702   2.153851   0.000000
 Stoichiometry    C6F14
 Framework group  C1[X(C6F14)]
 Deg. of freedom    54
 Full point group                 C1      NOp   1
 Largest Abelian subgroup         C1      NOp   1
 Largest concise Abelian subgroup C1      NOp   1
                         Standard orientation:                         
 ---------------------------------------------------------------------
 Center     Atomic      Atomic             Coordinates (Angstroms)
 Number     Number       Type             X           Y           Z
 ---------------------------------------------------------------------
      1          6           0       -1.921526   -0.506303   -0.223112
      2          9           0       -1.990368   -0.826610   -1.519169
      3          9           0       -1.801330   -1.626939    0.501964
      4          6           0       -0.671330    0.399822    0.003900
      5          9           0       -0.637282    1.317066   -0.971141
      6          9           0       -0.791299    1.022898    1.183157
      7          6           0        0.671330   -0.399817    0.003918
      8          9           0        0.637300   -1.317067   -0.971119
      9          9           0        0.791266   -1.022890    1.183180
     10          6           0        1.921539    0.506295   -0.223065
     11          9           0        1.801309    1.626961    0.501961
     12          9           0        1.990458    0.826549   -1.519132
     13          6           0        3.270200   -0.166001    0.171382
     14          6           0       -3.270211    0.166006    0.171235
     15          9           0        4.266088    0.593683   -0.265262
     16          9           0        3.371907   -0.284060    1.486619
     17          9           0        3.371123   -1.367408   -0.384027
     18          9           0       -3.371096    1.367401   -0.384209
     19          9           0       -4.266075   -0.593684   -0.265454
     20          9           0       -3.372003    0.284098    1.486462
 ---------------------------------------------------------------------
 Rotational constants (GHZ):           0.8274106           0.2017534           0.1978110
 Standard basis: 6-311+G(2d) (5D, 7F)
 There are   580 symmetry adapted cartesian basis functions of A   symmetry.
 There are   540 symmetry adapted basis functions of A   symmetry.
   540 basis functions,   840 primitive gaussians,   580 cartesian basis functions
    81 alpha electrons       81 beta electrons
       nuclear repulsion energy      2106.7417023327 Hartrees.
 NAtoms=   20 NActive=   20 NUniq=   20 SFac= 1.00D+00 NAtFMM=   60 NAOKFM=F Big=F
 Integral buffers will be    131072 words long.
 Raffenetti 2 integral format.
 Two-electron integral symmetry is turned on.
 Nuclear repulsion after empirical dispersion term =     2106.7274332738 Hartrees.
 One-electron integrals computed using PRISM.
 NBasis=   540 RedAO= T EigKep=  3.75D-06  NBF=   540
 NBsUse=   540 1.00D-06 EigRej= -1.00D+00 NBFU=   540
 Initial guess from the checkpoint file:  "hexane.chk"
 B after Tr=     0.000000   -0.000000    0.000000
         Rot=    1.000000   -0.000000    0.000000   -0.000001 Ang=  -0.00 deg.
 Requested convergence on RMS density matrix=1.00D-08 within 128 cycles.
 Requested convergence on MAX density matrix=1.00D-06.
 Requested convergence on             energy=1.00D-06.
 No special actions if energy rises.
 SCF Done:  E(RwB97XD) =  -1626.50416087     A.U. after    7 cycles
            NFock=  7  Conv=0.66D-08     -V/T= 2.0026
 Calling FoFJK, ICntrl=      2127 FMM=F ISym2X=0 I1Cent= 0 IOpClX= 0 NMat=1 NMatS=1 NMatT=0.
 ***** Axes restored to original set *****
 -------------------------------------------------------------------
 Center     Atomic                   Forces (Hartrees/Bohr)
 Number     Number              X              Y              Z
 -------------------------------------------------------------------
      1        6          -0.000014975    0.000047484    0.000022215
      2        9          -0.000012723   -0.000013917   -0.000008539
      3        9           0.000005616   -0.000029251   -0.000008918
      4        6           0.000033988    0.000010036    0.000003332
      5        9          -0.000019240    0.000006354    0.000012438
      6        9           0.000008771    0.000002493   -0.000005225
      7        6          -0.000033102   -0.000010461    0.000003876
      8        9           0.000017867   -0.000006747    0.000012224
      9        9          -0.000008459   -0.000002442   -0.000005680
     10        6           0.000014149   -0.000047694    0.000022399
     11        9          -0.000005326    0.000029457   -0.000008675
     12        9           0.000013991    0.000014897   -0.000008888
     13        6          -0.000031115    0.000058270   -0.000031112
     14        6           0.000031654   -0.000057844   -0.000030888
     15        9           0.000025936   -0.000019912   -0.000006214
     16        9           0.000009425    0.000001559   -0.000000933
     17        9           0.000007558   -0.000027225    0.000022783
     18        9          -0.000007465    0.000027245    0.000022856
     19        9          -0.000026122    0.000019500   -0.000006048
     20        9          -0.000010429   -0.000001801   -0.000001003
 -------------------------------------------------------------------
 Cartesian Forces:  Max     0.000058270 RMS     0.000021711

 GradGradGradGradGradGradGradGradGradGradGradGradGradGradGradGradGradGrad
 Berny optimization.
 Using GEDIIS/GDIIS optimizer.
 FormGI is forming the generalized inverse of G from B-inverse, IUseBI=4.
 Internal  Forces:  Max     0.000035262 RMS     0.000013575
 Search for a local minimum.
 Step number   9 out of a maximum of  110
 All quantities printed in internal units (Hartrees-Bohrs-Radians)
 Mixed Optimization -- En-DIIS/RFO-DIIS
 Swapping is turned off.
 Update second derivatives using D2CorX and points    4    5    6    7    8
                                                      9
 DE= -2.58D-07 DEPred=-3.33D-07 R= 7.73D-01
 Trust test= 7.73D-01 RLast= 6.65D-03 DXMaxT set to 1.32D+00
 ITU=  0  1  1  0  1  1  1  0  0
     Eigenvalues ---    0.00230   0.00237   0.00244   0.00488   0.00554
     Eigenvalues ---    0.05223   0.05228   0.05342   0.06327   0.06948
     Eigenvalues ---    0.06960   0.06976   0.07671   0.08487   0.08683
     Eigenvalues ---    0.08891   0.09844   0.12808   0.13040   0.13083
     Eigenvalues ---    0.15451   0.18948   0.19110   0.19155   0.20806
     Eigenvalues ---    0.23402   0.24777   0.24998   0.25000   0.25000
     Eigenvalues ---    0.25000   0.25002   0.25623   0.26304   0.26718
     Eigenvalues ---    0.27081   0.28429   0.28520   0.29322   0.37067
     Eigenvalues ---    0.44585   0.53029   0.57117   0.57735   0.57815
     Eigenvalues ---    0.58413   0.60197   0.60548   0.60702   0.60702
     Eigenvalues ---    0.60702   0.60784   0.60902   0.61911
 En-DIIS/RFO-DIIS/Sim-DIIS IScMMF=       -3 using points:     9    8    7    6    5    4
 RFO step:  Lambda=-8.77953996D-08.
 DidBck=F Rises=F RFO-DIIS coefs:    0.84609    0.22525   -0.04985   -0.00960   -0.00621
                  RFO-DIIS coefs:   -0.00568
 Iteration  1 RMS(Cart)=  0.00063830 RMS(Int)=  0.00000016
 Iteration  2 RMS(Cart)=  0.00000020 RMS(Int)=  0.00000007
 Variable       Old X    -DE/DX   Delta X   Delta X   Delta X     New X
                                 (Linear)    (Quad)   (Total)
    R1        2.52623  -0.00001   0.00000  -0.00003  -0.00003   2.52621
    R2        2.53252   0.00003   0.00001   0.00006   0.00007   2.53259
    R3        2.94918  -0.00003   0.00003  -0.00011  -0.00007   2.94910
    R4        2.94365  -0.00001   0.00003  -0.00008  -0.00005   2.94360
    R5        2.53054   0.00002   0.00000   0.00001   0.00001   2.53055
    R6        2.53059   0.00001   0.00001   0.00000   0.00001   2.53060
    R7        2.95315   0.00000  -0.00000  -0.00006  -0.00006   2.95309
    R8        2.53054   0.00002   0.00000   0.00001   0.00001   2.53055
    R9        2.53058   0.00001   0.00001   0.00000   0.00001   2.53060
   R10        2.94917  -0.00003   0.00004  -0.00011  -0.00007   2.94910
   R11        2.53252   0.00003   0.00001   0.00006   0.00007   2.53259
   R12        2.52623  -0.00001   0.00000  -0.00003  -0.00003   2.52621
   R13        2.94364  -0.00001   0.00003  -0.00007  -0.00004   2.94360
   R14        2.50670  -0.00003   0.00000  -0.00009  -0.00008   2.50662
   R15        2.50282   0.00000  -0.00001   0.00000  -0.00001   2.50281
   R16        2.50846   0.00004   0.00001   0.00008   0.00009   2.50855
   R17        2.50846   0.00004   0.00001   0.00008   0.00009   2.50855
   R18        2.50670  -0.00003   0.00000  -0.00009  -0.00008   2.50662
   R19        2.50282   0.00000  -0.00001   0.00000  -0.00001   2.50281
    A1        1.90583  -0.00001  -0.00003  -0.00004  -0.00006   1.90577
    A2        1.89800  -0.00000  -0.00000  -0.00001  -0.00001   1.89799
    A3        1.87996   0.00003   0.00009   0.00009   0.00018   1.88014
    A4        1.91236   0.00001   0.00001   0.00001   0.00002   1.91238
    A5        1.87716   0.00000  -0.00000  -0.00003  -0.00003   1.87712
    A6        1.98905  -0.00003  -0.00006  -0.00003  -0.00009   1.98896
    A7        1.88826   0.00002   0.00006   0.00003   0.00009   1.88834
    A8        1.90337  -0.00001  -0.00004   0.00004  -0.00000   1.90337
    A9        1.97270  -0.00002   0.00000  -0.00012  -0.00012   1.97258
   A10        1.90157  -0.00000   0.00001   0.00002   0.00003   1.90160
   A11        1.90568  -0.00001  -0.00007   0.00000  -0.00006   1.90561
   A12        1.89130   0.00001   0.00003   0.00004   0.00007   1.89137
   A13        1.90567  -0.00001  -0.00007   0.00001  -0.00006   1.90562
   A14        1.89130   0.00001   0.00003   0.00004   0.00007   1.89137
   A15        1.97271  -0.00002   0.00000  -0.00014  -0.00014   1.97257
   A16        1.90157  -0.00000   0.00001   0.00002   0.00004   1.90160
   A17        1.88826   0.00002   0.00006   0.00002   0.00009   1.88834
   A18        1.90337  -0.00000  -0.00004   0.00004   0.00000   1.90337
   A19        1.91236   0.00001   0.00001   0.00001   0.00002   1.91238
   A20        1.89800  -0.00000  -0.00000  -0.00001  -0.00002   1.89799
   A21        1.98905  -0.00003  -0.00006  -0.00003  -0.00009   1.98896
   A22        1.90583  -0.00001  -0.00003  -0.00004  -0.00007   1.90577
   A23        1.87715   0.00000  -0.00000  -0.00002  -0.00003   1.87713
   A24        1.87996   0.00003   0.00009   0.00010   0.00018   1.88014
   A25        1.89598   0.00002   0.00010  -0.00002   0.00008   1.89606
   A26        1.93523  -0.00001  -0.00007   0.00004  -0.00003   1.93520
   A27        1.92890  -0.00001   0.00005  -0.00015  -0.00011   1.92879
   A28        1.89683   0.00001  -0.00002   0.00009   0.00007   1.89690
   A29        1.90025  -0.00000  -0.00004   0.00003  -0.00002   1.90023
   A30        1.90603   0.00001  -0.00001   0.00002   0.00001   1.90605
   A31        1.92890  -0.00001   0.00005  -0.00016  -0.00011   1.92879
   A32        1.89599   0.00001   0.00010  -0.00002   0.00007   1.89606
   A33        1.93523  -0.00001  -0.00008   0.00004  -0.00004   1.93520
   A34        1.90025  -0.00000  -0.00004   0.00003  -0.00002   1.90023
   A35        1.90603   0.00001  -0.00001   0.00002   0.00002   1.90605
   A36        1.89682   0.00001  -0.00002   0.00009   0.00007   1.89690
    D1        0.77800   0.00000  -0.00059  -0.00003  -0.00062   0.77738
    D2        2.84395   0.00001  -0.00056   0.00003  -0.00053   2.84342
    D3       -1.33444   0.00001  -0.00055   0.00003  -0.00052  -1.33497
    D4        2.85994  -0.00001  -0.00062  -0.00007  -0.00069   2.85925
    D5       -1.35730   0.00000  -0.00059  -0.00001  -0.00060  -1.35790
    D6        0.74749   0.00000  -0.00058  -0.00001  -0.00059   0.74690
    D7       -1.31926  -0.00001  -0.00066  -0.00012  -0.00078  -1.32003
    D8        0.74669  -0.00001  -0.00063  -0.00005  -0.00069   0.74600
    D9        2.85148  -0.00001  -0.00062  -0.00006  -0.00068   2.85080
   D10       -1.22859   0.00000  -0.00012  -0.00000  -0.00012  -1.22871
   D11        0.85512  -0.00000  -0.00008  -0.00008  -0.00016   0.85496
   D12        2.93844   0.00001  -0.00009   0.00005  -0.00004   2.93839
   D13        3.00236  -0.00000  -0.00013   0.00001  -0.00012   3.00223
   D14       -1.19712  -0.00000  -0.00010  -0.00006  -0.00016  -1.19728
   D15        0.88620   0.00000  -0.00011   0.00006  -0.00005   0.88615
   D16        0.87878   0.00000  -0.00010   0.00003  -0.00007   0.87871
   D17        2.96249  -0.00000  -0.00007  -0.00004  -0.00011   2.96238
   D18       -1.23738   0.00001  -0.00007   0.00008   0.00001  -1.23737
   D19        0.72162   0.00000   0.00000   0.00002   0.00003   0.72165
   D20       -1.34736   0.00000   0.00001  -0.00004  -0.00003  -1.34739
   D21        2.82417   0.00001   0.00004  -0.00003   0.00001   2.82418
   D22       -1.38092  -0.00000  -0.00003   0.00007   0.00004  -1.38088
   D23        2.83328  -0.00001  -0.00002   0.00001  -0.00002   2.83327
   D24        0.72163   0.00000   0.00000   0.00002   0.00002   0.72165
   D25        2.83328  -0.00001  -0.00003   0.00002  -0.00000   2.83327
   D26        0.76429  -0.00001  -0.00002  -0.00004  -0.00006   0.76423
   D27       -1.34736   0.00000   0.00001  -0.00003  -0.00002  -1.34739
   D28        0.74745   0.00000  -0.00055   0.00004  -0.00051   0.74694
   D29       -1.33449   0.00001  -0.00052   0.00009  -0.00043  -1.33492
   D30        2.85143  -0.00001  -0.00059  -0.00000  -0.00059   2.85084
   D31        2.85990  -0.00001  -0.00059  -0.00001  -0.00061   2.85929
   D32        0.77796   0.00000  -0.00057   0.00004  -0.00053   0.77743
   D33       -1.31930  -0.00001  -0.00063  -0.00006  -0.00069  -1.31999
   D34       -1.35735   0.00000  -0.00057   0.00005  -0.00051  -1.35786
   D35        2.84390   0.00001  -0.00054   0.00010  -0.00043   2.84347
   D36        0.74664  -0.00001  -0.00060   0.00001  -0.00060   0.74605
   D37        2.96251  -0.00000  -0.00010  -0.00004  -0.00014   2.96237
   D38       -1.23736   0.00001  -0.00010   0.00008  -0.00002  -1.23738
   D39        0.87880   0.00000  -0.00013   0.00003  -0.00010   0.87870
   D40       -1.19710  -0.00001  -0.00012  -0.00007  -0.00019  -1.19729
   D41        0.88622   0.00000  -0.00013   0.00006  -0.00008   0.88614
   D42        3.00238  -0.00000  -0.00016   0.00001  -0.00015   3.00222
   D43        0.85514  -0.00000  -0.00011  -0.00008  -0.00019   0.85495
   D44        2.93846   0.00001  -0.00012   0.00005  -0.00007   2.93838
   D45       -1.22857   0.00000  -0.00015  -0.00000  -0.00015  -1.22872
         Item               Value     Threshold  Converged?
 Maximum Force            0.000035     0.000450     YES
 RMS     Force            0.000014     0.000300     YES
 Maximum Displacement     0.002152     0.001800     NO 
 RMS     Displacement     0.000638     0.001200     YES
 Predicted change in Energy=-4.375120D-08
 GradGradGradGradGradGradGradGradGradGradGradGradGradGradGradGradGradGrad

                          Input orientation:                          
 ---------------------------------------------------------------------
 Center     Atomic      Atomic             Coordinates (Angstroms)
 Number     Number       Type             X           Y           Z
 ---------------------------------------------------------------------
      1          6           0        1.986922   -0.016873    0.143853
      2          9           0        2.132793   -0.309754    1.440003
      3          9           0        2.146516   -1.132964   -0.580702
      4          6           0        0.551958    0.553048   -0.083162
      5          9           0        0.292645    1.433477    0.891935
      6          9           0        0.514638    1.186526   -1.262395
      7          6           0       -0.551952   -0.553040   -0.083218
      8          9           0       -0.292689   -1.433526    0.891841
      9          9           0       -0.514581   -1.186451   -1.262486
     10          6           0       -1.986922    0.016875    0.143766
     11          9           0       -2.146494    1.132980   -0.580771
     12          9           0       -2.132826    0.309732    1.439917
     13          6           0       -3.128101   -0.966925   -0.251499
     14          6           0        3.128112    0.966933   -0.251363
     15          9           0       -4.280633   -0.476626    0.185228
     16          9           0       -3.197224   -1.105642   -1.566832
     17          9           0       -2.929672   -2.156468    0.303288
     18          9           0        2.929676    2.156462    0.303451
     19          9           0        4.280634    0.476618    0.185376
     20          9           0        3.197260    1.105682   -1.566691
 ---------------------------------------------------------------------
                    Distance matrix (angstroms):
                    1          2          3          4          5
     1  C    0.000000
     2  F    1.336811   0.000000
     3  F    1.340190   2.181997   0.000000
     4  C    1.560598   2.358707   2.373351   0.000000
     5  F    2.352385   2.593333   3.491721   1.339108   0.000000
     6  F    2.365021   3.487153   2.916807   1.339133   2.179771
     7  C    2.604788   3.096328   2.804555   1.562706   2.368653
     8  F    2.786220   2.728793   2.865038   2.368657   2.926144
     9  F    3.098906   3.883379   2.747567   2.356729   3.486713
    10  C    3.973988   4.331163   4.351125   2.604783   2.786207
    11  F    4.351135   4.947455   4.854322   2.804565   2.865059
    12  F    4.331141   4.310367   4.947428   3.096294   2.728736
    13  C    5.217506   5.565075   5.287488   3.985159   4.332537
    14  C    1.557686   2.341220   2.341274   2.614605   3.092679
    15  F    6.284531   6.537151   6.505818   4.948354   5.006277
    16  F    5.566617   6.171189   5.434036   4.359919   4.967076
    17  F    5.364344   5.507361   5.253254   4.428608   4.859788
    18  F    2.374372   2.830017   3.495052   2.893777   2.796954
    19  F    2.346566   2.608772   2.780663   3.739114   4.161593
    20  F    2.377185   3.489521   2.662287   3.082837   3.819565
                    6          7          8          9         10
     6  F    0.000000
     7  C    2.356727   0.000000
     8  F    3.486715   1.339109   0.000000
     9  F    2.586564   1.339134   2.179772   0.000000
    10  C    3.098899   1.560597   2.352382   2.365021   0.000000
    11  F    2.747563   2.373350   3.491723   2.916786   1.340190
    12  F    3.883339   2.358703   2.593345   3.487157   1.336811
    13  C    4.350725   2.614606   3.092653   2.810831   1.557686
    14  C    2.810810   3.985156   4.332551   4.350707   5.217501
    15  F    5.277908   3.739113   4.161569   4.096691   2.346566
    16  F    4.373172   3.082846   3.819542   2.701060   2.377187
    17  F    5.048786   2.893772   2.796912   3.037309   2.374372
    18  F    3.037278   4.428617   4.859820   5.048775   5.364352
    19  F    4.096673   4.948356   5.006299   5.277896   6.284533
    20  F    2.701036   4.359890   4.967062   4.373120   5.566589
                   11         12         13         14         15
    11  F    0.000000
    12  F    2.181996   0.000000
    13  C    2.341276   2.341221   0.000000
    14  C    5.287491   5.565053   6.548283   0.000000
    15  F    2.780672   2.608770   1.326444   7.560687   0.000000
    16  F    2.662288   3.489523   1.324432   6.784976   2.153869
    17  F    3.495053   2.830023   1.327469   6.838130   2.158912
    18  F    5.253272   5.507349   6.838142   1.327469   7.676958
    19  F    6.505826   6.537139   7.560690   1.326444   8.614172
    20  F    5.434013   6.171146   6.784956   1.324432   7.841671
                   16         17         18         19         20
    16  F    0.000000
    17  F    2.161751   0.000000
    18  F    7.188754   7.275529   0.000000
    19  F    7.841692   7.676949   2.158913   0.000000
    20  F    6.766046   7.188723   2.161752   2.153870   0.000000
 Stoichiometry    C6F14
 Framework group  C1[X(C6F14)]
 Deg. of freedom    54
 Full point group                 C1      NOp   1
 Largest Abelian subgroup         C1      NOp   1
 Largest concise Abelian subgroup C1      NOp   1
                         Standard orientation:                         
 ---------------------------------------------------------------------
 Center     Atomic      Atomic             Coordinates (Angstroms)
 Number     Number       Type             X           Y           Z
 ---------------------------------------------------------------------
      1          6           0       -1.921434   -0.506188   -0.223478
      2          9           0       -1.990599   -0.825990   -1.519628
      3          9           0       -1.800953   -1.627175    0.501077
      4          6           0       -0.671261    0.399903    0.003536
      5          9           0       -0.637002    1.317086   -0.971560
      6          9           0       -0.791263    1.023029    1.182770
      7          6           0        0.671260   -0.399902    0.003593
      8          9           0        0.637064   -1.317127   -0.971466
      9          9           0        0.791196   -1.022976    1.182861
     10          6           0        1.921441    0.506184   -0.223391
     11          9           0        1.800936    1.627181    0.501146
     12          9           0        1.990643    0.825972   -1.519543
     13          6           0        3.269932   -0.165918    0.171874
     14          6           0       -3.269938    0.165918    0.171737
     15          9           0        4.266019    0.593380   -0.264853
     16          9           0        3.371119   -0.283313    1.487207
     17          9           0        3.370883   -1.367665   -0.382914
     18          9           0       -3.370878    1.367654   -0.383076
     19          9           0       -4.266011   -0.593392   -0.265001
     20          9           0       -3.371157    0.283338    1.487066
 ---------------------------------------------------------------------
 Rotational constants (GHZ):           0.8273483           0.2017801           0.1978405
 Standard basis: 6-311+G(2d) (5D, 7F)
 There are   580 symmetry adapted cartesian basis functions of A   symmetry.
 There are   540 symmetry adapted basis functions of A   symmetry.
   540 basis functions,   840 primitive gaussians,   580 cartesian basis functions
    81 alpha electrons       81 beta electrons
       nuclear repulsion energy      2106.8016646084 Hartrees.
 NAtoms=   20 NActive=   20 NUniq=   20 SFac= 1.00D+00 NAtFMM=   60 NAOKFM=F Big=F
 Integral buffers will be    131072 words long.
 Raffenetti 2 integral format.
 Two-electron integral symmetry is turned on.
 Nuclear repulsion after empirical dispersion term =     2106.7873956055 Hartrees.
 One-electron integrals computed using PRISM.
 NBasis=   540 RedAO= T EigKep=  3.75D-06  NBF=   540
 NBsUse=   540 1.00D-06 EigRej= -1.00D+00 NBFU=   540
 Initial guess from the checkpoint file:  "hexane.chk"
 B after Tr=     0.000000    0.000000   -0.000000
         Rot=    1.000000    0.000000   -0.000000    0.000007 Ang=   0.00 deg.
 Requested convergence on RMS density matrix=1.00D-08 within 128 cycles.
 Requested convergence on MAX density matrix=1.00D-06.
 Requested convergence on             energy=1.00D-06.
 No special actions if energy rises.
 SCF Done:  E(RwB97XD) =  -1626.50416091     A.U. after    7 cycles
            NFock=  7  Conv=0.32D-08     -V/T= 2.0026
 Calling FoFJK, ICntrl=      2127 FMM=F ISym2X=0 I1Cent= 0 IOpClX= 0 NMat=1 NMatS=1 NMatT=0.
 ***** Axes restored to original set *****
 -------------------------------------------------------------------
 Center     Atomic                   Forces (Hartrees/Bohr)
 Number     Number              X              Y              Z
 -------------------------------------------------------------------
      1        6          -0.000003748    0.000021673    0.000008212
      2        9           0.000002300   -0.000002673   -0.000006872
      3        9           0.000003606   -0.000010560   -0.000004014
      4        6           0.000024262    0.000000601   -0.000005800
      5        9          -0.000002992    0.000007726    0.000003600
      6        9          -0.000001387    0.000000149    0.000002747
      7        6          -0.000024582   -0.000000671   -0.000006195
      8        9           0.000004346   -0.000007236    0.000003736
      9        9           0.000001120   -0.000000169    0.000002955
     10        6           0.000004083   -0.000021119    0.000008065
     11        9          -0.000003775    0.000010265   -0.000004231
     12        9          -0.000003229    0.000001973   -0.000006548
     13        6          -0.000003318    0.000026576   -0.000004784
     14        6           0.000002904   -0.000026587   -0.000004936
     15        9           0.000002681   -0.000009126   -0.000005887
     16        9          -0.000002992    0.000000965    0.000005966
     17        9           0.000000513   -0.000010750    0.000006973
     18        9          -0.000000768    0.000010543    0.000007087
     19        9          -0.000002756    0.000009357   -0.000006052
     20        9           0.000003731   -0.000000937    0.000005977
 -------------------------------------------------------------------
 Cartesian Forces:  Max     0.000026587 RMS     0.000009206

 GradGradGradGradGradGradGradGradGradGradGradGradGradGradGradGradGradGrad
 Berny optimization.
 Using GEDIIS/GDIIS optimizer.
 FormGI is forming the generalized inverse of G from B-inverse, IUseBI=4.
 Internal  Forces:  Max     0.000024838 RMS     0.000005150
 Search for a local minimum.
 Step number  10 out of a maximum of  110
 All quantities printed in internal units (Hartrees-Bohrs-Radians)
 Mixed Optimization -- En-DIIS/RFO-DIIS
 Swapping is turned off.
 Update second derivatives using D2CorX and points    4    5    6    7    8
                                                      9   10
 DE= -4.41D-08 DEPred=-4.38D-08 R= 1.01D+00
 Trust test= 1.01D+00 RLast= 2.63D-03 DXMaxT set to 1.32D+00
 ITU=  0  0  1  1  0  1  1  1  0  0
     Eigenvalues ---    0.00230   0.00237   0.00257   0.00504   0.00567
     Eigenvalues ---    0.05185   0.05230   0.05344   0.06314   0.06959
     Eigenvalues ---    0.06972   0.07148   0.07542   0.08488   0.08588
     Eigenvalues ---    0.08891   0.09893   0.12808   0.13041   0.13393
     Eigenvalues ---    0.15492   0.18955   0.19112   0.19157   0.20470
     Eigenvalues ---    0.23452   0.24289   0.24996   0.25000   0.25000
     Eigenvalues ---    0.25000   0.25002   0.25433   0.26245   0.27074
     Eigenvalues ---    0.27909   0.28250   0.28520   0.31863   0.37093
     Eigenvalues ---    0.39400   0.53233   0.57117   0.57429   0.57735
     Eigenvalues ---    0.57921   0.60197   0.60548   0.60702   0.60702
     Eigenvalues ---    0.60702   0.60784   0.61250   0.61934
 En-DIIS/RFO-DIIS/Sim-DIIS IScMMF=       -3 using points:    10    9    8    7    6    5    4
 RFO step:  Lambda=-7.73656605D-09.
 DIIS inversion failure, remove point   7.
 RFO-DIIS uses    6 points instead of    7
 DidBck=F Rises=F RFO-DIIS coefs:    0.95914    0.03773   -0.00349    0.00949   -0.00072
                  RFO-DIIS coefs:   -0.00215    0.00000
 Iteration  1 RMS(Cart)=  0.00006932 RMS(Int)=  0.00000000
 Iteration  2 RMS(Cart)=  0.00000000 RMS(Int)=  0.00000000
 Variable       Old X    -DE/DX   Delta X   Delta X   Delta X     New X
                                 (Linear)    (Quad)   (Total)
    R1        2.52621  -0.00001   0.00000  -0.00002  -0.00002   2.52619
    R2        2.53259   0.00001  -0.00000   0.00003   0.00003   2.53262
    R3        2.94910   0.00000   0.00001  -0.00000   0.00001   2.94911
    R4        2.94360  -0.00000   0.00001  -0.00002  -0.00001   2.94358
    R5        2.53055   0.00001   0.00000   0.00001   0.00001   2.53056
    R6        2.53060  -0.00000   0.00000  -0.00001  -0.00000   2.53059
    R7        2.95309   0.00002   0.00001   0.00007   0.00008   2.95316
    R8        2.53055   0.00001   0.00000   0.00001   0.00001   2.53056
    R9        2.53060  -0.00000   0.00000  -0.00001  -0.00000   2.53059
   R10        2.94910   0.00000   0.00001  -0.00000   0.00001   2.94911
   R11        2.53259   0.00001  -0.00000   0.00003   0.00003   2.53262
   R12        2.52621  -0.00001   0.00000  -0.00002  -0.00002   2.52619
   R13        2.94360  -0.00000   0.00001  -0.00002  -0.00001   2.94359
   R14        2.50662  -0.00001   0.00000  -0.00003  -0.00003   2.50659
   R15        2.50281  -0.00001   0.00000  -0.00001  -0.00001   2.50280
   R16        2.50855   0.00001  -0.00000   0.00004   0.00004   2.50859
   R17        2.50855   0.00001  -0.00000   0.00004   0.00004   2.50859
   R18        2.50662  -0.00001   0.00000  -0.00003  -0.00003   2.50659
   R19        2.50281  -0.00001   0.00000  -0.00001  -0.00001   2.50280
    A1        1.90577  -0.00000   0.00001  -0.00004  -0.00003   1.90574
    A2        1.89799   0.00000  -0.00000   0.00002   0.00002   1.89801
    A3        1.88014  -0.00000   0.00000   0.00000   0.00001   1.88014
    A4        1.91238   0.00000   0.00000   0.00001   0.00001   1.91239
    A5        1.87712  -0.00000  -0.00000  -0.00001  -0.00001   1.87711
    A6        1.98896   0.00000  -0.00000   0.00001   0.00001   1.98897
    A7        1.88834  -0.00000   0.00000   0.00001   0.00001   1.88836
    A8        1.90337  -0.00000  -0.00001  -0.00000  -0.00001   1.90336
    A9        1.97258   0.00001   0.00000   0.00003   0.00003   1.97261
   A10        1.90160  -0.00000   0.00000  -0.00003  -0.00002   1.90158
   A11        1.90561  -0.00000  -0.00001   0.00000  -0.00001   1.90561
   A12        1.89137  -0.00000   0.00001  -0.00001  -0.00000   1.89136
   A13        1.90562  -0.00000  -0.00001  -0.00001  -0.00001   1.90560
   A14        1.89137  -0.00000   0.00001  -0.00001  -0.00001   1.89136
   A15        1.97257   0.00001   0.00000   0.00003   0.00004   1.97261
   A16        1.90160  -0.00000   0.00000  -0.00003  -0.00003   1.90158
   A17        1.88834   0.00000   0.00000   0.00001   0.00002   1.88836
   A18        1.90337  -0.00000  -0.00001  -0.00000  -0.00001   1.90336
   A19        1.91238   0.00000   0.00000   0.00001   0.00001   1.91239
   A20        1.89799   0.00000  -0.00000   0.00003   0.00003   1.89801
   A21        1.98896   0.00000  -0.00000   0.00001   0.00000   1.98896
   A22        1.90577  -0.00000   0.00001  -0.00003  -0.00003   1.90574
   A23        1.87713  -0.00000  -0.00000  -0.00001  -0.00002   1.87711
   A24        1.88014  -0.00000   0.00000   0.00000   0.00000   1.88014
   A25        1.89606   0.00001   0.00000   0.00005   0.00006   1.89612
   A26        1.93520   0.00000  -0.00001   0.00002   0.00001   1.93521
   A27        1.92879  -0.00000   0.00000  -0.00003  -0.00003   1.92876
   A28        1.89690  -0.00001   0.00000  -0.00002  -0.00001   1.89688
   A29        1.90023  -0.00001  -0.00000  -0.00002  -0.00002   1.90021
   A30        1.90605  -0.00000   0.00001  -0.00001  -0.00000   1.90604
   A31        1.92879  -0.00000   0.00000  -0.00003  -0.00003   1.92876
   A32        1.89606   0.00001   0.00000   0.00005   0.00006   1.89612
   A33        1.93520   0.00000  -0.00001   0.00002   0.00001   1.93521
   A34        1.90023  -0.00001  -0.00000  -0.00002  -0.00002   1.90021
   A35        1.90605  -0.00000   0.00001  -0.00001  -0.00000   1.90604
   A36        1.89690  -0.00001   0.00000  -0.00002  -0.00002   1.89688
    D1        0.77738   0.00000   0.00004   0.00008   0.00012   0.77750
    D2        2.84342   0.00000   0.00004   0.00005   0.00009   2.84351
    D3       -1.33497   0.00000   0.00004   0.00006   0.00010  -1.33486
    D4        2.85925   0.00000   0.00005   0.00005   0.00010   2.85935
    D5       -1.35790  -0.00000   0.00004   0.00003   0.00007  -1.35783
    D6        0.74690  -0.00000   0.00005   0.00003   0.00008   0.74698
    D7       -1.32003   0.00000   0.00004   0.00005   0.00010  -1.31994
    D8        0.74600  -0.00000   0.00004   0.00003   0.00007   0.74607
    D9        2.85080   0.00000   0.00005   0.00003   0.00008   2.85088
   D10       -1.22871  -0.00000  -0.00002  -0.00005  -0.00007  -1.22878
   D11        0.85496  -0.00000  -0.00002  -0.00006  -0.00008   0.85488
   D12        2.93839  -0.00000  -0.00002  -0.00003  -0.00006   2.93834
   D13        3.00223   0.00000  -0.00003  -0.00000  -0.00003   3.00220
   D14       -1.19728   0.00000  -0.00003  -0.00001  -0.00004  -1.19732
   D15        0.88615   0.00000  -0.00003   0.00001  -0.00001   0.88614
   D16        0.87871   0.00000  -0.00003  -0.00001  -0.00004   0.87867
   D17        2.96238  -0.00000  -0.00003  -0.00002  -0.00005   2.96233
   D18       -1.23737   0.00000  -0.00003   0.00000  -0.00002  -1.23740
   D19        0.72165  -0.00000   0.00003  -0.00002   0.00002   0.72167
   D20       -1.34739   0.00000   0.00003   0.00003   0.00006  -1.34733
   D21        2.82418   0.00000   0.00004   0.00002   0.00005   2.82423
   D22       -1.38088  -0.00000   0.00003  -0.00005  -0.00001  -1.38089
   D23        2.83327  -0.00000   0.00003  -0.00000   0.00003   2.83330
   D24        0.72165  -0.00000   0.00004  -0.00001   0.00003   0.72167
   D25        2.83327  -0.00000   0.00003  -0.00001   0.00002   2.83330
   D26        0.76423   0.00000   0.00003   0.00003   0.00007   0.76430
   D27       -1.34739   0.00000   0.00003   0.00003   0.00006  -1.34733
   D28        0.74694   0.00000   0.00005  -0.00006  -0.00001   0.74693
   D29       -1.33492   0.00000   0.00004  -0.00004  -0.00000  -1.33492
   D30        2.85084   0.00000   0.00004  -0.00007  -0.00003   2.85082
   D31        2.85929   0.00000   0.00004  -0.00004   0.00001   2.85929
   D32        0.77743   0.00000   0.00004  -0.00002   0.00002   0.77745
   D33       -1.31999   0.00000   0.00004  -0.00004  -0.00001  -1.32000
   D34       -1.35786  -0.00000   0.00004  -0.00006  -0.00002  -1.35788
   D35        2.84347  -0.00000   0.00003  -0.00004  -0.00001   2.84346
   D36        0.74605  -0.00000   0.00004  -0.00007  -0.00003   0.74601
   D37        2.96237   0.00000  -0.00002   0.00002  -0.00000   2.96237
   D38       -1.23738   0.00000  -0.00002   0.00005   0.00002  -1.23736
   D39        0.87870   0.00000  -0.00002   0.00003   0.00000   0.87870
   D40       -1.19729   0.00000  -0.00002   0.00003   0.00000  -1.19729
   D41        0.88614   0.00000  -0.00003   0.00005   0.00003   0.88617
   D42        3.00222   0.00000  -0.00002   0.00003   0.00001   3.00223
   D43        0.85495  -0.00000  -0.00002  -0.00002  -0.00004   0.85491
   D44        2.93838  -0.00000  -0.00002   0.00001  -0.00001   2.93837
   D45       -1.22872  -0.00000  -0.00002  -0.00002  -0.00003  -1.22875
         Item               Value     Threshold  Converged?
 Maximum Force            0.000025     0.000450     YES
 RMS     Force            0.000005     0.000300     YES
 Maximum Displacement     0.000244     0.001800     YES
 RMS     Displacement     0.000069     0.001200     YES
 Predicted change in Energy=-4.928333D-09
 Optimization completed.
    -- Stationary point found.
                           ----------------------------
                           !   Optimized Parameters   !
                           ! (Angstroms and Degrees)  !
 --------------------------                            --------------------------
 ! Name  Definition              Value          Derivative Info.                !
 --------------------------------------------------------------------------------
 ! R1    R(1,2)                  1.3368         -DE/DX =    0.0                 !
 ! R2    R(1,3)                  1.3402         -DE/DX =    0.0                 !
 ! R3    R(1,4)                  1.5606         -DE/DX =    0.0                 !
 ! R4    R(1,14)                 1.5577         -DE/DX =    0.0                 !
 ! R5    R(4,5)                  1.3391         -DE/DX =    0.0                 !
 ! R6    R(4,6)                  1.3391         -DE/DX =    0.0                 !
 ! R7    R(4,7)                  1.5627         -DE/DX =    0.0                 !
 ! R8    R(7,8)                  1.3391         -DE/DX =    0.0                 !
 ! R9    R(7,9)                  1.3391         -DE/DX =    0.0                 !
 ! R10   R(7,10)                 1.5606         -DE/DX =    0.0                 !
 ! R11   R(10,11)                1.3402         -DE/DX =    0.0                 !
 ! R12   R(10,12)                1.3368         -DE/DX =    0.0                 !
 ! R13   R(10,13)                1.5577         -DE/DX =    0.0                 !
 ! R14   R(13,15)                1.3264         -DE/DX =    0.0                 !
 ! R15   R(13,16)                1.3244         -DE/DX =    0.0                 !
 ! R16   R(13,17)                1.3275         -DE/DX =    0.0                 !
 ! R17   R(14,18)                1.3275         -DE/DX =    0.0                 !
 ! R18   R(14,19)                1.3264         -DE/DX =    0.0                 !
 ! R19   R(14,20)                1.3244         -DE/DX =    0.0                 !
 ! A1    A(2,1,3)              109.1925         -DE/DX =    0.0                 !
 ! A2    A(2,1,4)              108.7468         -DE/DX =    0.0                 !
 ! A3    A(2,1,14)             107.7241         -DE/DX =    0.0                 !
 ! A4    A(3,1,4)              109.5713         -DE/DX =    0.0                 !
 ! A5    A(3,1,14)             107.5513         -DE/DX =    0.0                 !
 ! A6    A(4,1,14)             113.959          -DE/DX =    0.0                 !
 ! A7    A(1,4,5)              108.1942         -DE/DX =    0.0                 !
 ! A8    A(1,4,6)              109.0551         -DE/DX =    0.0                 !
 ! A9    A(1,4,7)              113.0205         -DE/DX =    0.0                 !
 ! A10   A(5,4,6)              108.9538         -DE/DX =    0.0                 !
 ! A11   A(5,4,7)              109.1835         -DE/DX =    0.0                 !
 ! A12   A(6,4,7)              108.3673         -DE/DX =    0.0                 !
 ! A13   A(4,7,8)              109.1838         -DE/DX =    0.0                 !
 ! A14   A(4,7,9)              108.3674         -DE/DX =    0.0                 !
 ! A15   A(4,7,10)             113.0202         -DE/DX =    0.0                 !
 ! A16   A(8,7,9)              108.9539         -DE/DX =    0.0                 !
 ! A17   A(8,7,10)             108.194          -DE/DX =    0.0                 !
 ! A18   A(9,7,10)             109.0552         -DE/DX =    0.0                 !
 ! A19   A(7,10,11)            109.5713         -DE/DX =    0.0                 !
 ! A20   A(7,10,12)            108.7466         -DE/DX =    0.0                 !
 ! A21   A(7,10,13)            113.959          -DE/DX =    0.0                 !
 ! A22   A(11,10,12)           109.1924         -DE/DX =    0.0                 !
 ! A23   A(11,10,13)           107.5515         -DE/DX =    0.0                 !
 ! A24   A(12,10,13)           107.7242         -DE/DX =    0.0                 !
 ! A25   A(10,13,15)           108.6362         -DE/DX =    0.0                 !
 ! A26   A(10,13,16)           110.8788         -DE/DX =    0.0                 !
 ! A27   A(10,13,17)           110.5115         -DE/DX =    0.0                 !
 ! A28   A(15,13,16)           108.6842         -DE/DX =    0.0                 !
 ! A29   A(15,13,17)           108.8752         -DE/DX =    0.0                 !
 ! A30   A(16,13,17)           109.2084         -DE/DX =    0.0                 !
 ! A31   A(1,14,18)            110.5115         -DE/DX =    0.0                 !
 ! A32   A(1,14,19)            108.6362         -DE/DX =    0.0                 !
 ! A33   A(1,14,20)            110.8787         -DE/DX =    0.0                 !
 ! A34   A(18,14,19)           108.8752         -DE/DX =    0.0                 !
 ! A35   A(18,14,20)           109.2084         -DE/DX =    0.0                 !
 ! A36   A(19,14,20)           108.6842         -DE/DX =    0.0                 !
 ! D1    D(2,1,4,5)             44.5408         -DE/DX =    0.0                 !
 ! D2    D(2,1,4,6)            162.9161         -DE/DX =    0.0                 !
 ! D3    D(2,1,4,7)            -76.4879         -DE/DX =    0.0                 !
 ! D4    D(3,1,4,5)            163.8229         -DE/DX =    0.0                 !
 ! D5    D(3,1,4,6)            -77.8019         -DE/DX =    0.0                 !
 ! D6    D(3,1,4,7)             42.7942         -DE/DX =    0.0                 !
 ! D7    D(14,1,4,5)           -75.6324         -DE/DX =    0.0                 !
 ! D8    D(14,1,4,6)            42.7428         -DE/DX =    0.0                 !
 ! D9    D(14,1,4,7)           163.3389         -DE/DX =    0.0                 !
 ! D10   D(2,1,14,18)          -70.3999         -DE/DX =    0.0                 !
 ! D11   D(2,1,14,19)           48.9858         -DE/DX =    0.0                 !
 ! D12   D(2,1,14,20)          168.3576         -DE/DX =    0.0                 !
 ! D13   D(3,1,14,18)          172.0153         -DE/DX =    0.0                 !
 ! D14   D(3,1,14,19)          -68.5991         -DE/DX =    0.0                 !
 ! D15   D(3,1,14,20)           50.7727         -DE/DX =    0.0                 !
 ! D16   D(4,1,14,18)           50.3463         -DE/DX =    0.0                 !
 ! D17   D(4,1,14,19)          169.732          -DE/DX =    0.0                 !
 ! D18   D(4,1,14,20)          -70.8962         -DE/DX =    0.0                 !
 ! D19   D(1,4,7,8)             41.3476         -DE/DX =    0.0                 !
 ! D20   D(1,4,7,9)            -77.1996         -DE/DX =    0.0                 !
 ! D21   D(1,4,7,10)           161.8135         -DE/DX =    0.0                 !
 ! D22   D(5,4,7,8)            -79.1186         -DE/DX =    0.0                 !
 ! D23   D(5,4,7,9)            162.3343         -DE/DX =    0.0                 !
 ! D24   D(5,4,7,10)            41.3474         -DE/DX =    0.0                 !
 ! D25   D(6,4,7,8)            162.3345         -DE/DX =    0.0                 !
 ! D26   D(6,4,7,9)             43.7873         -DE/DX =    0.0                 !
 ! D27   D(6,4,7,10)           -77.1996         -DE/DX =    0.0                 !
 ! D28   D(4,7,10,11)           42.7964         -DE/DX =    0.0                 !
 ! D29   D(4,7,10,12)          -76.4854         -DE/DX =    0.0                 !
 ! D30   D(4,7,10,13)          163.3413         -DE/DX =    0.0                 !
 ! D31   D(8,7,10,11)          163.8251         -DE/DX =    0.0                 !
 ! D32   D(8,7,10,12)           44.5434         -DE/DX =    0.0                 !
 ! D33   D(8,7,10,13)          -75.63           -DE/DX =    0.0                 !
 ! D34   D(9,7,10,11)          -77.7996         -DE/DX =    0.0                 !
 ! D35   D(9,7,10,12)          162.9186         -DE/DX =    0.0                 !
 ! D36   D(9,7,10,13)           42.7453         -DE/DX =    0.0                 !
 ! D37   D(7,10,13,15)         169.7313         -DE/DX =    0.0                 !
 ! D38   D(7,10,13,16)         -70.8969         -DE/DX =    0.0                 !
 ! D39   D(7,10,13,17)          50.3457         -DE/DX =    0.0                 !
 ! D40   D(11,10,13,15)        -68.5996         -DE/DX =    0.0                 !
 ! D41   D(11,10,13,16)         50.7721         -DE/DX =    0.0                 !
 ! D42   D(11,10,13,17)        172.0147         -DE/DX =    0.0                 !
 ! D43   D(12,10,13,15)         48.9852         -DE/DX =    0.0                 !
 ! D44   D(12,10,13,16)        168.357          -DE/DX =    0.0                 !
 ! D45   D(12,10,13,17)        -70.4004         -DE/DX =    0.0                 !
 --------------------------------------------------------------------------------
 GradGradGradGradGradGradGradGradGradGradGradGradGradGradGradGradGradGrad

                          Input orientation:                          
 ---------------------------------------------------------------------
 Center     Atomic      Atomic             Coordinates (Angstroms)
 Number     Number       Type             X           Y           Z
 ---------------------------------------------------------------------
      1          6           0        1.986922   -0.016873    0.143853
      2          9           0        2.132793   -0.309754    1.440003
      3          9           0        2.146516   -1.132964   -0.580702
      4          6           0        0.551958    0.553048   -0.083162
      5          9           0        0.292645    1.433477    0.891935
      6          9           0        0.514638    1.186526   -1.262395
      7          6           0       -0.551952   -0.553040   -0.083218
      8          9           0       -0.292689   -1.433526    0.891841
      9          9           0       -0.514581   -1.186451   -1.262486
     10          6           0       -1.986922    0.016875    0.143766
     11          9           0       -2.146494    1.132980   -0.580771
     12          9           0       -2.132826    0.309732    1.439917
     13          6           0       -3.128101   -0.966925   -0.251499
     14          6           0        3.128112    0.966933   -0.251363
     15          9           0       -4.280633   -0.476626    0.185228
     16          9           0       -3.197224   -1.105642   -1.566832
     17          9           0       -2.929672   -2.156468    0.303288
     18          9           0        2.929676    2.156462    0.303451
     19          9           0        4.280634    0.476618    0.185376
     20          9           0        3.197260    1.105682   -1.566691
 ---------------------------------------------------------------------
                    Distance matrix (angstroms):
                    1          2          3          4          5
     1  C    0.000000
     2  F    1.336811   0.000000
     3  F    1.340190   2.181997   0.000000
     4  C    1.560598   2.358707   2.373351   0.000000
     5  F    2.352385   2.593333   3.491721   1.339108   0.000000
     6  F    2.365021   3.487153   2.916807   1.339133   2.179771
     7  C    2.604788   3.096328   2.804555   1.562706   2.368653
     8  F    2.786220   2.728793   2.865038   2.368657   2.926144
     9  F    3.098906   3.883379   2.747567   2.356729   3.486713
    10  C    3.973988   4.331163   4.351125   2.604783   2.786207
    11  F    4.351135   4.947455   4.854322   2.804565   2.865059
    12  F    4.331141   4.310367   4.947428   3.096294   2.728736
    13  C    5.217506   5.565075   5.287488   3.985159   4.332537
    14  C    1.557686   2.341220   2.341274   2.614605   3.092679
    15  F    6.284531   6.537151   6.505818   4.948354   5.006277
    16  F    5.566617   6.171189   5.434036   4.359919   4.967076
    17  F    5.364344   5.507361   5.253254   4.428608   4.859788
    18  F    2.374372   2.830017   3.495052   2.893777   2.796954
    19  F    2.346566   2.608772   2.780663   3.739114   4.161593
    20  F    2.377185   3.489521   2.662287   3.082837   3.819565
                    6          7          8          9         10
     6  F    0.000000
     7  C    2.356727   0.000000
     8  F    3.486715   1.339109   0.000000
     9  F    2.586564   1.339134   2.179772   0.000000
    10  C    3.098899   1.560597   2.352382   2.365021   0.000000
    11  F    2.747563   2.373350   3.491723   2.916786   1.340190
    12  F    3.883339   2.358703   2.593345   3.487157   1.336811
    13  C    4.350725   2.614606   3.092653   2.810831   1.557686
    14  C    2.810810   3.985156   4.332551   4.350707   5.217501
    15  F    5.277908   3.739113   4.161569   4.096691   2.346566
    16  F    4.373172   3.082846   3.819542   2.701060   2.377187
    17  F    5.048786   2.893772   2.796912   3.037309   2.374372
    18  F    3.037278   4.428617   4.859820   5.048775   5.364352
    19  F    4.096673   4.948356   5.006299   5.277896   6.284533
    20  F    2.701036   4.359890   4.967062   4.373120   5.566589
                   11         12         13         14         15
    11  F    0.000000
    12  F    2.181996   0.000000
    13  C    2.341276   2.341221   0.000000
    14  C    5.287491   5.565053   6.548283   0.000000
    15  F    2.780672   2.608770   1.326444   7.560687   0.000000
    16  F    2.662288   3.489523   1.324432   6.784976   2.153869
    17  F    3.495053   2.830023   1.327469   6.838130   2.158912
    18  F    5.253272   5.507349   6.838142   1.327469   7.676958
    19  F    6.505826   6.537139   7.560690   1.326444   8.614172
    20  F    5.434013   6.171146   6.784956   1.324432   7.841671
                   16         17         18         19         20
    16  F    0.000000
    17  F    2.161751   0.000000
    18  F    7.188754   7.275529   0.000000
    19  F    7.841692   7.676949   2.158913   0.000000
    20  F    6.766046   7.188723   2.161752   2.153870   0.000000
 Stoichiometry    C6F14
 Framework group  C1[X(C6F14)]
 Deg. of freedom    54
 Full point group                 C1      NOp   1
 Largest Abelian subgroup         C1      NOp   1
 Largest concise Abelian subgroup C1      NOp   1
                         Standard orientation:                         
 ---------------------------------------------------------------------
 Center     Atomic      Atomic             Coordinates (Angstroms)
 Number     Number       Type             X           Y           Z
 ---------------------------------------------------------------------
      1          6           0       -1.921434   -0.506188   -0.223478
      2          9           0       -1.990599   -0.825990   -1.519628
      3          9           0       -1.800953   -1.627175    0.501077
      4          6           0       -0.671261    0.399903    0.003536
      5          9           0       -0.637002    1.317086   -0.971560
      6          9           0       -0.791263    1.023029    1.182770
      7          6           0        0.671260   -0.399902    0.003593
      8          9           0        0.637064   -1.317127   -0.971466
      9          9           0        0.791196   -1.022976    1.182861
     10          6           0        1.921441    0.506184   -0.223391
     11          9           0        1.800936    1.627181    0.501146
     12          9           0        1.990643    0.825972   -1.519543
     13          6           0        3.269932   -0.165918    0.171874
     14          6           0       -3.269938    0.165918    0.171737
     15          9           0        4.266019    0.593380   -0.264853
     16          9           0        3.371119   -0.283313    1.487207
     17          9           0        3.370883   -1.367665   -0.382914
     18          9           0       -3.370878    1.367654   -0.383076
     19          9           0       -4.266011   -0.593392   -0.265001
     20          9           0       -3.371157    0.283338    1.487066
 ---------------------------------------------------------------------
 Rotational constants (GHZ):           0.8273483           0.2017801           0.1978405

 **********************************************************************

            Population analysis using the SCF density.

 **********************************************************************

 Orbital symmetries:
       Occupied  (A) (A) (A) (A) (A) (A) (A) (A) (A) (A) (A) (A)
                 (A) (A) (A) (A) (A) (A) (A) (A) (A) (A) (A) (A)
                 (A) (A) (A) (A) (A) (A) (A) (A) (A) (A) (A) (A)
                 (A) (A) (A) (A) (A) (A) (A) (A) (A) (A) (A) (A)
                 (A) (A) (A) (A) (A) (A) (A) (A) (A) (A) (A) (A)
                 (A) (A) (A) (A) (A) (A) (A) (A) (A) (A) (A) (A)
                 (A) (A) (A) (A) (A) (A) (A) (A) (A)
       Virtual   (A) (A) (A) (A) (A) (A) (A) (A) (A) (A) (A) (A)
                 (A) (A) (A) (A) (A) (A) (A) (A) (A) (A) (A) (A)
                 (A) (A) (A) (A) (A) (A) (A) (A) (A) (A) (A) (A)
                 (A) (A) (A) (A) (A) (A) (A) (A) (A) (A) (A) (A)
                 (A) (A) (A) (A) (A) (A) (A) (A) (A) (A) (A) (A)
                 (A) (A) (A) (A) (A) (A) (A) (A) (A) (A) (A) (A)
                 (A) (A) (A) (A) (A) (A) (A) (A) (A) (A) (A) (A)
                 (A) (A) (A) (A) (A) (A) (A) (A) (A) (A) (A) (A)
                 (A) (A) (A) (A) (A) (A) (A) (A) (A) (A) (A) (A)
                 (A) (A) (A) (A) (A) (A) (A) (A) (A) (A) (A) (A)
                 (A) (A) (A) (A) (A) (A) (A) (A) (A) (A) (A) (A)
                 (A) (A) (A) (A) (A) (A) (A) (A) (A) (A) (A) (A)
                 (A) (A) (A) (A) (A) (A) (A) (A) (A) (A) (A) (A)
                 (A) (A) (A) (A) (A) (A) (A) (A) (A) (A) (A) (A)
                 (A) (A) (A) (A) (A) (A) (A) (A) (A) (A) (A) (A)
                 (A) (A) (A) (A) (A) (A) (A) (A) (A) (A) (A) (A)
                 (A) (A) (A) (A) (A) (A) (A) (A) (A) (A) (A) (A)
                 (A) (A) (A) (A) (A) (A) (A) (A) (A) (A) (A) (A)
                 (A) (A) (A) (A) (A) (A) (A) (A) (A) (A) (A) (A)
                 (A) (A) (A) (A) (A) (A) (A) (A) (A) (A) (A) (A)
                 (A) (A) (A) (A) (A) (A) (A) (A) (A) (A) (A) (A)
                 (A) (A) (A) (A) (A) (A) (A) (A) (A) (A) (A) (A)
                 (A) (A) (A) (A) (A) (A) (A) (A) (A) (A) (A) (A)
                 (A) (A) (A) (A) (A) (A) (A) (A) (A) (A) (A) (A)
                 (A) (A) (A) (A) (A) (A) (A) (A) (A) (A) (A) (A)
                 (A) (A) (A) (A) (A) (A) (A) (A) (A) (A) (A) (A)
                 (A) (A) (A) (A) (A) (A) (A) (A) (A) (A) (A) (A)
                 (A) (A) (A) (A) (A) (A) (A) (A) (A) (A) (A) (A)
                 (A) (A) (A) (A) (A) (A) (A) (A) (A) (A) (A) (A)
                 (A) (A) (A) (A) (A) (A) (A) (A) (A) (A) (A) (A)
                 (A) (A) (A) (A) (A) (A) (A) (A) (A) (A) (A) (A)
                 (A) (A) (A) (A) (A) (A) (A) (A) (A) (A) (A) (A)
                 (A) (A) (A) (A) (A) (A) (A) (A) (A) (A) (A) (A)
                 (A) (A) (A) (A) (A) (A) (A) (A) (A) (A) (A) (A)
                 (A) (A) (A) (A) (A) (A) (A) (A) (A) (A) (A) (A)
                 (A) (A) (A) (A) (A) (A) (A) (A) (A) (A) (A) (A)
                 (A) (A) (A) (A) (A) (A) (A) (A) (A) (A) (A) (A)
                 (A) (A) (A) (A) (A) (A) (A) (A) (A) (A) (A) (A)
                 (A) (A) (A)
 The electronic state is 1-A.
 Alpha  occ. eigenvalues --  -24.88496 -24.88496 -24.88486 -24.88485 -24.88410
 Alpha  occ. eigenvalues --  -24.88410 -24.88396 -24.88396 -24.88282 -24.88282
 Alpha  occ. eigenvalues --  -24.88212 -24.88212 -24.88196 -24.88196 -10.58767
 Alpha  occ. eigenvalues --  -10.58767 -10.53649 -10.53631 -10.53341 -10.53341
 Alpha  occ. eigenvalues --   -1.47866  -1.47756  -1.45522  -1.43827  -1.43140
 Alpha  occ. eigenvalues --   -1.43008  -1.38986  -1.38585  -1.38061  -1.38006
 Alpha  occ. eigenvalues --   -1.37960  -1.37425  -1.37078  -1.37052  -0.96547
 Alpha  occ. eigenvalues --   -0.94317  -0.90530  -0.85417  -0.81481  -0.79831
 Alpha  occ. eigenvalues --   -0.76686  -0.76271  -0.75084  -0.74730  -0.74512
 Alpha  occ. eigenvalues --   -0.74442  -0.73150  -0.72462  -0.71996  -0.71331
 Alpha  occ. eigenvalues --   -0.70897  -0.69693  -0.68798  -0.62565  -0.62282
 Alpha  occ. eigenvalues --   -0.61679  -0.61464  -0.60711  -0.60630  -0.60375
 Alpha  occ. eigenvalues --   -0.60298  -0.59416  -0.59348  -0.58977  -0.58583
 Alpha  occ. eigenvalues --   -0.57853  -0.57480  -0.56503  -0.56398  -0.55728
 Alpha  occ. eigenvalues --   -0.55444  -0.55369  -0.55127  -0.54659  -0.54648
 Alpha  occ. eigenvalues --   -0.54159  -0.54117  -0.53655  -0.52246  -0.49035
 Alpha  occ. eigenvalues --   -0.44652
 Alpha virt. eigenvalues --    0.05411   0.06419   0.07478   0.08206   0.09594
 Alpha virt. eigenvalues --    0.09762   0.10124   0.10320   0.11484   0.12290
 Alpha virt. eigenvalues --    0.12779   0.12945   0.13042   0.13777   0.14270
 Alpha virt. eigenvalues --    0.14845   0.15672   0.16317   0.16758   0.18091
 Alpha virt. eigenvalues --    0.18269   0.18487   0.19387   0.20541   0.20828
 Alpha virt. eigenvalues --    0.21597   0.22849   0.23444   0.23760   0.24004
 Alpha virt. eigenvalues --    0.24930   0.25960   0.26585   0.26853   0.28421
 Alpha virt. eigenvalues --    0.28722   0.29430   0.29707   0.30325   0.30411
 Alpha virt. eigenvalues --    0.30629   0.30980   0.31758   0.32018   0.32581
 Alpha virt. eigenvalues --    0.33177   0.33320   0.34008   0.34595   0.35206
 Alpha virt. eigenvalues --    0.35537   0.36240   0.37177   0.37234   0.37594
 Alpha virt. eigenvalues --    0.38380   0.38431   0.39564   0.40026   0.40226
 Alpha virt. eigenvalues --    0.41313   0.41447   0.41937   0.42187   0.42726
 Alpha virt. eigenvalues --    0.42898   0.43055   0.43739   0.43753   0.44440
 Alpha virt. eigenvalues --    0.45208   0.45343   0.45499   0.46179   0.46984
 Alpha virt. eigenvalues --    0.47272   0.47883   0.48915   0.48940   0.49744
 Alpha virt. eigenvalues --    0.50575   0.51279   0.51301   0.51518   0.52372
 Alpha virt. eigenvalues --    0.53002   0.53830   0.54332   0.55010   0.55991
 Alpha virt. eigenvalues --    0.57008   0.57230   0.58454   0.60832   0.60963
 Alpha virt. eigenvalues --    0.64168   0.64763   0.65016   0.66040   0.67561
 Alpha virt. eigenvalues --    0.68820   0.69094   0.71279   0.72204   0.73111
 Alpha virt. eigenvalues --    0.73507   0.74556   0.75195   0.75577   0.78256
 Alpha virt. eigenvalues --    0.79314   0.80930   0.81193   0.81940   0.84314
 Alpha virt. eigenvalues --    0.84530   0.85041   0.86185   0.91341   0.93661
 Alpha virt. eigenvalues --    0.99391   1.01118   1.01772   1.03111   1.07523
 Alpha virt. eigenvalues --    1.07729   1.09280   1.10414   1.10752   1.11827
 Alpha virt. eigenvalues --    1.14787   1.14857   1.15860   1.17232   1.19829
 Alpha virt. eigenvalues --    1.22264   1.25306   1.25418   1.30257   1.30568
 Alpha virt. eigenvalues --    1.32159   1.34177   1.34488   1.35519   1.36000
 Alpha virt. eigenvalues --    1.38601   1.39937   1.39992   1.40686   1.41148
 Alpha virt. eigenvalues --    1.41154   1.41277   1.42263   1.42342   1.42927
 Alpha virt. eigenvalues --    1.44335   1.44880   1.45014   1.45569   1.46576
 Alpha virt. eigenvalues --    1.46891   1.47108   1.48306   1.48862   1.49395
 Alpha virt. eigenvalues --    1.49933   1.50135   1.50264   1.51130   1.51184
 Alpha virt. eigenvalues --    1.52475   1.53196   1.53378   1.53643   1.54131
 Alpha virt. eigenvalues --    1.54814   1.55115   1.55373   1.57064   1.57413
 Alpha virt. eigenvalues --    1.58393   1.58504   1.59239   1.59876   1.62302
 Alpha virt. eigenvalues --    1.63613   1.64680   1.67269   1.67966   1.70745
 Alpha virt. eigenvalues --    1.70768   1.72846   1.73583   1.78884   1.79566
 Alpha virt. eigenvalues --    1.89535   1.90041   1.97045   1.97573   1.98520
 Alpha virt. eigenvalues --    2.00481   2.02308   2.02657   2.03826   2.04239
 Alpha virt. eigenvalues --    2.05391   2.06143   2.07116   2.07310   2.08705
 Alpha virt. eigenvalues --    2.08960   2.11128   2.11627   2.12155   2.12731
 Alpha virt. eigenvalues --    2.13739   2.14265   2.14761   2.15116   2.16656
 Alpha virt. eigenvalues --    2.17396   2.18451   2.18800   2.20999   2.21068
 Alpha virt. eigenvalues --    2.21913   2.24385   2.24984   2.27237   2.28187
 Alpha virt. eigenvalues --    2.31933   2.32747   2.32889   2.34686   2.35729
 Alpha virt. eigenvalues --    2.36442   2.38273   2.39266   2.40360   2.41574
 Alpha virt. eigenvalues --    2.42880   2.43342   2.44674   2.47155   2.47958
 Alpha virt. eigenvalues --    2.52041   2.53035   2.54318   2.57017   2.59349
 Alpha virt. eigenvalues --    2.59358   2.60815   2.63358   2.64796   2.67732
 Alpha virt. eigenvalues --    2.68976   2.70013   2.70860   2.74484   2.74670
 Alpha virt. eigenvalues --    2.76331   2.77426   2.78786   2.81697   2.83790
 Alpha virt. eigenvalues --    2.84752   2.87462   2.88398   2.90474   2.91615
 Alpha virt. eigenvalues --    2.98023   2.99315   3.00612   3.06280   3.14910
 Alpha virt. eigenvalues --    3.17143   3.17998   3.23933   3.25016   3.25541
 Alpha virt. eigenvalues --    3.27197   3.32707   3.41308   3.44682   3.47888
 Alpha virt. eigenvalues --    3.48237   3.49797   3.51462   3.51911   3.52477
 Alpha virt. eigenvalues --    3.54519   3.55435   3.57076   3.58239   3.60732
 Alpha virt. eigenvalues --    3.60793   3.62012   3.64196   3.65773   3.66123
 Alpha virt. eigenvalues --    3.71288   3.72006   3.75684   3.75821   3.77578
 Alpha virt. eigenvalues --    3.77701   3.78694   3.81873   3.82875   3.84356
 Alpha virt. eigenvalues --    3.89844   3.91665   4.07227   4.07571   4.30793
 Alpha virt. eigenvalues --    4.30896   4.31733   4.32439   4.35917   4.37427
 Alpha virt. eigenvalues --    4.38449   4.38763   4.40958   4.41802   4.44524
 Alpha virt. eigenvalues --    4.51260   4.51486   6.40354   6.40927   6.42659
 Alpha virt. eigenvalues --    6.43019   6.43328   6.44383   6.44916   6.45206
 Alpha virt. eigenvalues --    6.46351   6.46938   6.48012   6.48132   6.48980
 Alpha virt. eigenvalues --    6.50395   6.51434   6.52015   6.52152   6.52679
 Alpha virt. eigenvalues --    6.52725   6.53377   6.54218   6.54928   6.55162
 Alpha virt. eigenvalues --    6.55633   6.56519   6.59089   6.60738   6.63340
 Alpha virt. eigenvalues --    6.65067   6.66877   6.69662   6.75119   6.75502
 Alpha virt. eigenvalues --    6.76490   6.86779   6.88177   6.88770   6.89070
 Alpha virt. eigenvalues --    6.91768   6.92334   6.95366   7.01890   9.07951
 Alpha virt. eigenvalues --    9.08421   9.08790   9.08861   9.09937   9.10422
 Alpha virt. eigenvalues --    9.10714   9.11410   9.11692   9.11879   9.13922
 Alpha virt. eigenvalues --    9.16895   9.17444   9.17788   9.19125   9.19155
 Alpha virt. eigenvalues --    9.20092   9.20602   9.21136   9.21216   9.22770
 Alpha virt. eigenvalues --    9.22837   9.23923   9.24037   9.24764   9.25567
 Alpha virt. eigenvalues --    9.25998   9.26548   9.26981   9.27485   9.27933
 Alpha virt. eigenvalues --    9.28417   9.29088   9.29508   9.34205   9.34820
 Alpha virt. eigenvalues --    9.34885   9.35601   9.39451   9.41675   9.43734
 Alpha virt. eigenvalues --    9.43903   9.45177   9.45648   9.50754   9.51064
 Alpha virt. eigenvalues --    9.59081   9.63679   9.65382   9.66205   9.67676
 Alpha virt. eigenvalues --    9.68308   9.68608   9.71842   9.72476   9.74598
 Alpha virt. eigenvalues --    9.75555   9.76552   9.77562   9.78313   9.79239
 Alpha virt. eigenvalues --    9.80798   9.81457   9.82815   9.85268   9.88637
 Alpha virt. eigenvalues --    9.89735   9.90416   9.91840   9.91941  23.94799
 Alpha virt. eigenvalues --   23.95032  23.99012  24.01265  24.07366  24.07891
 Alpha virt. eigenvalues --   66.92592  66.93125  66.94764  66.94791  66.95010
 Alpha virt. eigenvalues --   66.95543  66.97548  66.97746  66.99915  67.00842
 Alpha virt. eigenvalues --   67.01497  67.02109  67.06309  67.06803
          Condensed to atoms (all electrons):
               1          2          3          4          5          6
     1  C   10.502305   0.374612   0.329229  -5.066778  -0.108867  -0.193304
     2  F    0.374612   9.069867   0.002032  -0.101990   0.022238   0.000689
     3  F    0.329229   0.002032   9.111116  -0.117484  -0.000308   0.011191
     4  C   -5.066778  -0.101990  -0.117484  17.098838   0.341241   0.434904
     5  F   -0.108867   0.022238  -0.000308   0.341241   9.087337   0.003192
     6  F   -0.193304   0.000689   0.011191   0.434904   0.003192   9.085703
     7  C    2.664078   0.004910   0.002950  -9.555476  -0.146119  -0.183073
     8  F   -0.002466   0.012859   0.015130  -0.146113   0.011136   0.000092
     9  F    0.002060  -0.000885   0.009136  -0.183073   0.000092   0.027967
    10  C   -0.843777  -0.003750   0.030638   2.664212  -0.002463   0.002061
    11  F    0.030635   0.000005  -0.000079   0.002953   0.015129   0.009136
    12  F   -0.003752  -0.000858   0.000005   0.004915   0.012858  -0.000885
    13  C    0.044385   0.000083  -0.000078  -1.415796   0.027312  -0.011820
    14  C   -1.915847  -0.165930  -0.162529   1.654114  -0.014879   0.045340
    15  F   -0.000435   0.000003  -0.000004   0.018679  -0.000095   0.000027
    16  F    0.001462   0.000001   0.000050  -0.008963   0.000126  -0.000665
    17  F    0.003192   0.000017  -0.000007   0.055378  -0.000104  -0.000088
    18  F   -0.078435   0.015790   0.001584  -0.031085   0.007073   0.007809
    19  F   -0.103754   0.022530   0.019752   0.035502  -0.001077   0.000296
    20  F   -0.068217  -0.000585   0.021469   0.004165  -0.002527   0.006274
               7          8          9         10         11         12
     1  C    2.664078  -0.002466   0.002060  -0.843777   0.030635  -0.003752
     2  F    0.004910   0.012859  -0.000885  -0.003750   0.000005  -0.000858
     3  F    0.002950   0.015130   0.009136   0.030638  -0.000079   0.000005
     4  C   -9.555476  -0.146113  -0.183073   2.664212   0.002953   0.004915
     5  F   -0.146119   0.011136   0.000092  -0.002463   0.015129   0.012858
     6  F   -0.183073   0.000092   0.027967   0.002061   0.009136  -0.000885
     7  C   17.098981   0.341234   0.434911  -5.066937  -0.117496  -0.101993
     8  F    0.341234   9.087336   0.003194  -0.108866  -0.000308   0.022239
     9  F    0.434911   0.003194   9.085700  -0.193309   0.011193   0.000689
    10  C   -5.066937  -0.108866  -0.193309  10.502468   0.329244   0.374618
    11  F   -0.117496  -0.000308   0.011193   0.329244   9.111114   0.002033
    12  F   -0.101993   0.022239   0.000689   0.374618   0.002033   9.069865
    13  C    1.654213  -0.014876   0.045340  -1.916026  -0.162531  -0.165935
    14  C   -1.415728   0.027312  -0.011818   0.044409  -0.000078   0.000084
    15  F    0.035501  -0.001077   0.000296  -0.103747   0.019751   0.022530
    16  F    0.004162  -0.002528   0.006275  -0.068219   0.021469  -0.000585
    17  F   -0.031083   0.007073   0.007808  -0.078435   0.001584   0.015790
    18  F    0.055381  -0.000104  -0.000088   0.003192  -0.000007   0.000018
    19  F    0.018679  -0.000095   0.000027  -0.000435  -0.000004   0.000003
    20  F   -0.008964   0.000126  -0.000665   0.001463   0.000050   0.000001
              13         14         15         16         17         18
     1  C    0.044385  -1.915847  -0.000435   0.001462   0.003192  -0.078435
     2  F    0.000083  -0.165930   0.000003   0.000001   0.000017   0.015790
     3  F   -0.000078  -0.162529  -0.000004   0.000050  -0.000007   0.001584
     4  C   -1.415796   1.654114   0.018679  -0.008963   0.055378  -0.031085
     5  F    0.027312  -0.014879  -0.000095   0.000126  -0.000104   0.007073
     6  F   -0.011820   0.045340   0.000027  -0.000665  -0.000088   0.007809
     7  C    1.654213  -1.415728   0.035501   0.004162  -0.031083   0.055381
     8  F   -0.014876   0.027312  -0.001077  -0.002528   0.007073  -0.000104
     9  F    0.045340  -0.011818   0.000296   0.006275   0.007808  -0.000088
    10  C   -1.916026   0.044409  -0.103747  -0.068219  -0.078435   0.003192
    11  F   -0.162531  -0.000078   0.019751   0.021469   0.001584  -0.000007
    12  F   -0.165935   0.000084   0.022530  -0.000585   0.015790   0.000018
    13  C    6.162057  -0.061489   0.190283   0.282161   0.222406   0.000337
    14  C   -0.061489   6.161887   0.000052   0.000314   0.000337   0.222405
    15  F    0.190283   0.000052   9.111354  -0.007879   0.003299  -0.000000
    16  F    0.282161   0.000314  -0.007879   9.035891   0.005962  -0.000000
    17  F    0.222406   0.000337   0.003299   0.005962   9.072848  -0.000000
    18  F    0.000337   0.222405  -0.000000  -0.000000  -0.000000   9.072848
    19  F    0.000052   0.190288   0.000000  -0.000000  -0.000000   0.003298
    20  F    0.000314   0.282156  -0.000000   0.000002  -0.000000   0.005962
              19         20
     1  C   -0.103754  -0.068217
     2  F    0.022530  -0.000585
     3  F    0.019752   0.021469
     4  C    0.035502   0.004165
     5  F   -0.001077  -0.002527
     6  F    0.000296   0.006274
     7  C    0.018679  -0.008964
     8  F   -0.000095   0.000126
     9  F    0.000027  -0.000665
    10  C   -0.000435   0.001463
    11  F   -0.000004   0.000050
    12  F    0.000003   0.000001
    13  C    0.000052   0.000314
    14  C    0.190288   0.282156
    15  F    0.000000  -0.000000
    16  F   -0.000000   0.000002
    17  F   -0.000000  -0.000000
    18  F    0.003298   0.005962
    19  F    9.111355  -0.007878
    20  F   -0.007878   9.035891
 Mulliken charges:
               1
     1  C    0.433674
     2  F   -0.251640
     3  F   -0.273792
     4  C    0.311855
     5  F   -0.251297
     6  F   -0.244848
     7  C    0.311869
     8  F   -0.251298
     9  F   -0.244851
    10  C    0.433661
    11  F   -0.273794
    12  F   -0.251640
    13  C    1.119607
    14  C    1.119600
    15  F   -0.288539
    16  F   -0.269037
    17  F   -0.285976
    18  F   -0.285977
    19  F   -0.288540
    20  F   -0.269037
 Sum of Mulliken charges =  -0.00000
 Mulliken charges with hydrogens summed into heavy atoms:
               1
     1  C    0.433674
     2  F   -0.251640
     3  F   -0.273792
     4  C    0.311855
     5  F   -0.251297
     6  F   -0.244848
     7  C    0.311869
     8  F   -0.251298
     9  F   -0.244851
    10  C    0.433661
    11  F   -0.273794
    12  F   -0.251640
    13  C    1.119607
    14  C    1.119600
    15  F   -0.288539
    16  F   -0.269037
    17  F   -0.285976
    18  F   -0.285977
    19  F   -0.288540
    20  F   -0.269037
 Electronic spatial extent (au):  <R**2>=           5068.3948
 Charge=             -0.0000 electrons
 Dipole moment (field-independent basis, Debye):
    X=             -0.0000    Y=             -0.0000    Z=              0.0681  Tot=              0.0681
 Quadrupole moment (field-independent basis, Debye-Ang):
   XX=           -106.4287   YY=           -106.7470   ZZ=           -106.8169
   XY=             -0.3851   XZ=              0.0000   YZ=             -0.0000
 Traceless Quadrupole moment (field-independent basis, Debye-Ang):
   XX=              0.2355   YY=             -0.0828   ZZ=             -0.1527
   XY=             -0.3851   XZ=              0.0000   YZ=             -0.0000
 Octapole moment (field-independent basis, Debye-Ang**2):
  XXX=             -0.0001  YYY=              0.0001  ZZZ=              0.4039  XYY=              0.0000
  XXY=              0.0000  XXZ=              1.5117  XZZ=              0.0000  YZZ=             -0.0000
  YYZ=              0.8238  XYZ=              0.3522
 Hexadecapole moment (field-independent basis, Debye-Ang**3):
 XXXX=          -4053.7524 YYYY=           -598.0025 ZZZZ=           -506.3848 XXXY=            -17.0550
 XXXZ=             -0.0382 YYYX=             -0.8265 YYYZ=              0.0004 ZZZX=             -0.0389
 ZZZY=              0.0005 XXYY=           -775.7864 XXZZ=           -764.0908 YYZZ=           -184.7432
 XXYZ=             -0.0001 YYXZ=             -0.0128 ZZXY=             -1.1343
 N-N= 2.106787395606D+03 E-N=-8.077972906436D+03  KE= 1.622365717514D+03
 1\1\GINC-CCLEARNH3\FOpt\RwB97XD\6-311+G(2d)\C6F14\RAPPE\30-Nov-2021\0\
 \# opt wb97xd/6-311+g(2d) geom=connectivity\\Title Card Required\\0,1\
 C,1.9869223313,-0.0168732936,0.1438528382\F,2.1327930709,-0.3097542543
 ,1.440003104\F,2.1465158155,-1.1329638058,-0.5807022874\C,0.5519584783
 ,0.5530480853,-0.0831615246\F,0.2926454737,1.433476799,0.8919350043\F,
 0.5146381267,1.1865260566,-1.2623948765\C,-0.5519519251,-0.5530404825,
 -0.0832179441\F,-0.292689386,-1.4335257468,0.8918412637\F,-0.514581049
 9,-1.1864511082,-1.2624859782\C,-1.9869220645,0.016874564,0.1437656703
 \F,-2.146494426,1.1329802326,-0.5807709397\F,-2.1328257276,0.309732118
 4,1.4399174725\C,-3.1281010706,-0.9669250897,-0.251499112\C,3.12811244
 49,0.9669329326,-0.2513626041\F,-4.2806330219,-0.476626253,0.185228006
 5\F,-3.1972236212,-1.1056418469,-1.56683192\F,-2.9296718726,-2.1564676
 53,0.3032884047\F,2.9296758357,2.1564622894,0.3034509435\F,4.280633613
 2,0.4766184828,0.1853756835\F,3.1972602353,1.1056822532,-1.5666906545\
 \Version=EM64M-G16RevA.03\State=1-A\HF=-1626.5041609\RMSD=3.218e-09\RM
 SF=9.206e-06\Dipole=0.000002,-0.0000018,-0.0267833\Quadrupole=0.023913
 ,0.0896227,-0.1135357,0.3080313,0.0000088,0.0000083\PG=C01 [X(C6F14)]\
 \@


 I MET A TRAVELLER FROM AN ANTIQUE LAND
 WHO SAID... TWO VAST AND TRUNKLESS LEGS OF STONE
 STAND IN THE DESERT..... NEAR THEM,  ON THE SAND,
 HALF SUNK,  A SHATTERED VISAGE LIES,  WHOSE FROWN,
 AND WRINKLED LIP,  AND SNEER OF COLD COMMAND
 TELL THAT ITS SCULPTOR WELL THOSE PASSIONS READ
 WHICH YET SURVIVE,  STAMPED ON THESE LIFELESS THINGS
 THE HAND THAT MOCKED THEM,  AND THE HEART THAT FED-
 AND ON THE PEDESTAL THESE WORDS APPEAR 
 MY NAME IS OZYMANDIAS, KING OF KINGS--   
 LOOK ON MY WORKS YE MIGHTY AND DESPAIR. 
 NOTHING BESIDE REMAINS,  ROUND THE DECAY 
 OF THAT COLOSSAL WRECK,  BOUNDLESS AND BARE
 THE LONE AND LEVEL SANDS STRETCH FAR AWAY.
                                    SHELLEY
 Job cpu time:       0 days 11 hours 56 minutes 11.6 seconds.
 Elapsed time:       0 days  1 hours 32 minutes 38.4 seconds.
 File lengths (MBytes):  RWF=    177 Int=      0 D2E=      0 Chk=     22 Scr=      1
 Normal termination of Gaussian 16 at Tue Nov 30 14:40:17 2021.
