 Entering Gaussian System, Link 0=g16
 Initial command:
 /usr/local/src/g16/l1.exe "/data/g09scratch/Gau-149055.inp" -scrdir="/data/g09scratch/"
 Entering Link 1 = /usr/local/src/g16/l1.exe PID=    149056.
  
 Copyright (c) 1988,1990,1992,1993,1995,1998,2003,2009,2016,
            Gaussian, Inc.  All Rights Reserved.
  
 This is part of the Gaussian(R) 16 program.  It is based on
 the Gaussian(R) 09 system (copyright 2009, Gaussian, Inc.),
 the Gaussian(R) 03 system (copyright 2003, Gaussian, Inc.),
 the Gaussian(R) 98 system (copyright 1998, Gaussian, Inc.),
 the Gaussian(R) 94 system (copyright 1995, Gaussian, Inc.),
 the Gaussian 92(TM) system (copyright 1992, Gaussian, Inc.),
 the Gaussian 90(TM) system (copyright 1990, Gaussian, Inc.),
 the Gaussian 88(TM) system (copyright 1988, Gaussian, Inc.),
 the Gaussian 86(TM) system (copyright 1986, Carnegie Mellon
 University), and the Gaussian 82(TM) system (copyright 1983,
 Carnegie Mellon University). Gaussian is a federally registered
 trademark of Gaussian, Inc.
  
 This software contains proprietary and confidential information,
 including trade secrets, belonging to Gaussian, Inc.
  
 This software is provided under written license and may be
 used, copied, transmitted, or stored only in accord with that
 written license.
  
 The following legend is applicable only to US Government
 contracts under FAR:
  
                    RESTRICTED RIGHTS LEGEND
  
 Use, reproduction and disclosure by the US Government is
 subject to restrictions as set forth in subparagraphs (a)
 and (c) of the Commercial Computer Software - Restricted
 Rights clause in FAR 52.227-19.
  
 Gaussian, Inc.
 340 Quinnipiac St., Bldg. 40, Wallingford CT 06492
  
  
 ---------------------------------------------------------------
 Warning -- This program may not be used in any manner that
 competes with the business of Gaussian, Inc. or will provide
 assistance to any competitor of Gaussian, Inc.  The licensee
 of this program is prohibited from giving any competitor of
 Gaussian, Inc. access to this program.  By using this program,
 the user acknowledges that Gaussian, Inc. is engaged in the
 business of creating and licensing software in the field of
 computational chemistry and represents and warrants to the
 licensee that it is not a competitor of Gaussian, Inc. and that
 it will not use this program in any manner prohibited above.
 ---------------------------------------------------------------
  

 Cite this work as:
 Gaussian 16, Revision A.03,
 M. J. Frisch, G. W. Trucks, H. B. Schlegel, G. E. Scuseria, 
 M. A. Robb, J. R. Cheeseman, G. Scalmani, V. Barone, 
 G. A. Petersson, H. Nakatsuji, X. Li, M. Caricato, A. V. Marenich, 
 J. Bloino, B. G. Janesko, R. Gomperts, B. Mennucci, H. P. Hratchian, 
 J. V. Ortiz, A. F. Izmaylov, J. L. Sonnenberg, D. Williams-Young, 
 F. Ding, F. Lipparini, F. Egidi, J. Goings, B. Peng, A. Petrone, 
 T. Henderson, D. Ranasinghe, V. G. Zakrzewski, J. Gao, N. Rega, 
 G. Zheng, W. Liang, M. Hada, M. Ehara, K. Toyota, R. Fukuda, 
 J. Hasegawa, M. Ishida, T. Nakajima, Y. Honda, O. Kitao, H. Nakai, 
 T. Vreven, K. Throssell, J. A. Montgomery, Jr., J. E. Peralta, 
 F. Ogliaro, M. J. Bearpark, J. J. Heyd, E. N. Brothers, K. N. Kudin, 
 V. N. Staroverov, T. A. Keith, R. Kobayashi, J. Normand, 
 K. Raghavachari, A. P. Rendell, J. C. Burant, S. S. Iyengar, 
 J. Tomasi, M. Cossi, J. M. Millam, M. Klene, C. Adamo, R. Cammi, 
 J. W. Ochterski, R. L. Martin, K. Morokuma, O. Farkas, 
 J. B. Foresman, and D. J. Fox, Gaussian, Inc., Wallingford CT, 2016.
 
 ******************************************
 Gaussian 16:  ES64L-G16RevA.03 25-Dec-2016
                 7-May-2023 
 ******************************************
 %mem=320GB
 %nprocshared=60
 Will use up to   60 processors via shared memory.
 %chk=propene.chk
 ------------------------------------------------
 # opt freq uwb97xd/6-311+g(2d) geom=connectivity
 ------------------------------------------------
 1/18=20,19=15,26=3,38=1,57=2/1,3;
 2/9=110,12=2,17=6,18=5,40=1/2;
 3/5=4,6=6,7=12,11=2,25=1,30=1,71=1,74=-58,116=2/1,2,3;
 4//1;
 5/5=2,38=5/2;
 6/7=2,8=2,9=2,10=2,28=1/1;
 7//1,2,3,16;
 1/18=20,19=15,26=3/3(2);
 2/9=110/2;
 99//99;
 2/9=110/2;
 3/5=4,6=6,7=12,11=2,25=1,30=1,71=1,74=-58,116=2/1,2,3;
 4/5=5,16=3,69=1/1;
 5/5=2,38=5/2;
 7//1,2,3,16;
 1/18=20,19=15,26=3/3(-5);
 2/9=110/2;
 6/7=2,8=2,9=2,10=2,19=2,28=1/1;
 99/9=1/99;
 -------------------
 Title Card Required
 -------------------
 Symbolic Z-matrix:
 Charge =  0 Multiplicity = 1
 C                    -1.36924   0.24593  -0.27333 
 F                    -2.47832  -0.2775   -0.71709 
 F                    -1.526     1.48512   0.09504 
 C                     1.08984   0.05326   0.29101 
 F                     1.1016    1.37382   0.44982 
 F                     2.05744  -0.27776  -0.5666 
 C                    -0.23569  -0.43595  -0.21297 
 F                    -0.2231   -1.70932  -0.6052 
 F                     1.39372  -0.50799   1.46737 
 

 GradGradGradGradGradGradGradGradGradGradGradGradGradGradGradGradGradGrad
 Berny optimization.
 Initialization pass.
                           ----------------------------
                           !    Initial Parameters    !
                           ! (Angstroms and Degrees)  !
 --------------------------                            --------------------------
 ! Name  Definition              Value          Derivative Info.                !
 --------------------------------------------------------------------------------
 ! R1    R(1,2)                  1.3042         estimate D2E/DX2                !
 ! R2    R(1,3)                  1.3022         estimate D2E/DX2                !
 ! R3    R(1,7)                  1.3242         estimate D2E/DX2                !
 ! R4    R(4,5)                  1.3301         estimate D2E/DX2                !
 ! R5    R(4,6)                  1.3346         estimate D2E/DX2                !
 ! R6    R(4,7)                  1.5001         estimate D2E/DX2                !
 ! R7    R(4,9)                  1.3383         estimate D2E/DX2                !
 ! R8    R(7,8)                  1.3325         estimate D2E/DX2                !
 ! A1    A(2,1,3)              112.0727         estimate D2E/DX2                !
 ! A2    A(2,1,7)              122.4658         estimate D2E/DX2                !
 ! A3    A(3,1,7)              125.4607         estimate D2E/DX2                !
 ! A4    A(5,4,6)              108.4541         estimate D2E/DX2                !
 ! A5    A(5,4,7)              111.8198         estimate D2E/DX2                !
 ! A6    A(5,4,9)              108.022          estimate D2E/DX2                !
 ! A7    A(6,4,7)              110.1117         estimate D2E/DX2                !
 ! A8    A(6,4,9)              107.2287         estimate D2E/DX2                !
 ! A9    A(7,4,9)              111.049          estimate D2E/DX2                !
 ! A10   A(1,7,4)              127.1416         estimate D2E/DX2                !
 ! A11   A(1,7,8)              119.1281         estimate D2E/DX2                !
 ! A12   A(4,7,8)              113.715          estimate D2E/DX2                !
 ! D1    D(2,1,7,4)           -179.2155         estimate D2E/DX2                !
 ! D2    D(2,1,7,8)             -0.7342         estimate D2E/DX2                !
 ! D3    D(3,1,7,4)              0.4452         estimate D2E/DX2                !
 ! D4    D(3,1,7,8)            178.9266         estimate D2E/DX2                !
 ! D5    D(5,4,7,1)            -12.449          estimate D2E/DX2                !
 ! D6    D(5,4,7,8)            168.9999         estimate D2E/DX2                !
 ! D7    D(6,4,7,1)           -133.0944         estimate D2E/DX2                !
 ! D8    D(6,4,7,8)             48.3546         estimate D2E/DX2                !
 ! D9    D(9,4,7,1)            108.2925         estimate D2E/DX2                !
 ! D10   D(9,4,7,8)            -70.2586         estimate D2E/DX2                !
 --------------------------------------------------------------------------------
 Trust Radius=3.00D-01 FncErr=1.00D-07 GrdErr=1.00D-06 EigMax=2.50D+02 EigMin=1.00D-04
 Number of steps in this run=     40 maximum allowed number of steps=    100.
 GradGradGradGradGradGradGradGradGradGradGradGradGradGradGradGradGradGrad

                          Input orientation:                          
 ---------------------------------------------------------------------
 Center     Atomic      Atomic             Coordinates (Angstroms)
 Number     Number       Type             X           Y           Z
 ---------------------------------------------------------------------
      1          6           0       -1.369239    0.245931   -0.273329
      2          9           0       -2.478320   -0.277496   -0.717086
      3          9           0       -1.525998    1.485118    0.095039
      4          6           0        1.089845    0.053257    0.291005
      5          9           0        1.101604    1.373816    0.449822
      6          9           0        2.057438   -0.277756   -0.566598
      7          6           0       -0.235689   -0.435945   -0.212968
      8          9           0       -0.223097   -1.709317   -0.605197
      9          9           0        1.393716   -0.507986    1.467373
 ---------------------------------------------------------------------
                    Distance matrix (angstroms):
                    1          2          3          4          5
     1  C    0.000000
     2  F    1.304207   0.000000
     3  F    1.302249   2.161775   0.000000
     4  C    2.530354   3.722559   2.988522   0.000000
     5  F    2.810718   4.111491   2.653781   1.330127   0.000000
     6  F    3.478846   4.538254   4.048024   1.334649   2.162040
     7  C    1.324211   2.304047   2.334577   1.500116   2.345821
     8  F    2.290583   2.673698   3.520269   2.373534   3.517614
     9  F    3.351471   4.451702   3.792162   1.338347   2.159148
                    6          7          8          9
     6  F    0.000000
     7  C    2.325620   0.000000
     8  F    2.692897   1.332471   0.000000
     9  F    2.151876   2.341729   2.890126   0.000000
 Stoichiometry    C3F6
 Framework group  C1[X(C3F6)]
 Deg. of freedom    21
 Full point group                 C1      NOp   1
 Largest Abelian subgroup         C1      NOp   1
 Largest concise Abelian subgroup C1      NOp   1
                         Standard orientation:                         
 ---------------------------------------------------------------------
 Center     Atomic      Atomic             Coordinates (Angstroms)
 Number     Number       Type             X           Y           Z
 ---------------------------------------------------------------------
      1          6           0        1.406106   -0.162818   -0.004191
      2          9           0        2.550912    0.461945    0.002700
      3          9           0        1.554601   -1.456553    0.002957
      4          6           0       -1.124052   -0.131395   -0.003019
      5          9           0       -1.086675   -1.437165   -0.253631
      6          9           0       -1.891547    0.453904   -0.924792
      7          6           0        0.246958    0.477385   -0.011143
      8          9           0        0.241789    1.809763    0.003767
      9          9           0       -1.721756    0.045991    1.181234
 ---------------------------------------------------------------------
 Rotational constants (GHZ):           2.5651093           1.2603572           0.9908649
 Standard basis: 6-311+G(2d) (5D, 7F)
 There are   261 symmetry adapted cartesian basis functions of A   symmetry.
 There are   243 symmetry adapted basis functions of A   symmetry.
   243 basis functions,   378 primitive gaussians,   261 cartesian basis functions
    36 alpha electrons       36 beta electrons
       nuclear repulsion energy       512.2400178843 Hartrees.
 NAtoms=    9 NActive=    9 NUniq=    9 SFac= 1.00D+00 NAtFMM=   60 NAOKFM=F Big=F
 Integral buffers will be    131072 words long.
 Raffenetti 2 integral format.
 Two-electron integral symmetry is turned on.
 Nuclear repulsion after empirical dispersion term =      512.2371325756 Hartrees.
 One-electron integrals computed using PRISM.
 NBasis=   243 RedAO= T EigKep=  4.49D-05  NBF=   243
 NBsUse=   243 1.00D-06 EigRej= -1.00D+00 NBFU=   243
 ExpMin= 4.38D-02 ExpMax= 1.14D+04 ExpMxC= 1.72D+03 IAcc=3 IRadAn=         5 AccDes= 0.00D+00
 Harris functional with IExCor= 4639 and IRadAn=       5 diagonalized for initial guess.
 HarFok:  IExCor= 4639 AccDes= 0.00D+00 IRadAn=         5 IDoV= 1 UseB2=F ITyADJ=14
 ICtDFT=  3500011 ScaDFX=  1.000000  1.000000  1.000000  1.000000
 FoFCou: FMM=F IPFlag=           0 FMFlag=      100000 FMFlg1=           0
         NFxFlg=           0 DoJE=T BraDBF=F KetDBF=T FulRan=T
         wScrn=  0.000000 ICntrl=       500 IOpCl=  0 I1Cent=   200000004 NGrid=           0
         NMat0=    1 NMatS0=      1 NMatT0=    0 NMatD0=    1 NMtDS0=    0 NMtDT0=    0
 Petite list used in FoFCou.
 Initial guess <Sx>= 0.0000 <Sy>= 0.0000 <Sz>= 0.0000 <S**2>=-0.0000 S=-0.0000
 Keep R1 and R2 ints in memory in canonical form, NReq=1823284279.
 Requested convergence on RMS density matrix=1.00D-08 within 128 cycles.
 Requested convergence on MAX density matrix=1.00D-06.
 Requested convergence on             energy=1.00D-06.
 No special actions if energy rises.
 SCF Done:  E(UwB97XD) =  -713.359244559     A.U. after   13 cycles
            NFock= 13  Conv=0.75D-08     -V/T= 2.0025
 <Sx>= 0.0000 <Sy>= 0.0000 <Sz>= 0.0000 <S**2>=-0.0000 S=-0.0000
 <L.S>= 0.000000000000E+00
 Annihilation of the first spin contaminant:
 S**2 before annihilation    -0.0000,   after     0.0000

 **********************************************************************

            Population analysis using the SCF density.

 **********************************************************************

 Orbital symmetries:
 Alpha Orbitals:
       Occupied  (A) (A) (A) (A) (A) (A) (A) (A) (A) (A) (A) (A)
                 (A) (A) (A) (A) (A) (A) (A) (A) (A) (A) (A) (A)
                 (A) (A) (A) (A) (A) (A) (A) (A) (A) (A) (A) (A)
       Virtual   (A) (A) (A) (A) (A) (A) (A) (A) (A) (A) (A) (A)
                 (A) (A) (A) (A) (A) (A) (A) (A) (A) (A) (A) (A)
                 (A) (A) (A) (A) (A) (A) (A) (A) (A) (A) (A) (A)
                 (A) (A) (A) (A) (A) (A) (A) (A) (A) (A) (A) (A)
                 (A) (A) (A) (A) (A) (A) (A) (A) (A) (A) (A) (A)
                 (A) (A) (A) (A) (A) (A) (A) (A) (A) (A) (A) (A)
                 (A) (A) (A) (A) (A) (A) (A) (A) (A) (A) (A) (A)
                 (A) (A) (A) (A) (A) (A) (A) (A) (A) (A) (A) (A)
                 (A) (A) (A) (A) (A) (A) (A) (A) (A) (A) (A) (A)
                 (A) (A) (A) (A) (A) (A) (A) (A) (A) (A) (A) (A)
                 (A) (A) (A) (A) (A) (A) (A) (A) (A) (A) (A) (A)
                 (A) (A) (A) (A) (A) (A) (A) (A) (A) (A) (A) (A)
                 (A) (A) (A) (A) (A) (A) (A) (A) (A) (A) (A) (A)
                 (A) (A) (A) (A) (A) (A) (A) (A) (A) (A) (A) (A)
                 (A) (A) (A) (A) (A) (A) (A) (A) (A) (A) (A) (A)
                 (A) (A) (A) (A) (A) (A) (A) (A) (A) (A) (A) (A)
                 (A) (A) (A) (A) (A) (A) (A) (A) (A) (A) (A) (A)
                 (A) (A) (A)
 Beta  Orbitals:
       Occupied  (A) (A) (A) (A) (A) (A) (A) (A) (A) (A) (A) (A)
                 (A) (A) (A) (A) (A) (A) (A) (A) (A) (A) (A) (A)
                 (A) (A) (A) (A) (A) (A) (A) (A) (A) (A) (A) (A)
       Virtual   (A) (A) (A) (A) (A) (A) (A) (A) (A) (A) (A) (A)
                 (A) (A) (A) (A) (A) (A) (A) (A) (A) (A) (A) (A)
                 (A) (A) (A) (A) (A) (A) (A) (A) (A) (A) (A) (A)
                 (A) (A) (A) (A) (A) (A) (A) (A) (A) (A) (A) (A)
                 (A) (A) (A) (A) (A) (A) (A) (A) (A) (A) (A) (A)
                 (A) (A) (A) (A) (A) (A) (A) (A) (A) (A) (A) (A)
                 (A) (A) (A) (A) (A) (A) (A) (A) (A) (A) (A) (A)
                 (A) (A) (A) (A) (A) (A) (A) (A) (A) (A) (A) (A)
                 (A) (A) (A) (A) (A) (A) (A) (A) (A) (A) (A) (A)
                 (A) (A) (A) (A) (A) (A) (A) (A) (A) (A) (A) (A)
                 (A) (A) (A) (A) (A) (A) (A) (A) (A) (A) (A) (A)
                 (A) (A) (A) (A) (A) (A) (A) (A) (A) (A) (A) (A)
                 (A) (A) (A) (A) (A) (A) (A) (A) (A) (A) (A) (A)
                 (A) (A) (A) (A) (A) (A) (A) (A) (A) (A) (A) (A)
                 (A) (A) (A) (A) (A) (A) (A) (A) (A) (A) (A) (A)
                 (A) (A) (A) (A) (A) (A) (A) (A) (A) (A) (A) (A)
                 (A) (A) (A) (A) (A) (A) (A) (A) (A) (A) (A) (A)
                 (A) (A) (A)
 The electronic state is 1-A.
 Alpha  occ. eigenvalues --  -24.89446 -24.89300 -24.87158 -24.86713 -24.86597
 Alpha  occ. eigenvalues --  -24.86431 -10.57783 -10.50732 -10.42325  -1.45790
 Alpha  occ. eigenvalues --   -1.45032  -1.39190  -1.38113  -1.36511  -1.35953
 Alpha  occ. eigenvalues --   -0.95511  -0.85548  -0.78528  -0.74661  -0.73469
 Alpha  occ. eigenvalues --   -0.72064  -0.71036  -0.68248  -0.67178  -0.60563
 Alpha  occ. eigenvalues --   -0.59373  -0.58974  -0.58528  -0.58407  -0.57749
 Alpha  occ. eigenvalues --   -0.56773  -0.54700  -0.54428  -0.52772  -0.50169
 Alpha  occ. eigenvalues --   -0.37981
 Alpha virt. eigenvalues --    0.04504   0.06015   0.07777   0.09048   0.10149
 Alpha virt. eigenvalues --    0.11852   0.12801   0.13533   0.13919   0.14917
 Alpha virt. eigenvalues --    0.15286   0.17427   0.18746   0.19528   0.22499
 Alpha virt. eigenvalues --    0.25115   0.25868   0.27846   0.28749   0.29338
 Alpha virt. eigenvalues --    0.32177   0.33066   0.34547   0.34986   0.35988
 Alpha virt. eigenvalues --    0.36518   0.37442   0.38081   0.39507   0.40228
 Alpha virt. eigenvalues --    0.40780   0.41469   0.41828   0.42749   0.43214
 Alpha virt. eigenvalues --    0.43645   0.44924   0.46759   0.49066   0.50357
 Alpha virt. eigenvalues --    0.51849   0.52217   0.53049   0.55496   0.56232
 Alpha virt. eigenvalues --    0.61030   0.62781   0.65616   0.70350   0.72776
 Alpha virt. eigenvalues --    0.76034   0.76469   0.77339   0.79476   0.83944
 Alpha virt. eigenvalues --    0.84717   0.92418   0.96254   0.99390   0.99614
 Alpha virt. eigenvalues --    1.02662   1.08406   1.13178   1.19382   1.26009
 Alpha virt. eigenvalues --    1.27694   1.30228   1.32080   1.35144   1.36762
 Alpha virt. eigenvalues --    1.37870   1.39133   1.40795   1.41645   1.43429
 Alpha virt. eigenvalues --    1.44489   1.45688   1.46330   1.47616   1.48641
 Alpha virt. eigenvalues --    1.50751   1.51153   1.53131   1.53737   1.54781
 Alpha virt. eigenvalues --    1.57880   1.59684   1.60427   1.67466   1.73786
 Alpha virt. eigenvalues --    1.93574   1.95292   1.98713   2.01810   2.02491
 Alpha virt. eigenvalues --    2.04499   2.04960   2.06087   2.06792   2.07153
 Alpha virt. eigenvalues --    2.11632   2.15671   2.18267   2.19455   2.22293
 Alpha virt. eigenvalues --    2.23830   2.26088   2.26891   2.30286   2.34680
 Alpha virt. eigenvalues --    2.40334   2.44248   2.50976   2.55548   2.64113
 Alpha virt. eigenvalues --    2.64669   2.71779   2.73950   2.75694   2.79994
 Alpha virt. eigenvalues --    2.81856   2.88429   3.00253   3.02866   3.12067
 Alpha virt. eigenvalues --    3.16378   3.17976   3.23240   3.25327   3.29993
 Alpha virt. eigenvalues --    3.34243   3.36036   3.40106   3.47588   3.51207
 Alpha virt. eigenvalues --    3.54348   3.56207   3.57560   3.61779   3.69838
 Alpha virt. eigenvalues --    3.71061   3.72846   3.79286   3.87484   4.06907
 Alpha virt. eigenvalues --    4.28750   4.29573   4.31021   4.48451   4.82435
 Alpha virt. eigenvalues --    6.34569   6.36546   6.39145   6.40660   6.41481
 Alpha virt. eigenvalues --    6.43575   6.44755   6.46571   6.47977   6.49091
 Alpha virt. eigenvalues --    6.52061   6.54187   6.57652   6.66904   6.83896
 Alpha virt. eigenvalues --    6.85812   6.95672   6.96731   9.07034   9.08522
 Alpha virt. eigenvalues --    9.09580   9.11155   9.11471   9.14550   9.15487
 Alpha virt. eigenvalues --    9.17440   9.20559   9.22104   9.23126   9.24188
 Alpha virt. eigenvalues --    9.25950   9.27111   9.31640   9.33773   9.35106
 Alpha virt. eigenvalues --    9.39228   9.44989   9.51072   9.62521   9.68112
 Alpha virt. eigenvalues --    9.70976   9.72575   9.74191   9.77225   9.79638
 Alpha virt. eigenvalues --    9.86043   9.88012   9.93733  23.87596  24.05623
 Alpha virt. eigenvalues --   24.27529  66.89582  66.92787  66.93219  66.94513
 Alpha virt. eigenvalues --   66.95671  67.02204
  Beta  occ. eigenvalues --  -24.89446 -24.89300 -24.87158 -24.86713 -24.86597
  Beta  occ. eigenvalues --  -24.86431 -10.57783 -10.50732 -10.42325  -1.45790
  Beta  occ. eigenvalues --   -1.45032  -1.39190  -1.38113  -1.36511  -1.35953
  Beta  occ. eigenvalues --   -0.95511  -0.85548  -0.78528  -0.74661  -0.73469
  Beta  occ. eigenvalues --   -0.72064  -0.71036  -0.68248  -0.67178  -0.60563
  Beta  occ. eigenvalues --   -0.59373  -0.58974  -0.58528  -0.58407  -0.57749
  Beta  occ. eigenvalues --   -0.56773  -0.54700  -0.54428  -0.52772  -0.50169
  Beta  occ. eigenvalues --   -0.37981
  Beta virt. eigenvalues --    0.04504   0.06015   0.07777   0.09048   0.10149
  Beta virt. eigenvalues --    0.11852   0.12801   0.13533   0.13919   0.14917
  Beta virt. eigenvalues --    0.15286   0.17427   0.18746   0.19528   0.22499
  Beta virt. eigenvalues --    0.25115   0.25868   0.27846   0.28749   0.29338
  Beta virt. eigenvalues --    0.32177   0.33066   0.34547   0.34986   0.35988
  Beta virt. eigenvalues --    0.36518   0.37442   0.38081   0.39507   0.40228
  Beta virt. eigenvalues --    0.40780   0.41469   0.41828   0.42749   0.43214
  Beta virt. eigenvalues --    0.43645   0.44924   0.46759   0.49066   0.50357
  Beta virt. eigenvalues --    0.51849   0.52217   0.53049   0.55496   0.56232
  Beta virt. eigenvalues --    0.61030   0.62781   0.65616   0.70350   0.72776
  Beta virt. eigenvalues --    0.76034   0.76469   0.77339   0.79476   0.83944
  Beta virt. eigenvalues --    0.84717   0.92418   0.96254   0.99390   0.99614
  Beta virt. eigenvalues --    1.02662   1.08406   1.13178   1.19382   1.26009
  Beta virt. eigenvalues --    1.27694   1.30228   1.32080   1.35144   1.36762
  Beta virt. eigenvalues --    1.37870   1.39133   1.40795   1.41645   1.43429
  Beta virt. eigenvalues --    1.44489   1.45688   1.46330   1.47616   1.48641
  Beta virt. eigenvalues --    1.50751   1.51153   1.53131   1.53737   1.54781
  Beta virt. eigenvalues --    1.57880   1.59684   1.60427   1.67466   1.73786
  Beta virt. eigenvalues --    1.93574   1.95292   1.98713   2.01810   2.02491
  Beta virt. eigenvalues --    2.04499   2.04960   2.06087   2.06792   2.07153
  Beta virt. eigenvalues --    2.11632   2.15671   2.18267   2.19455   2.22293
  Beta virt. eigenvalues --    2.23830   2.26088   2.26891   2.30286   2.34680
  Beta virt. eigenvalues --    2.40334   2.44248   2.50976   2.55548   2.64113
  Beta virt. eigenvalues --    2.64669   2.71779   2.73950   2.75694   2.79994
  Beta virt. eigenvalues --    2.81856   2.88429   3.00253   3.02866   3.12067
  Beta virt. eigenvalues --    3.16378   3.17976   3.23240   3.25327   3.29993
  Beta virt. eigenvalues --    3.34243   3.36036   3.40106   3.47588   3.51207
  Beta virt. eigenvalues --    3.54348   3.56207   3.57560   3.61779   3.69838
  Beta virt. eigenvalues --    3.71061   3.72846   3.79286   3.87484   4.06907
  Beta virt. eigenvalues --    4.28750   4.29573   4.31021   4.48451   4.82435
  Beta virt. eigenvalues --    6.34569   6.36546   6.39145   6.40660   6.41481
  Beta virt. eigenvalues --    6.43575   6.44755   6.46571   6.47977   6.49091
  Beta virt. eigenvalues --    6.52061   6.54187   6.57652   6.66904   6.83896
  Beta virt. eigenvalues --    6.85812   6.95672   6.96731   9.07034   9.08522
  Beta virt. eigenvalues --    9.09580   9.11155   9.11471   9.14550   9.15487
  Beta virt. eigenvalues --    9.17440   9.20559   9.22104   9.23126   9.24188
  Beta virt. eigenvalues --    9.25950   9.27111   9.31640   9.33773   9.35106
  Beta virt. eigenvalues --    9.39228   9.44989   9.51072   9.62521   9.68112
  Beta virt. eigenvalues --    9.70976   9.72575   9.74191   9.77225   9.79638
  Beta virt. eigenvalues --    9.86043   9.88012   9.93733  23.87596  24.05623
  Beta virt. eigenvalues --   24.27529  66.89582  66.92787  66.93219  66.94513
  Beta virt. eigenvalues --   66.95671  67.02204
          Condensed to atoms (all electrons):
               1          2          3          4          5          6
     1  C    5.702456   0.187279   0.190277  -0.429232  -0.008976   0.009670
     2  F    0.187279   9.189726  -0.028255   0.018354  -0.001678  -0.000355
     3  F    0.190277  -0.028255   9.187131  -0.010712   0.011919   0.000035
     4  C   -0.429232   0.018354  -0.010712   4.818895   0.201338   0.223170
     5  F   -0.008976  -0.001678   0.011919   0.201338   9.118570   0.004806
     6  F    0.009670  -0.000355   0.000035   0.223170   0.004806   9.102078
     7  C   -0.077576  -0.080350  -0.082900   0.272800  -0.029902  -0.080555
     8  F   -0.082923  -0.007795   0.014729  -0.142463   0.009111   0.022251
     9  F   -0.018654  -0.000238  -0.000373   0.243483   0.002606  -0.009819
               7          8          9
     1  C   -0.077576  -0.082923  -0.018654
     2  F   -0.080350  -0.007795  -0.000238
     3  F   -0.082900   0.014729  -0.000373
     4  C    0.272800  -0.142463   0.243483
     5  F   -0.029902   0.009111   0.002606
     6  F   -0.080555   0.022251  -0.009819
     7  C    5.584346   0.182737  -0.061485
     8  F    0.182737   9.299783   0.012731
     9  F   -0.061485   0.012731   9.090902
          Atomic-Atomic Spin Densities.
               1          2          3          4          5          6
     1  C    0.000000   0.000000   0.000000   0.000000   0.000000   0.000000
     2  F    0.000000   0.000000   0.000000   0.000000   0.000000   0.000000
     3  F    0.000000   0.000000   0.000000   0.000000   0.000000   0.000000
     4  C    0.000000   0.000000   0.000000   0.000000   0.000000   0.000000
     5  F    0.000000   0.000000   0.000000   0.000000   0.000000   0.000000
     6  F    0.000000   0.000000   0.000000   0.000000   0.000000   0.000000
     7  C    0.000000   0.000000   0.000000   0.000000   0.000000   0.000000
     8  F    0.000000   0.000000   0.000000   0.000000   0.000000   0.000000
     9  F    0.000000   0.000000   0.000000   0.000000   0.000000   0.000000
               7          8          9
     1  C    0.000000   0.000000   0.000000
     2  F    0.000000   0.000000   0.000000
     3  F    0.000000   0.000000   0.000000
     4  C    0.000000   0.000000   0.000000
     5  F    0.000000   0.000000   0.000000
     6  F    0.000000   0.000000   0.000000
     7  C    0.000000   0.000000   0.000000
     8  F    0.000000   0.000000   0.000000
     9  F    0.000000   0.000000   0.000000
 Mulliken charges and spin densities:
               1          2
     1  C    0.527680   0.000000
     2  F   -0.276689   0.000000
     3  F   -0.281851   0.000000
     4  C    0.804366   0.000000
     5  F   -0.307795   0.000000
     6  F   -0.271282   0.000000
     7  C    0.372884   0.000000
     8  F   -0.308161   0.000000
     9  F   -0.259152   0.000000
 Sum of Mulliken charges =  -0.00000   0.00000
 Mulliken charges and spin densities with hydrogens summed into heavy atoms:
               1          2
     1  C    0.527680   0.000000
     2  F   -0.276689   0.000000
     3  F   -0.281851   0.000000
     4  C    0.804366   0.000000
     5  F   -0.307795   0.000000
     6  F   -0.271282   0.000000
     7  C    0.372884   0.000000
     8  F   -0.308161   0.000000
     9  F   -0.259152   0.000000
 Electronic spatial extent (au):  <R**2>=           1047.1338
 Charge=             -0.0000 electrons
 Dipole moment (field-independent basis, Debye):
    X=              1.0224    Y=             -0.3324    Z=             -0.0380  Tot=              1.0758
 Quadrupole moment (field-independent basis, Debye-Ang):
   XX=            -47.8704   YY=            -48.6590   ZZ=            -45.8746
   XY=             -0.2887   XZ=              0.0597   YZ=              0.0114
 Traceless Quadrupole moment (field-independent basis, Debye-Ang):
   XX=             -0.4024   YY=             -1.1910   ZZ=              1.5934
   XY=             -0.2887   XZ=              0.0597   YZ=              0.0114
 Octapole moment (field-independent basis, Debye-Ang**2):
  XXX=             -0.9479  YYY=             -2.3605  ZZZ=             -0.4728  XYY=             -1.1884
  XXY=             -1.5090  XXZ=             -0.0680  XZZ=              2.5453  YZZ=             -0.7413
  YYZ=              0.4361  XYZ=             -0.1967
 Hexadecapole moment (field-independent basis, Debye-Ang**3):
 XXXX=           -640.8473 YYYY=           -276.4305 ZZZZ=           -101.8799 XXXY=             -0.2838
 XXXZ=              0.0573 YYYX=             -1.5247 YYYZ=             -0.0815 ZZZX=              0.7739
 ZZZY=              0.0932 XXYY=           -152.0079 XXZZ=           -122.6304 YYZZ=            -61.7737
 XXYZ=              0.4510 YYXZ=             -0.3852 ZZXY=             -0.3327
 N-N= 5.122371325756D+02 E-N=-2.719233616322D+03  KE= 7.115476231996D+02
                          Isotropic Fermi Contact Couplings
        Atom                 a.u.       MegaHertz       Gauss      10(-4) cm-1
     1  C(13)              0.00000       0.00000       0.00000       0.00000
     2  F(19)              0.00000       0.00000       0.00000       0.00000
     3  F(19)              0.00000       0.00000       0.00000       0.00000
     4  C(13)              0.00000       0.00000       0.00000       0.00000
     5  F(19)              0.00000       0.00000       0.00000       0.00000
     6  F(19)              0.00000       0.00000       0.00000       0.00000
     7  C(13)              0.00000       0.00000       0.00000       0.00000
     8  F(19)              0.00000       0.00000       0.00000       0.00000
     9  F(19)              0.00000       0.00000       0.00000       0.00000
 --------------------------------------------------------
       Center         ----  Spin Dipole Couplings  ----
                      3XX-RR        3YY-RR        3ZZ-RR
 --------------------------------------------------------
     1   Atom        0.000000      0.000000      0.000000
     2   Atom        0.000000      0.000000      0.000000
     3   Atom        0.000000      0.000000      0.000000
     4   Atom        0.000000      0.000000      0.000000
     5   Atom        0.000000      0.000000      0.000000
     6   Atom        0.000000      0.000000      0.000000
     7   Atom        0.000000      0.000000      0.000000
     8   Atom        0.000000      0.000000      0.000000
     9   Atom        0.000000      0.000000      0.000000
 --------------------------------------------------------
                        XY            XZ            YZ
 --------------------------------------------------------
     1   Atom        0.000000      0.000000      0.000000
     2   Atom        0.000000      0.000000      0.000000
     3   Atom        0.000000      0.000000      0.000000
     4   Atom        0.000000      0.000000      0.000000
     5   Atom        0.000000      0.000000      0.000000
     6   Atom        0.000000      0.000000      0.000000
     7   Atom        0.000000      0.000000      0.000000
     8   Atom        0.000000      0.000000      0.000000
     9   Atom        0.000000      0.000000      0.000000
 --------------------------------------------------------


 ---------------------------------------------------------------------------------
              Anisotropic Spin Dipole Couplings in Principal Axis System
 ---------------------------------------------------------------------------------

       Atom             a.u.   MegaHertz   Gauss  10(-4) cm-1        Axes

              Baa     0.0000     0.000     0.000     0.000  1.0000  0.0000  0.0000
     1 C(13)  Bbb     0.0000     0.000     0.000     0.000 -0.0000  1.0000  0.0000
              Bcc     0.0000     0.000     0.000     0.000  0.0000  0.0000  1.0000
 
              Baa     0.0000     0.000     0.000     0.000  1.0000  0.0000  0.0000
     2 F(19)  Bbb     0.0000     0.000     0.000     0.000 -0.0000  1.0000  0.0000
              Bcc     0.0000     0.000     0.000     0.000  0.0000  0.0000  1.0000
 
              Baa     0.0000     0.000     0.000     0.000  1.0000  0.0000  0.0000
     3 F(19)  Bbb     0.0000     0.000     0.000     0.000 -0.0000  1.0000  0.0000
              Bcc     0.0000     0.000     0.000     0.000  0.0000  0.0000  1.0000
 
              Baa     0.0000     0.000     0.000     0.000  1.0000  0.0000  0.0000
     4 C(13)  Bbb     0.0000     0.000     0.000     0.000 -0.0000  1.0000  0.0000
              Bcc     0.0000     0.000     0.000     0.000  0.0000  0.0000  1.0000
 
              Baa     0.0000     0.000     0.000     0.000  1.0000  0.0000  0.0000
     5 F(19)  Bbb     0.0000     0.000     0.000     0.000 -0.0000  1.0000  0.0000
              Bcc     0.0000     0.000     0.000     0.000  0.0000  0.0000  1.0000
 
              Baa     0.0000     0.000     0.000     0.000  1.0000  0.0000  0.0000
     6 F(19)  Bbb     0.0000     0.000     0.000     0.000 -0.0000  1.0000  0.0000
              Bcc     0.0000     0.000     0.000     0.000  0.0000  0.0000  1.0000
 
              Baa     0.0000     0.000     0.000     0.000  1.0000  0.0000  0.0000
     7 C(13)  Bbb     0.0000     0.000     0.000     0.000 -0.0000  1.0000  0.0000
              Bcc     0.0000     0.000     0.000     0.000  0.0000  0.0000  1.0000
 
              Baa     0.0000     0.000     0.000     0.000  1.0000  0.0000  0.0000
     8 F(19)  Bbb     0.0000     0.000     0.000     0.000 -0.0000  1.0000  0.0000
              Bcc     0.0000     0.000     0.000     0.000  0.0000  0.0000  1.0000
 
              Baa     0.0000     0.000     0.000     0.000  1.0000  0.0000  0.0000
     9 F(19)  Bbb     0.0000     0.000     0.000     0.000 -0.0000  1.0000  0.0000
              Bcc     0.0000     0.000     0.000     0.000  0.0000  0.0000  1.0000
 

 ---------------------------------------------------------------------------------

 Calling FoFJK, ICntrl=      2127 FMM=F ISym2X=0 I1Cent= 0 IOpClX= 1 NMat=1 NMatS=1 NMatT=0.
 ***** Axes restored to original set *****
 -------------------------------------------------------------------
 Center     Atomic                   Forces (Hartrees/Bohr)
 Number     Number              X              Y              Z
 -------------------------------------------------------------------
      1        6           0.000008142    0.000044128   -0.000032792
      2        9           0.000026310    0.000009506   -0.000010011
      3        9           0.000092451    0.000010751   -0.000275050
      4        6           0.000078937   -0.000005596    0.000035707
      5        9          -0.000065343   -0.000155202    0.000253899
      6        9          -0.000143214    0.000272788   -0.000028250
      7        6          -0.000047335   -0.000044890    0.000046726
      8        9          -0.000076725    0.000003085    0.000271477
      9        9           0.000126777   -0.000134570   -0.000261706
 -------------------------------------------------------------------
 Cartesian Forces:  Max     0.000275050 RMS     0.000132368

 GradGradGradGradGradGradGradGradGradGradGradGradGradGradGradGradGradGrad
 Berny optimization.
 FormGI is forming the generalized inverse of G from B-inverse, IUseBI=4.
 Internal  Forces:  Max     0.000345593 RMS     0.000171188
 Search for a local minimum.
 Step number   1 out of a maximum of   40
 All quantities printed in internal units (Hartrees-Bohrs-Radians)
 Mixed Optimization -- En-DIIS/RFO-DIIS
 Second derivative matrix not updated -- first step.
 ITU=  0
     Eigenvalues ---    0.00764   0.01749   0.03091   0.03091   0.10881
     Eigenvalues ---    0.11233   0.24995   0.25000   0.25000   0.25000
     Eigenvalues ---    0.25000   0.25000   0.25000   0.32365   0.57577
     Eigenvalues ---    0.58421   0.58926   0.59476   0.60894   0.66038
     Eigenvalues ---    0.66572
 RFO step:  Lambda=-8.71590360D-05 EMin= 7.64414156D-03
 Linear search not attempted -- first point.
 Iteration  1 RMS(Cart)=  0.02563572 RMS(Int)=  0.00029117
 Iteration  2 RMS(Cart)=  0.00031815 RMS(Int)=  0.00000351
 Iteration  3 RMS(Cart)=  0.00000004 RMS(Int)=  0.00000351
 Variable       Old X    -DE/DX   Delta X   Delta X   Delta X     New X
                                 (Linear)    (Quad)   (Total)
    R1        2.46459  -0.00002   0.00000  -0.00003  -0.00003   2.46456
    R2        2.46089  -0.00008   0.00000  -0.00012  -0.00012   2.46077
    R3        2.50240  -0.00006   0.00000  -0.00011  -0.00011   2.50229
    R4        2.51358  -0.00012   0.00000  -0.00020  -0.00020   2.51337
    R5        2.52212  -0.00015   0.00000  -0.00026  -0.00026   2.52186
    R6        2.83481  -0.00001   0.00000  -0.00002  -0.00002   2.83479
    R7        2.52911  -0.00015   0.00000  -0.00025  -0.00025   2.52885
    R8        2.51800  -0.00008   0.00000  -0.00014  -0.00014   2.51786
    A1        1.95604   0.00002   0.00000   0.00010   0.00009   1.95613
    A2        2.13743  -0.00001   0.00000  -0.00001  -0.00002   2.13741
    A3        2.18970  -0.00001   0.00000  -0.00005  -0.00006   2.18964
    A4        1.89288  -0.00002   0.00000  -0.00012  -0.00012   1.89276
    A5        1.95162   0.00002   0.00000   0.00010   0.00010   1.95173
    A6        1.88534  -0.00003   0.00000  -0.00008  -0.00008   1.88526
    A7        1.92181  -0.00001   0.00000  -0.00006  -0.00006   1.92175
    A8        1.87149  -0.00003   0.00000  -0.00014  -0.00014   1.87135
    A9        1.93817   0.00006   0.00000   0.00028   0.00028   1.93845
   A10        2.21904   0.00003   0.00000   0.00015   0.00015   2.21919
   A11        2.07918  -0.00002   0.00000  -0.00007  -0.00007   2.07911
   A12        1.98470  -0.00001   0.00000  -0.00004  -0.00004   1.98466
    D1       -3.12790  -0.00003   0.00000  -0.00130  -0.00130  -3.12921
    D2       -0.01281  -0.00000   0.00000   0.00035   0.00035  -0.01247
    D3        0.00777   0.00026   0.00000   0.00818   0.00818   0.01595
    D4        3.12286   0.00029   0.00000   0.00983   0.00983   3.13268
    D5       -0.21728   0.00033   0.00000   0.04270   0.04270  -0.17458
    D6        2.94960   0.00030   0.00000   0.04112   0.04112   2.99073
    D7       -2.32293   0.00034   0.00000   0.04282   0.04282  -2.28012
    D8        0.84395   0.00031   0.00000   0.04124   0.04124   0.88519
    D9        1.89006   0.00035   0.00000   0.04285   0.04285   1.93291
   D10       -1.22624   0.00032   0.00000   0.04128   0.04128  -1.18496
         Item               Value     Threshold  Converged?
 Maximum Force            0.000346     0.000450     YES
 RMS     Force            0.000171     0.000300     YES
 Maximum Displacement     0.062879     0.001800     NO 
 RMS     Displacement     0.025636     0.001200     NO 
 Predicted change in Energy=-4.404818D-05
 GradGradGradGradGradGradGradGradGradGradGradGradGradGradGradGradGradGrad

                          Input orientation:                          
 ---------------------------------------------------------------------
 Center     Atomic      Atomic             Coordinates (Angstroms)
 Number     Number       Type             X           Y           Z
 ---------------------------------------------------------------------
      1          6           0       -1.368019    0.247454   -0.278299
      2          9           0       -2.478362   -0.277572   -0.716933
      3          9           0       -1.517609    1.495518    0.061765
      4          6           0        1.089197    0.052456    0.293470
      5          9           0        1.090623    1.369207    0.480864
      6          9           0        2.049045   -0.250411   -0.582817
      7          6           0       -0.237775   -0.438513   -0.204936
      8          9           0       -0.230019   -1.717468   -0.578426
      9          9           0        1.413179   -0.531048    1.453371
 ---------------------------------------------------------------------
                    Distance matrix (angstroms):
                    1          2          3          4          5
     1  C    0.000000
     2  F    1.304191   0.000000
     3  F    1.302184   2.161773   0.000000
     4  C    2.530386   3.722540   2.988570   0.000000
     5  F    2.807058   4.109044   2.644707   1.330019   0.000000
     6  F    3.466545   4.529474   4.023031   1.334510   2.161748
     7  C    1.324154   2.303968   2.334434   1.500105   2.345808
     8  F    2.290424   2.673487   3.520087   2.373429   3.520476
     9  F    3.367463   4.463021   3.825318   1.338212   2.158884
                    6          7          8          9
     6  F    0.000000
     7  C    2.325451   0.000000
     8  F    2.710426   1.332396   0.000000
     9  F    2.151545   2.341836   2.869824   0.000000
 Stoichiometry    C3F6
 Framework group  C1[X(C3F6)]
 Deg. of freedom    21
 Full point group                 C1      NOp   1
 Largest Abelian subgroup         C1      NOp   1
 Largest concise Abelian subgroup C1      NOp   1
                         Standard orientation:                         
 ---------------------------------------------------------------------
 Center     Atomic      Atomic             Coordinates (Angstroms)
 Number     Number       Type             X           Y           Z
 ---------------------------------------------------------------------
      1          6           0        1.406168   -0.162821   -0.000886
      2          9           0        2.550899    0.462056    0.004837
      3          9           0        1.554725   -1.456504   -0.000597
      4          6           0       -1.124022   -0.131415   -0.002139
      5          9           0       -1.082496   -1.446102   -0.199170
      6          9           0       -1.874241    0.415743   -0.960632
      7          6           0        0.247027    0.477255   -0.009757
      8          9           0        0.241861    1.809594    0.001503
      9          9           0       -1.743531    0.093200    1.162580
 ---------------------------------------------------------------------
 Rotational constants (GHZ):           2.5657080           1.2603082           0.9908614
 Standard basis: 6-311+G(2d) (5D, 7F)
 There are   261 symmetry adapted cartesian basis functions of A   symmetry.
 There are   243 symmetry adapted basis functions of A   symmetry.
   243 basis functions,   378 primitive gaussians,   261 cartesian basis functions
    36 alpha electrons       36 beta electrons
       nuclear repulsion energy       512.2796035703 Hartrees.
 NAtoms=    9 NActive=    9 NUniq=    9 SFac= 1.00D+00 NAtFMM=   60 NAOKFM=F Big=F
 Integral buffers will be    131072 words long.
 Raffenetti 2 integral format.
 Two-electron integral symmetry is turned on.
 Nuclear repulsion after empirical dispersion term =      512.2767218129 Hartrees.
 One-electron integrals computed using PRISM.
 NBasis=   243 RedAO= T EigKep=  4.50D-05  NBF=   243
 NBsUse=   243 1.00D-06 EigRej= -1.00D+00 NBFU=   243
 Initial guess from the checkpoint file:  "propene.chk"
 B after Tr=    -0.000000   -0.000000    0.000000
         Rot=    0.999958    0.008994    0.002016   -0.000002 Ang=   1.06 deg.
 Initial guess <Sx>= 0.0000 <Sy>= 0.0000 <Sz>= 0.0000 <S**2>= 0.0000 S= 0.0000
 ExpMin= 4.38D-02 ExpMax= 1.14D+04 ExpMxC= 1.72D+03 IAcc=2 IRadAn=         4 AccDes= 0.00D+00
 Harris functional with IExCor= 4639 and IRadAn=       4 diagonalized for initial guess.
 HarFok:  IExCor= 4639 AccDes= 0.00D+00 IRadAn=         4 IDoV= 1 UseB2=F ITyADJ=14
 ICtDFT=  3500011 ScaDFX=  1.000000  1.000000  1.000000  1.000000
 FoFCou: FMM=F IPFlag=           0 FMFlag=      100000 FMFlg1=           0
         NFxFlg=           0 DoJE=T BraDBF=F KetDBF=T FulRan=T
         wScrn=  0.000000 ICntrl=       500 IOpCl=  0 I1Cent=   200000004 NGrid=           0
         NMat0=    1 NMatS0=      1 NMatT0=    0 NMatD0=    1 NMtDS0=    0 NMtDT0=    0
 Petite list used in FoFCou.
 Keep R1 and R2 ints in memory in canonical form, NReq=1823284279.
 Requested convergence on RMS density matrix=1.00D-08 within 128 cycles.
 Requested convergence on MAX density matrix=1.00D-06.
 Requested convergence on             energy=1.00D-06.
 No special actions if energy rises.
 SCF Done:  E(UwB97XD) =  -713.359318087     A.U. after   10 cycles
            NFock= 10  Conv=0.55D-08     -V/T= 2.0025
 <Sx>= 0.0000 <Sy>= 0.0000 <Sz>= 0.0000 <S**2>=-0.0000 S=-0.0000
 <L.S>= 0.000000000000E+00
 Annihilation of the first spin contaminant:
 S**2 before annihilation    -0.0000,   after    -0.0000
 Calling FoFJK, ICntrl=      2127 FMM=F ISym2X=0 I1Cent= 0 IOpClX= 1 NMat=1 NMatS=1 NMatT=0.
 ***** Axes restored to original set *****
 -------------------------------------------------------------------
 Center     Atomic                   Forces (Hartrees/Bohr)
 Number     Number              X              Y              Z
 -------------------------------------------------------------------
      1        6           0.000158712    0.000364098   -0.000682450
      2        9          -0.000015693   -0.000032309    0.000113379
      3        9          -0.000197128   -0.000092986    0.000048969
      4        6          -0.000096392    0.000040644    0.000094057
      5        9          -0.000026719   -0.000135670    0.000104202
      6        9           0.000337419    0.000141992   -0.000235487
      7        6          -0.000062229    0.000009373    0.000676205
      8        9           0.000050394   -0.000055033    0.000307999
      9        9          -0.000148364   -0.000240109   -0.000426875
 -------------------------------------------------------------------
 Cartesian Forces:  Max     0.000682450 RMS     0.000254610

 GradGradGradGradGradGradGradGradGradGradGradGradGradGradGradGradGradGrad
 Berny optimization.
 Using GEDIIS/GDIIS optimizer.
 FormGI is forming the generalized inverse of G from B-inverse, IUseBI=4.
 Internal  Forces:  Max     0.000520464 RMS     0.000242750
 Search for a local minimum.
 Step number   2 out of a maximum of   40
 All quantities printed in internal units (Hartrees-Bohrs-Radians)
 Mixed Optimization -- En-DIIS/RFO-DIIS
 Swapping is turned off.
 Update second derivatives using D2CorX and points    1    2
 DE= -7.35D-05 DEPred=-4.40D-05 R= 1.67D+00
 TightC=F SS=  1.41D+00  RLast= 1.04D-01 DXNew= 5.0454D-01 3.1110D-01
 Trust test= 1.67D+00 RLast= 1.04D-01 DXMaxT set to 3.11D-01
 ITU=  1  0
     Eigenvalues ---    0.00156   0.01748   0.03078   0.03990   0.10896
     Eigenvalues ---    0.11324   0.24990   0.24996   0.25000   0.25000
     Eigenvalues ---    0.25000   0.25000   0.28866   0.32536   0.57584
     Eigenvalues ---    0.58913   0.59425   0.59462   0.61372   0.66038
     Eigenvalues ---    0.66568
 En-DIIS/RFO-DIIS/Sim-DIIS IScMMF=       -3 using points:     2    1
 RFO step:  Lambda=-2.30963942D-04.
 DidBck=F Rises=F RFO-DIIS coefs:    3.00000   -2.00000
 Iteration  1 RMS(Cart)=  0.08932674 RMS(Int)=  0.00342787
 Iteration  2 RMS(Cart)=  0.00382421 RMS(Int)=  0.00001225
 Iteration  3 RMS(Cart)=  0.00000585 RMS(Int)=  0.00001165
 Iteration  4 RMS(Cart)=  0.00000000 RMS(Int)=  0.00001165
 Variable       Old X    -DE/DX   Delta X   Delta X   Delta X     New X
                                 (Linear)    (Quad)   (Total)
    R1        2.46456  -0.00001  -0.00006  -0.00003  -0.00009   2.46447
    R2        2.46077  -0.00006  -0.00025  -0.00019  -0.00044   2.46034
    R3        2.50229   0.00020  -0.00021   0.00104   0.00083   2.50311
    R4        2.51337  -0.00012  -0.00041  -0.00048  -0.00089   2.51248
    R5        2.52186   0.00036  -0.00053   0.00205   0.00153   2.52339
    R6        2.83479  -0.00016  -0.00004  -0.00146  -0.00150   2.83329
    R7        2.52885  -0.00030  -0.00051  -0.00146  -0.00197   2.52689
    R8        2.51786  -0.00003  -0.00028  -0.00009  -0.00037   2.51749
    A1        1.95613  -0.00014   0.00018  -0.00179  -0.00165   1.95448
    A2        2.13741  -0.00017  -0.00005  -0.00201  -0.00209   2.13532
    A3        2.18964   0.00031  -0.00012   0.00388   0.00373   2.19337
    A4        1.89276  -0.00012  -0.00024  -0.00035  -0.00059   1.89217
    A5        1.95173   0.00008   0.00021   0.00152   0.00172   1.95345
    A6        1.88526   0.00024  -0.00017   0.00290   0.00273   1.88798
    A7        1.92175   0.00032  -0.00012   0.00398   0.00385   1.92561
    A8        1.87135   0.00001  -0.00028  -0.00096  -0.00123   1.87012
    A9        1.93845  -0.00052   0.00056  -0.00709  -0.00652   1.93193
   A10        2.21919   0.00049   0.00029   0.00597   0.00626   2.22544
   A11        2.07911  -0.00008  -0.00014  -0.00093  -0.00108   2.07803
   A12        1.98466  -0.00041  -0.00009  -0.00497  -0.00506   1.97959
    D1       -3.12921   0.00011  -0.00261   0.01063   0.00802  -3.12119
    D2       -0.01247   0.00014   0.00069   0.01433   0.01503   0.00256
    D3        0.01595  -0.00013   0.01635  -0.01855  -0.00220   0.01375
    D4        3.13268  -0.00011   0.01965  -0.01484   0.00481   3.13750
    D5       -0.17458   0.00030   0.08539   0.07438   0.15977  -0.01481
    D6        2.99073   0.00027   0.08224   0.07081   0.15305  -3.13941
    D7       -2.28012   0.00018   0.08563   0.07110   0.15673  -2.12339
    D8        0.88519   0.00016   0.08248   0.06753   0.15001   1.03520
    D9        1.93291   0.00030   0.08571   0.07420   0.15990   2.09281
   D10       -1.18496   0.00027   0.08256   0.07062   0.15318  -1.03178
         Item               Value     Threshold  Converged?
 Maximum Force            0.000520     0.000450     NO 
 RMS     Force            0.000243     0.000300     YES
 Maximum Displacement     0.211013     0.001800     NO 
 RMS     Displacement     0.089368     0.001200     NO 
 Predicted change in Energy=-1.316614D-04
 GradGradGradGradGradGradGradGradGradGradGradGradGradGradGradGradGradGrad

                          Input orientation:                          
 ---------------------------------------------------------------------
 Center     Atomic      Atomic             Coordinates (Angstroms)
 Number     Number       Type             X           Y           Z
 ---------------------------------------------------------------------
      1          6           0       -1.362462    0.256879   -0.307016
      2          9           0       -2.478314   -0.281997   -0.713555
      3          9           0       -1.499334    1.525831   -0.049898
      4          6           0        1.089087    0.050888    0.299938
      5          9           0        1.064592    1.348151    0.590115
      6          9           0        2.021044   -0.154900   -0.633969
      7          6           0       -0.244272   -0.441261   -0.177428
      8          9           0       -0.254068   -1.739889   -0.474460
      9          9           0        1.473986   -0.614080    1.394332
 ---------------------------------------------------------------------
                    Distance matrix (angstroms):
                    1          2          3          4          5
     1  C    0.000000
     2  F    1.304142   0.000000
     3  F    1.301953   2.160343   0.000000
     4  C    2.533953   3.723484   2.999628   0.000000
     5  F    2.808258   4.112071   2.648567   1.329547   0.000000
     6  F    3.424116   4.501856   3.944497   1.335318   2.161561
     7  C    1.324591   2.302986   2.336856   1.499311   2.346112
     8  F    2.289903   2.670185   3.520776   2.368678   3.522524
     9  F    3.420321   4.491564   3.937722   1.337172   2.159796
                    6          7          8          9
     6  F    0.000000
     7  C    2.328537   0.000000
     8  F    2.777366   1.332200   0.000000
     9  F    2.150377   2.335103   2.783163   0.000000
 Stoichiometry    C3F6
 Framework group  C1[X(C3F6)]
 Deg. of freedom    21
 Full point group                 C1      NOp   1
 Largest Abelian subgroup         C1      NOp   1
 Largest concise Abelian subgroup C1      NOp   1
                         Standard orientation:                         
 ---------------------------------------------------------------------
 Center     Atomic      Atomic             Coordinates (Angstroms)
 Number     Number       Type             X           Y           Z
 ---------------------------------------------------------------------
      1          6           0        1.408537   -0.162112   -0.004493
      2          9           0        2.548746    0.470766    0.008743
      3          9           0        1.568288   -1.454227   -0.004890
      4          6           0       -1.125258   -0.134170    0.000019
      5          9           0       -1.080264   -1.462951   -0.003478
      6          9           0       -1.817460    0.267236   -1.069002
      7          6           0        0.245832    0.472424   -0.009374
      8          9           0        0.235588    1.804572   -0.003471
      9          9           0       -1.807638    0.257177    1.081330
 ---------------------------------------------------------------------
 Rotational constants (GHZ):           2.5697044           1.2576118           0.9896452
 Standard basis: 6-311+G(2d) (5D, 7F)
 There are   261 symmetry adapted cartesian basis functions of A   symmetry.
 There are   243 symmetry adapted basis functions of A   symmetry.
   243 basis functions,   378 primitive gaussians,   261 cartesian basis functions
    36 alpha electrons       36 beta electrons
       nuclear repulsion energy       512.2260292478 Hartrees.
 NAtoms=    9 NActive=    9 NUniq=    9 SFac= 1.00D+00 NAtFMM=   60 NAOKFM=F Big=F
 Integral buffers will be    131072 words long.
 Raffenetti 2 integral format.
 Two-electron integral symmetry is turned on.
 Nuclear repulsion after empirical dispersion term =      512.2231520583 Hartrees.
 One-electron integrals computed using PRISM.
 NBasis=   243 RedAO= T EigKep=  4.48D-05  NBF=   243
 NBsUse=   243 1.00D-06 EigRej= -1.00D+00 NBFU=   243
 Initial guess from the checkpoint file:  "propene.chk"
 B after Tr=    -0.000000    0.000000   -0.000000
         Rot=    0.999450    0.032567    0.006127   -0.001026 Ang=   3.80 deg.
 Initial guess <Sx>= 0.0000 <Sy>= 0.0000 <Sz>= 0.0000 <S**2>=-0.0000 S=-0.0000
 ExpMin= 4.38D-02 ExpMax= 1.14D+04 ExpMxC= 1.72D+03 IAcc=2 IRadAn=         4 AccDes= 0.00D+00
 Harris functional with IExCor= 4639 and IRadAn=       4 diagonalized for initial guess.
 HarFok:  IExCor= 4639 AccDes= 0.00D+00 IRadAn=         4 IDoV= 1 UseB2=F ITyADJ=14
 ICtDFT=  3500011 ScaDFX=  1.000000  1.000000  1.000000  1.000000
 FoFCou: FMM=F IPFlag=           0 FMFlag=      100000 FMFlg1=           0
         NFxFlg=           0 DoJE=T BraDBF=F KetDBF=T FulRan=T
         wScrn=  0.000000 ICntrl=       500 IOpCl=  0 I1Cent=   200000004 NGrid=           0
         NMat0=    1 NMatS0=      1 NMatT0=    0 NMatD0=    1 NMtDS0=    0 NMtDT0=    0
 Petite list used in FoFCou.
 Keep R1 and R2 ints in memory in canonical form, NReq=1823284279.
 Requested convergence on RMS density matrix=1.00D-08 within 128 cycles.
 Requested convergence on MAX density matrix=1.00D-06.
 Requested convergence on             energy=1.00D-06.
 No special actions if energy rises.
 SCF Done:  E(UwB97XD) =  -713.359436386     A.U. after   11 cycles
            NFock= 11  Conv=0.78D-08     -V/T= 2.0025
 <Sx>= 0.0000 <Sy>= 0.0000 <Sz>= 0.0000 <S**2>= 0.0000 S= 0.0000
 <L.S>= 0.000000000000E+00
 Annihilation of the first spin contaminant:
 S**2 before annihilation     0.0000,   after     0.0000
 Calling FoFJK, ICntrl=      2127 FMM=F ISym2X=0 I1Cent= 0 IOpClX= 1 NMat=1 NMatS=1 NMatT=0.
 ***** Axes restored to original set *****
 -------------------------------------------------------------------
 Center     Atomic                   Forces (Hartrees/Bohr)
 Number     Number              X              Y              Z
 -------------------------------------------------------------------
      1        6           0.000112503   -0.000191527    0.000727521
      2        9          -0.000030882   -0.000089112   -0.000577313
      3        9           0.000267784    0.000077319   -0.000098923
      4        6          -0.000250866   -0.000065434    0.000104655
      5        9          -0.000062395    0.000054242   -0.000306661
      6        9           0.001028316    0.000221085   -0.000517946
      7        6          -0.000559438    0.000378147    0.001313582
      8        9           0.000042197   -0.000329206   -0.000274294
      9        9          -0.000547220   -0.000055516   -0.000370621
 -------------------------------------------------------------------
 Cartesian Forces:  Max     0.001313582 RMS     0.000445914

 GradGradGradGradGradGradGradGradGradGradGradGradGradGradGradGradGradGrad
 Berny optimization.
 Using GEDIIS/GDIIS optimizer.
 FormGI is forming the generalized inverse of G from B-inverse, IUseBI=4.
 Internal  Forces:  Max     0.001056507 RMS     0.000423665
 Search for a local minimum.
 Step number   3 out of a maximum of   40
 All quantities printed in internal units (Hartrees-Bohrs-Radians)
 Mixed Optimization -- En-DIIS/RFO-DIIS
 Swapping is turned off.
 Update second derivatives using D2CorX and points    1    2    3
 DE= -1.18D-04 DEPred=-1.32D-04 R= 8.99D-01
 TightC=F SS=  1.41D+00  RLast= 3.81D-01 DXNew= 5.2321D-01 1.1445D+00
 Trust test= 8.99D-01 RLast= 3.81D-01 DXMaxT set to 5.23D-01
 ITU=  1  1  0
     Eigenvalues ---    0.00155   0.01817   0.03244   0.04042   0.10911
     Eigenvalues ---    0.11364   0.24991   0.24998   0.25000   0.25000
     Eigenvalues ---    0.25000   0.25838   0.28953   0.32547   0.57576
     Eigenvalues ---    0.58923   0.59456   0.60052   0.61370   0.66067
     Eigenvalues ---    0.66570
 En-DIIS/RFO-DIIS/Sim-DIIS IScMMF=       -3 using points:     3    2    1
 RFO step:  Lambda=-4.19590757D-05.
 DidBck=T Rises=F RFO-DIIS coefs:    0.69013    1.63687   -1.32701
 Iteration  1 RMS(Cart)=  0.00601697 RMS(Int)=  0.00002442
 Iteration  2 RMS(Cart)=  0.00003110 RMS(Int)=  0.00000550
 Iteration  3 RMS(Cart)=  0.00000000 RMS(Int)=  0.00000550
 Variable       Old X    -DE/DX   Delta X   Delta X   Delta X     New X
                                 (Linear)    (Quad)   (Total)
    R1        2.46447   0.00024  -0.00001   0.00023   0.00021   2.46469
    R2        2.46034   0.00003  -0.00003   0.00003   0.00000   2.46034
    R3        2.50311  -0.00041  -0.00040   0.00006  -0.00034   2.50278
    R4        2.51248  -0.00001   0.00001  -0.00007  -0.00007   2.51241
    R5        2.52339   0.00105  -0.00082   0.00201   0.00119   2.52457
    R6        2.83329  -0.00015   0.00044  -0.00081  -0.00038   2.83291
    R7        2.52689  -0.00043   0.00027  -0.00085  -0.00057   2.52631
    R8        2.51749   0.00038  -0.00007   0.00044   0.00037   2.51786
    A1        1.95448   0.00029   0.00063  -0.00007   0.00056   1.95505
    A2        2.13532   0.00001   0.00062  -0.00073  -0.00011   2.13520
    A3        2.19337  -0.00030  -0.00123   0.00078  -0.00045   2.19292
    A4        1.89217  -0.00042   0.00003  -0.00105  -0.00102   1.89115
    A5        1.95345  -0.00030  -0.00040  -0.00039  -0.00078   1.95267
    A6        1.88798   0.00052  -0.00096   0.00202   0.00106   1.88904
    A7        1.92561   0.00106  -0.00127   0.00426   0.00299   1.92860
    A8        1.87012   0.00010   0.00020   0.00033   0.00052   1.87064
    A9        1.93193  -0.00094   0.00239  -0.00512  -0.00272   1.92920
   A10        2.22544  -0.00023  -0.00174   0.00167  -0.00009   2.22535
   A11        2.07803   0.00011   0.00024  -0.00001   0.00022   2.07824
   A12        1.97959   0.00013   0.00151  -0.00152  -0.00002   1.97957
    D1       -3.12119  -0.00069  -0.00422  -0.01076  -0.01498  -3.13616
    D2        0.00256  -0.00039  -0.00420   0.00002  -0.00418  -0.00162
    D3        0.01375   0.00002   0.01153  -0.01390  -0.00237   0.01137
    D4        3.13750   0.00033   0.01155  -0.00312   0.00842  -3.13726
    D5       -0.01481   0.00018   0.00715   0.00589   0.01304  -0.00178
    D6       -3.13941  -0.00011   0.00714  -0.00439   0.00275  -3.13666
    D7       -2.12339   0.00018   0.00825   0.00454   0.01279  -2.11060
    D8        1.03520  -0.00011   0.00825  -0.00574   0.00251   1.03770
    D9        2.09281  -0.00002   0.00732   0.00465   0.01197   2.10478
   D10       -1.03178  -0.00031   0.00731  -0.00563   0.00168  -1.03010
         Item               Value     Threshold  Converged?
 Maximum Force            0.001057     0.000450     NO 
 RMS     Force            0.000424     0.000300     NO 
 Maximum Displacement     0.012656     0.001800     NO 
 RMS     Displacement     0.006018     0.001200     NO 
 Predicted change in Energy=-1.843200D-05
 GradGradGradGradGradGradGradGradGradGradGradGradGradGradGradGradGradGrad

                          Input orientation:                          
 ---------------------------------------------------------------------
 Center     Atomic      Atomic             Coordinates (Angstroms)
 Number     Number       Type             X           Y           Z
 ---------------------------------------------------------------------
      1          6           0       -1.362946    0.256285   -0.304129
      2          9           0       -2.476603   -0.280483   -0.719740
      3          9           0       -1.496889    1.527129   -0.054931
      4          6           0        1.088929    0.050682    0.299983
      5          9           0        1.062331    1.346972    0.594138
      6          9           0        2.018877   -0.148824   -0.638178
      7          6           0       -0.246051   -0.442871   -0.170730
      8          9           0       -0.255606   -1.741492   -0.468670
      9          9           0        1.478218   -0.617777    1.390319
 ---------------------------------------------------------------------
                    Distance matrix (angstroms):
                    1          2          3          4          5
     1  C    0.000000
     2  F    1.304256   0.000000
     3  F    1.301954   2.160849   0.000000
     4  C    2.533559   3.723242   2.998719   0.000000
     5  F    2.806858   4.110832   2.646385   1.329512   0.000000
     6  F    3.422343   4.498147   3.938224   1.335946   2.161247
     7  C    1.324413   2.302856   2.336430   1.499112   2.345298
     8  F    2.290063   2.670283   3.520773   2.368647   3.522091
     9  F    3.421601   4.495189   3.942161   1.336868   2.160349
                    6          7          8          9
     6  F    0.000000
     7  C    2.331280   0.000000
     8  F    2.781833   1.332394   0.000000
     9  F    2.151053   2.332503   2.779338   0.000000
 Stoichiometry    C3F6
 Framework group  C1[X(C3F6)]
 Deg. of freedom    21
 Full point group                 C1      NOp   1
 Largest Abelian subgroup         C1      NOp   1
 Largest concise Abelian subgroup C1      NOp   1
                         Standard orientation:                         
 ---------------------------------------------------------------------
 Center     Atomic      Atomic             Coordinates (Angstroms)
 Number     Number       Type             X           Y           Z
 ---------------------------------------------------------------------
      1          6           0        1.408266   -0.162165    0.000873
      2          9           0        2.548668    0.470733    0.003575
      3          9           0        1.567240   -1.454369   -0.003650
      4          6           0       -1.125136   -0.133984   -0.000117
      5          9           0       -1.079117   -1.462687    0.005375
      6          9           0       -1.812846    0.258700   -1.076038
      7          6           0        0.245823    0.472484   -0.003169
      8          9           0        0.235546    1.804838   -0.002658
      9          9           0       -1.812127    0.265229    1.075005
 ---------------------------------------------------------------------
 Rotational constants (GHZ):           2.5692992           1.2579691           0.9899044
 Standard basis: 6-311+G(2d) (5D, 7F)
 There are   261 symmetry adapted cartesian basis functions of A   symmetry.
 There are   243 symmetry adapted basis functions of A   symmetry.
   243 basis functions,   378 primitive gaussians,   261 cartesian basis functions
    36 alpha electrons       36 beta electrons
       nuclear repulsion energy       512.2423653399 Hartrees.
 NAtoms=    9 NActive=    9 NUniq=    9 SFac= 1.00D+00 NAtFMM=   60 NAOKFM=F Big=F
 Integral buffers will be    131072 words long.
 Raffenetti 2 integral format.
 Two-electron integral symmetry is turned on.
 Nuclear repulsion after empirical dispersion term =      512.2394884957 Hartrees.
 One-electron integrals computed using PRISM.
 NBasis=   243 RedAO= T EigKep=  4.47D-05  NBF=   243
 NBsUse=   243 1.00D-06 EigRej= -1.00D+00 NBFU=   243
 Initial guess from the checkpoint file:  "propene.chk"
 B after Tr=     0.000000    0.000000    0.000000
         Rot=    0.999998    0.001721    0.000460   -0.000008 Ang=   0.20 deg.
 Initial guess <Sx>= 0.0000 <Sy>= 0.0000 <Sz>= 0.0000 <S**2>= 0.0000 S= 0.0000
 Keep R1 and R2 ints in memory in canonical form, NReq=1823284279.
 Requested convergence on RMS density matrix=1.00D-08 within 128 cycles.
 Requested convergence on MAX density matrix=1.00D-06.
 Requested convergence on             energy=1.00D-06.
 No special actions if energy rises.
 SCF Done:  E(UwB97XD) =  -713.359450872     A.U. after    9 cycles
            NFock=  9  Conv=0.66D-08     -V/T= 2.0025
 <Sx>= 0.0000 <Sy>= 0.0000 <Sz>= 0.0000 <S**2>=-0.0000 S=-0.0000
 <L.S>= 0.000000000000E+00
 Annihilation of the first spin contaminant:
 S**2 before annihilation    -0.0000,   after    -0.0000
 Calling FoFJK, ICntrl=      2127 FMM=F ISym2X=0 I1Cent= 0 IOpClX= 1 NMat=1 NMatS=1 NMatT=0.
 ***** Axes restored to original set *****
 -------------------------------------------------------------------
 Center     Atomic                   Forces (Hartrees/Bohr)
 Number     Number              X              Y              Z
 -------------------------------------------------------------------
      1        6           0.000267648    0.000086594   -0.000464984
      2        9          -0.000094593   -0.000081773   -0.000002747
      3        9           0.000035072   -0.000042091    0.000252914
      4        6          -0.000273225   -0.000064919    0.000290975
      5        9           0.000034991    0.000078689   -0.000175824
      6        9           0.000378207    0.000098757   -0.000210960
      7        6          -0.000218451    0.000165592    0.000537814
      8        9          -0.000034746   -0.000224922   -0.000063413
      9        9          -0.000094904   -0.000015927   -0.000163774
 -------------------------------------------------------------------
 Cartesian Forces:  Max     0.000537814 RMS     0.000213732

 GradGradGradGradGradGradGradGradGradGradGradGradGradGradGradGradGradGrad
 Berny optimization.
 Using GEDIIS/GDIIS optimizer.
 FormGI is forming the generalized inverse of G from B-inverse, IUseBI=4.
 Internal  Forces:  Max     0.000396903 RMS     0.000152074
 Search for a local minimum.
 Step number   4 out of a maximum of   40
 All quantities printed in internal units (Hartrees-Bohrs-Radians)
 Mixed Optimization -- En-DIIS/RFO-DIIS
 Swapping is turned off.
 Update second derivatives using D2CorX and points    1    2    3    4
 DE= -1.45D-05 DEPred=-1.84D-05 R= 7.86D-01
 TightC=F SS=  1.41D+00  RLast= 2.89D-02 DXNew= 8.7994D-01 8.6643D-02
 Trust test= 7.86D-01 RLast= 2.89D-02 DXMaxT set to 5.23D-01
 ITU=  1  1  1  0
     Eigenvalues ---    0.00157   0.01731   0.03122   0.06585   0.11108
     Eigenvalues ---    0.11526   0.24525   0.24996   0.25000   0.25000
     Eigenvalues ---    0.25000   0.25333   0.29237   0.32609   0.57518
     Eigenvalues ---    0.58574   0.59129   0.59479   0.61372   0.66003
     Eigenvalues ---    0.66570
 En-DIIS/RFO-DIIS/Sim-DIIS IScMMF=       -3 using points:     4    3    2    1
 RFO step:  Lambda=-5.61686253D-06.
 DidBck=F Rises=F RFO-DIIS coefs:    1.51319   -0.32084   -1.08392    0.89157
 Iteration  1 RMS(Cart)=  0.00421908 RMS(Int)=  0.00001255
 Iteration  2 RMS(Cart)=  0.00001184 RMS(Int)=  0.00000402
 Iteration  3 RMS(Cart)=  0.00000000 RMS(Int)=  0.00000402
 Variable       Old X    -DE/DX   Delta X   Delta X   Delta X     New X
                                 (Linear)    (Quad)   (Total)
    R1        2.46469   0.00011   0.00012   0.00015   0.00027   2.46495
    R2        2.46034   0.00000   0.00003  -0.00001   0.00001   2.46035
    R3        2.50278  -0.00017   0.00008  -0.00062  -0.00054   2.50223
    R4        2.51241   0.00004  -0.00002   0.00012   0.00010   2.51251
    R5        2.52457   0.00040   0.00114  -0.00025   0.00088   2.52546
    R6        2.83291  -0.00001  -0.00046   0.00050   0.00003   2.83295
    R7        2.52631  -0.00015  -0.00045   0.00011  -0.00034   2.52598
    R8        2.51786   0.00023   0.00024   0.00034   0.00059   2.51845
    A1        1.95505   0.00010  -0.00011   0.00094   0.00083   1.95588
    A2        2.13520   0.00003  -0.00044   0.00080   0.00036   2.13556
    A3        2.19292  -0.00014   0.00054  -0.00172  -0.00118   2.19174
    A4        1.89115  -0.00022  -0.00053  -0.00127  -0.00180   1.88935
    A5        1.95267  -0.00006  -0.00016  -0.00050  -0.00067   1.95200
    A6        1.88904   0.00017   0.00114  -0.00006   0.00108   1.89012
    A7        1.92860   0.00030   0.00233  -0.00076   0.00157   1.93017
    A8        1.87064  -0.00003   0.00016   0.00001   0.00017   1.87081
    A9        1.92920  -0.00016  -0.00290   0.00255  -0.00035   1.92885
   A10        2.22535  -0.00015   0.00103  -0.00239  -0.00138   2.22398
   A11        2.07824   0.00003  -0.00003   0.00033   0.00028   2.07852
   A12        1.97957   0.00012  -0.00095   0.00207   0.00111   1.98068
    D1       -3.13616   0.00000  -0.00498   0.00055  -0.00444  -3.14060
    D2       -0.00162   0.00008   0.00044   0.00218   0.00262   0.00100
    D3        0.01137  -0.00028  -0.00893  -0.00216  -0.01109   0.00028
    D4       -3.13726  -0.00020  -0.00351  -0.00053  -0.00404  -3.14130
    D5       -0.00178  -0.00004  -0.00064  -0.00050  -0.00115  -0.00292
    D6       -3.13666  -0.00010  -0.00581  -0.00206  -0.00787   3.13866
    D7       -2.11060   0.00007  -0.00146   0.00198   0.00051  -2.11009
    D8        1.03770   0.00001  -0.00663   0.00042  -0.00621   1.03150
    D9        2.10478   0.00003  -0.00131   0.00084  -0.00047   2.10432
   D10       -1.03010  -0.00004  -0.00647  -0.00071  -0.00719  -1.03729
         Item               Value     Threshold  Converged?
 Maximum Force            0.000397     0.000450     YES
 RMS     Force            0.000152     0.000300     YES
 Maximum Displacement     0.014174     0.001800     NO 
 RMS     Displacement     0.004219     0.001200     NO 
 Predicted change in Energy=-2.405550D-06
 GradGradGradGradGradGradGradGradGradGradGradGradGradGradGradGradGradGrad

                          Input orientation:                          
 ---------------------------------------------------------------------
 Center     Atomic      Atomic             Coordinates (Angstroms)
 Number     Number       Type             X           Y           Z
 ---------------------------------------------------------------------
      1          6           0       -1.362310    0.256008   -0.304470
      2          9           0       -2.475998   -0.278892   -0.722842
      3          9           0       -1.495719    1.525353   -0.047431
      4          6           0        1.088412    0.050555    0.299788
      5          9           0        1.061552    1.348188    0.588175
      6          9           0        2.019996   -0.150821   -0.637014
      7          6           0       -0.246666   -0.444273   -0.169366
      8          9           0       -0.255833   -1.742302   -0.471263
      9          9           0        1.476825   -0.614194    1.392484
 ---------------------------------------------------------------------
                    Distance matrix (angstroms):
                    1          2          3          4          5
     1  C    0.000000
     2  F    1.304398   0.000000
     3  F    1.301961   2.161579   0.000000
     4  C    2.532464   3.722811   2.995550   0.000000
     5  F    2.804421   4.108578   2.641026   1.329564   0.000000
     6  F    3.422877   4.498636   3.939216   1.336413   2.160262
     7  C    1.324126   2.302956   2.335472   1.499131   2.344828
     8  F    2.290274   2.670953   3.520585   2.369778   3.522646
     9  F    3.420174   4.495757   3.935356   1.336689   2.161089
                    6          7          8          9
     6  F    0.000000
     7  C    2.332930   0.000000
     8  F    2.782028   1.332705   0.000000
     9  F    2.151421   2.332095   2.783573   0.000000
 Stoichiometry    C3F6
 Framework group  C1[X(C3F6)]
 Deg. of freedom    21
 Full point group                 C1      NOp   1
 Largest Abelian subgroup         C1      NOp   1
 Largest concise Abelian subgroup C1      NOp   1
                         Standard orientation:                         
 ---------------------------------------------------------------------
 Center     Atomic      Atomic             Coordinates (Angstroms)
 Number     Number       Type             X           Y           Z
 ---------------------------------------------------------------------
      1          6           0        1.407643   -0.162425   -0.000320
      2          9           0        2.549170    0.468740    0.000363
      3          9           0        1.563495   -1.455024   -0.000105
      4          6           0       -1.124653   -0.133213    0.000001
      5          9           0       -1.077521   -1.461937   -0.003066
      6          9           0       -1.814583    0.263612   -1.073558
      7          6           0        0.246219    0.473502   -0.000430
      8          9           0        0.237190    1.806177   -0.000991
      9          9           0       -1.810556    0.259856    1.077856
 ---------------------------------------------------------------------
 Rotational constants (GHZ):           2.5683820           1.2586922           0.9902709
 Standard basis: 6-311+G(2d) (5D, 7F)
 There are   261 symmetry adapted cartesian basis functions of A   symmetry.
 There are   243 symmetry adapted basis functions of A   symmetry.
   243 basis functions,   378 primitive gaussians,   261 cartesian basis functions
    36 alpha electrons       36 beta electrons
       nuclear repulsion energy       512.2658172115 Hartrees.
 NAtoms=    9 NActive=    9 NUniq=    9 SFac= 1.00D+00 NAtFMM=   60 NAOKFM=F Big=F
 Integral buffers will be    131072 words long.
 Raffenetti 2 integral format.
 Two-electron integral symmetry is turned on.
 Nuclear repulsion after empirical dispersion term =      512.2629406511 Hartrees.
 One-electron integrals computed using PRISM.
 NBasis=   243 RedAO= T EigKep=  4.48D-05  NBF=   243
 NBsUse=   243 1.00D-06 EigRej= -1.00D+00 NBFU=   243
 Initial guess from the checkpoint file:  "propene.chk"
 B after Tr=     0.000000   -0.000000   -0.000000
         Rot=    0.999999   -0.001068   -0.000168    0.000238 Ang=  -0.13 deg.
 Initial guess <Sx>= 0.0000 <Sy>= 0.0000 <Sz>= 0.0000 <S**2>=-0.0000 S=-0.0000
 Keep R1 and R2 ints in memory in canonical form, NReq=1823284279.
 Requested convergence on RMS density matrix=1.00D-08 within 128 cycles.
 Requested convergence on MAX density matrix=1.00D-06.
 Requested convergence on             energy=1.00D-06.
 No special actions if energy rises.
 SCF Done:  E(UwB97XD) =  -713.359453469     A.U. after    9 cycles
            NFock=  9  Conv=0.53D-08     -V/T= 2.0025
 <Sx>= 0.0000 <Sy>= 0.0000 <Sz>= 0.0000 <S**2>=-0.0000 S=-0.0000
 <L.S>= 0.000000000000E+00
 Annihilation of the first spin contaminant:
 S**2 before annihilation    -0.0000,   after     0.0000
 Calling FoFJK, ICntrl=      2127 FMM=F ISym2X=0 I1Cent= 0 IOpClX= 1 NMat=1 NMatS=1 NMatT=0.
 ***** Axes restored to original set *****
 -------------------------------------------------------------------
 Center     Atomic                   Forces (Hartrees/Bohr)
 Number     Number              X              Y              Z
 -------------------------------------------------------------------
      1        6          -0.000121625    0.000052964    0.000039415
      2        9           0.000055733    0.000095930    0.000002968
      3        9          -0.000156731   -0.000026009   -0.000050697
      4        6          -0.000030383    0.000043279    0.000085188
      5        9           0.000010600    0.000005892    0.000106689
      6        9          -0.000042013   -0.000143428   -0.000044697
      7        6           0.000220976   -0.000137381   -0.000126965
      8        9           0.000024825    0.000061023    0.000062474
      9        9           0.000038618    0.000047729   -0.000074374
 -------------------------------------------------------------------
 Cartesian Forces:  Max     0.000220976 RMS     0.000087468

 GradGradGradGradGradGradGradGradGradGradGradGradGradGradGradGradGradGrad
 Berny optimization.
 Using GEDIIS/GDIIS optimizer.
 FormGI is forming the generalized inverse of G from B-inverse, IUseBI=4.
 Internal  Forces:  Max     0.000254231 RMS     0.000108833
 Search for a local minimum.
 Step number   5 out of a maximum of   40
 All quantities printed in internal units (Hartrees-Bohrs-Radians)
 Mixed Optimization -- En-DIIS/RFO-DIIS
 Swapping is turned off.
 Update second derivatives using D2CorX and points    1    2    3    4    5
 DE= -2.60D-06 DEPred=-2.41D-06 R= 1.08D+00
 TightC=F SS=  1.41D+00  RLast= 1.83D-02 DXNew= 8.7994D-01 5.4850D-02
 Trust test= 1.08D+00 RLast= 1.83D-02 DXMaxT set to 5.23D-01
 ITU=  1  1  1  1  0
     Eigenvalues ---    0.00159   0.01525   0.02754   0.06579   0.11234
     Eigenvalues ---    0.11704   0.24824   0.24999   0.25000   0.25000
     Eigenvalues ---    0.25037   0.28830   0.31178   0.32563   0.55884
     Eigenvalues ---    0.57972   0.59036   0.59505   0.62968   0.66354
     Eigenvalues ---    0.66608
 En-DIIS/RFO-DIIS/Sim-DIIS IScMMF=       -3 using points:     5    4    3    2    1
 RFO step:  Lambda=-1.23368966D-06.
 DidBck=T Rises=F RFO-DIIS coefs:    0.74871    0.38886   -0.07816   -0.26195    0.20255
 Iteration  1 RMS(Cart)=  0.00180024 RMS(Int)=  0.00000192
 Iteration  2 RMS(Cart)=  0.00000154 RMS(Int)=  0.00000128
 Iteration  3 RMS(Cart)=  0.00000000 RMS(Int)=  0.00000128
 Variable       Old X    -DE/DX   Delta X   Delta X   Delta X     New X
                                 (Linear)    (Quad)   (Total)
    R1        2.46495  -0.00009  -0.00004  -0.00005  -0.00008   2.46487
    R2        2.46035  -0.00002  -0.00000  -0.00002  -0.00002   2.46033
    R3        2.50223   0.00025   0.00016   0.00011   0.00027   2.50250
    R4        2.51251   0.00003  -0.00005   0.00006   0.00002   2.51253
    R5        2.52546   0.00002   0.00009  -0.00004   0.00005   2.52550
    R6        2.83295  -0.00001  -0.00015   0.00010  -0.00005   2.83290
    R7        2.52598  -0.00007  -0.00006  -0.00005  -0.00011   2.52587
    R8        2.51845  -0.00007  -0.00009   0.00001  -0.00008   2.51836
    A1        1.95588  -0.00019  -0.00025  -0.00023  -0.00048   1.95540
    A2        2.13556  -0.00003  -0.00023   0.00011  -0.00011   2.13545
    A3        2.19174   0.00022   0.00047   0.00012   0.00059   2.19233
    A4        1.88935   0.00013   0.00030   0.00020   0.00050   1.88985
    A5        1.95200   0.00012   0.00014   0.00029   0.00043   1.95243
    A6        1.89012  -0.00008   0.00005  -0.00018  -0.00013   1.88999
    A7        1.93017  -0.00023   0.00026  -0.00080  -0.00054   1.92963
    A8        1.87081  -0.00002  -0.00002  -0.00028  -0.00030   1.87051
    A9        1.92885   0.00008  -0.00073   0.00075   0.00002   1.92887
   A10        2.22398   0.00021   0.00068  -0.00008   0.00059   2.22457
   A11        2.07852  -0.00006  -0.00009  -0.00007  -0.00016   2.07836
   A12        1.98068  -0.00015  -0.00058   0.00015  -0.00043   1.98025
    D1       -3.14060  -0.00003  -0.00021  -0.00032  -0.00052  -3.14112
    D2        0.00100  -0.00004  -0.00041  -0.00045  -0.00086   0.00014
    D3        0.00028   0.00001   0.00067  -0.00022   0.00045   0.00073
    D4       -3.14130  -0.00000   0.00047  -0.00035   0.00012  -3.14119
    D5       -0.00292   0.00002   0.00292  -0.00023   0.00269  -0.00023
    D6        3.13866   0.00003   0.00312  -0.00011   0.00301  -3.14152
    D7       -2.11009  -0.00007   0.00227  -0.00013   0.00214  -2.10795
    D8        1.03150  -0.00006   0.00246  -0.00001   0.00245   1.03395
    D9        2.10432   0.00005   0.00258   0.00025   0.00283   2.10715
   D10       -1.03729   0.00006   0.00278   0.00037   0.00315  -1.03413
         Item               Value     Threshold  Converged?
 Maximum Force            0.000254     0.000450     YES
 RMS     Force            0.000109     0.000300     YES
 Maximum Displacement     0.004606     0.001800     NO 
 RMS     Displacement     0.001800     0.001200     NO 
 Predicted change in Energy=-6.003088D-07
 GradGradGradGradGradGradGradGradGradGradGradGradGradGradGradGradGradGrad

                          Input orientation:                          
 ---------------------------------------------------------------------
 Center     Atomic      Atomic             Coordinates (Angstroms)
 Number     Number       Type             X           Y           Z
 ---------------------------------------------------------------------
      1          6           0       -1.362494    0.256232   -0.304765
      2          9           0       -2.475823   -0.279141   -0.723349
      3          9           0       -1.496662    1.525868   -0.049627
      4          6           0        1.088577    0.050644    0.300005
      5          9           0        1.062056    1.347797    0.590612
      6          9           0        2.019093   -0.149838   -0.638084
      7          6           0       -0.246701   -0.443910   -0.168788
      8          9           0       -0.256029   -1.742257   -0.469112
      9          9           0        1.478243   -0.615773    1.391168
 ---------------------------------------------------------------------
                    Distance matrix (angstroms):
                    1          2          3          4          5
     1  C    0.000000
     2  F    1.304353   0.000000
     3  F    1.301949   2.161184   0.000000
     4  C    2.532936   3.723031   2.996996   0.000000
     5  F    2.805648   4.109746   2.643606   1.329572   0.000000
     6  F    3.422153   4.497583   3.938884   1.336437   2.160678
     7  C    1.324268   2.302970   2.335943   1.499106   2.345154
     8  F    2.290247   2.670735   3.520763   2.369388   3.522612
     9  F    3.421458   4.496570   3.938601   1.336633   2.160951
                    6          7          8          9
     6  F    0.000000
     7  C    2.332496   0.000000
     8  F    2.782180   1.332661   0.000000
     9  F    2.151157   2.332045   2.781601   0.000000
 Stoichiometry    C3F6
 Framework group  C1[X(C3F6)]
 Deg. of freedom    21
 Full point group                 C1      NOp   1
 Largest Abelian subgroup         C1      NOp   1
 Largest concise Abelian subgroup C1      NOp   1
                         Standard orientation:                         
 ---------------------------------------------------------------------
 Center     Atomic      Atomic             Coordinates (Angstroms)
 Number     Number       Type             X           Y           Z
 ---------------------------------------------------------------------
      1          6           0        1.407942   -0.162305   -0.000017
      2          9           0        2.549004    0.469608    0.000230
      3          9           0        1.565283   -1.454712   -0.000219
      4          6           0       -1.124831   -0.133623   -0.000052
      5          9           0       -1.078312   -1.462382    0.000246
      6          9           0       -1.813120    0.261491   -1.075323
      7          6           0        0.246037    0.473038   -0.000307
      8          9           0        0.236477    1.805664   -0.000518
      9          9           0       -1.812099    0.262256    1.075834
 ---------------------------------------------------------------------
 Rotational constants (GHZ):           2.5687069           1.2583016           0.9900353
 Standard basis: 6-311+G(2d) (5D, 7F)
 There are   261 symmetry adapted cartesian basis functions of A   symmetry.
 There are   243 symmetry adapted basis functions of A   symmetry.
   243 basis functions,   378 primitive gaussians,   261 cartesian basis functions
    36 alpha electrons       36 beta electrons
       nuclear repulsion energy       512.2427220874 Hartrees.
 NAtoms=    9 NActive=    9 NUniq=    9 SFac= 1.00D+00 NAtFMM=   60 NAOKFM=F Big=F
 Integral buffers will be    131072 words long.
 Raffenetti 2 integral format.
 Two-electron integral symmetry is turned on.
 Nuclear repulsion after empirical dispersion term =      512.2398453409 Hartrees.
 One-electron integrals computed using PRISM.
 NBasis=   243 RedAO= T EigKep=  4.48D-05  NBF=   243
 NBsUse=   243 1.00D-06 EigRej= -1.00D+00 NBFU=   243
 Initial guess from the checkpoint file:  "propene.chk"
 B after Tr=    -0.000000   -0.000000    0.000000
         Rot=    1.000000    0.000469    0.000152   -0.000108 Ang=   0.06 deg.
 Initial guess <Sx>= 0.0000 <Sy>= 0.0000 <Sz>= 0.0000 <S**2>=-0.0000 S=-0.0000
 Keep R1 and R2 ints in memory in canonical form, NReq=1823284279.
 Requested convergence on RMS density matrix=1.00D-08 within 128 cycles.
 Requested convergence on MAX density matrix=1.00D-06.
 Requested convergence on             energy=1.00D-06.
 No special actions if energy rises.
 SCF Done:  E(UwB97XD) =  -713.359454095     A.U. after    7 cycles
            NFock=  7  Conv=0.92D-08     -V/T= 2.0025
 <Sx>= 0.0000 <Sy>= 0.0000 <Sz>= 0.0000 <S**2>=-0.0000 S=-0.0000
 <L.S>= 0.000000000000E+00
 Annihilation of the first spin contaminant:
 S**2 before annihilation    -0.0000,   after     0.0000
 Calling FoFJK, ICntrl=      2127 FMM=F ISym2X=0 I1Cent= 0 IOpClX= 1 NMat=1 NMatS=1 NMatT=0.
 ***** Axes restored to original set *****
 -------------------------------------------------------------------
 Center     Atomic                   Forces (Hartrees/Bohr)
 Number     Number              X              Y              Z
 -------------------------------------------------------------------
      1        6          -0.000016475    0.000018723   -0.000028743
      2        9           0.000013101    0.000009024    0.000005495
      3        9          -0.000030236   -0.000009960    0.000006435
      4        6          -0.000025365   -0.000014599    0.000091456
      5        9          -0.000004602   -0.000020495    0.000012119
      6        9           0.000004693   -0.000030042   -0.000061021
      7        6           0.000044776   -0.000004785   -0.000025683
      8        9           0.000009502    0.000020380    0.000017374
      9        9           0.000004606    0.000031754   -0.000017432
 -------------------------------------------------------------------
 Cartesian Forces:  Max     0.000091456 RMS     0.000028591

 GradGradGradGradGradGradGradGradGradGradGradGradGradGradGradGradGradGrad
 Berny optimization.
 Using GEDIIS/GDIIS optimizer.
 FormGI is forming the generalized inverse of G from B-inverse, IUseBI=4.
 Internal  Forces:  Max     0.000086884 RMS     0.000029930
 Search for a local minimum.
 Step number   6 out of a maximum of   40
 All quantities printed in internal units (Hartrees-Bohrs-Radians)
 Mixed Optimization -- En-DIIS/RFO-DIIS
 Swapping is turned off.
 Update second derivatives using D2CorX and points    1    2    3    4    5
                                                      6
 DE= -6.26D-07 DEPred=-6.00D-07 R= 1.04D+00
 Trust test= 1.04D+00 RLast= 6.94D-03 DXMaxT set to 5.23D-01
 ITU=  0  1  1  1  1  0
     Eigenvalues ---    0.00165   0.01551   0.02720   0.06631   0.11211
     Eigenvalues ---    0.12429   0.23536   0.24995   0.25000   0.25000
     Eigenvalues ---    0.25048   0.26936   0.30098   0.32575   0.55738
     Eigenvalues ---    0.58026   0.58783   0.59559   0.63020   0.66224
     Eigenvalues ---    0.66582
 En-DIIS/RFO-DIIS/Sim-DIIS IScMMF=       -3 using points:     6    5    4    3    2    1
 RFO step:  Lambda=-1.13564611D-07.
 DIIS inversion failure, remove point   6.
 RFO-DIIS uses    5 points instead of    6
 DidBck=F Rises=F RFO-DIIS coefs:    1.38250   -0.31064   -0.08283    0.00921    0.00177
                  RFO-DIIS coefs:    0.00000
 Iteration  1 RMS(Cart)=  0.00040619 RMS(Int)=  0.00000014
 Iteration  2 RMS(Cart)=  0.00000011 RMS(Int)=  0.00000010
 Variable       Old X    -DE/DX   Delta X   Delta X   Delta X     New X
                                 (Linear)    (Quad)   (Total)
    R1        2.46487  -0.00002  -0.00002  -0.00001  -0.00002   2.46485
    R2        2.46033  -0.00000  -0.00001  -0.00000  -0.00001   2.46032
    R3        2.50250   0.00004   0.00007  -0.00001   0.00006   2.50256
    R4        2.51253  -0.00002   0.00002  -0.00006  -0.00005   2.51248
    R5        2.52550   0.00005   0.00007   0.00008   0.00014   2.52564
    R6        2.83290  -0.00002  -0.00001  -0.00009  -0.00010   2.83280
    R7        2.52587  -0.00003  -0.00005  -0.00002  -0.00008   2.52580
    R8        2.51836  -0.00002   0.00001  -0.00005  -0.00004   2.51832
    A1        1.95540  -0.00003  -0.00013   0.00004  -0.00008   1.95532
    A2        2.13545  -0.00002  -0.00001  -0.00007  -0.00008   2.13537
    A3        2.19233   0.00004   0.00014   0.00002   0.00016   2.19250
    A4        1.88985   0.00004   0.00007   0.00005   0.00012   1.88997
    A5        1.95243   0.00001   0.00012  -0.00013  -0.00000   1.95243
    A6        1.88999  -0.00002   0.00001  -0.00007  -0.00006   1.88994
    A7        1.92963  -0.00009  -0.00013  -0.00027  -0.00040   1.92923
    A8        1.87051   0.00002  -0.00011   0.00023   0.00012   1.87063
    A9        1.92887   0.00005   0.00002   0.00020   0.00023   1.92910
   A10        2.22457   0.00005   0.00012   0.00012   0.00024   2.22481
   A11        2.07836  -0.00001  -0.00004  -0.00001  -0.00005   2.07831
   A12        1.98025  -0.00004  -0.00008  -0.00011  -0.00018   1.98007
    D1       -3.14112   0.00000  -0.00037  -0.00003  -0.00040  -3.14153
    D2        0.00014  -0.00000  -0.00012  -0.00001  -0.00013   0.00001
    D3        0.00073  -0.00002  -0.00059  -0.00004  -0.00063   0.00010
    D4       -3.14119  -0.00002  -0.00035  -0.00002  -0.00036  -3.14155
    D5       -0.00023  -0.00000   0.00052  -0.00005   0.00047   0.00024
    D6       -3.14152  -0.00000   0.00029  -0.00007   0.00021  -3.14130
    D7       -2.10795   0.00000   0.00044   0.00016   0.00060  -2.10735
    D8        1.03395   0.00000   0.00020   0.00014   0.00034   1.03429
    D9        2.10715   0.00001   0.00064  -0.00008   0.00056   2.10771
   D10       -1.03413   0.00001   0.00040  -0.00010   0.00030  -1.03384
         Item               Value     Threshold  Converged?
 Maximum Force            0.000087     0.000450     YES
 RMS     Force            0.000030     0.000300     YES
 Maximum Displacement     0.000893     0.001800     YES
 RMS     Displacement     0.000406     0.001200     YES
 Predicted change in Energy=-5.636342D-08
 Optimization completed.
    -- Stationary point found.
                           ----------------------------
                           !   Optimized Parameters   !
                           ! (Angstroms and Degrees)  !
 --------------------------                            --------------------------
 ! Name  Definition              Value          Derivative Info.                !
 --------------------------------------------------------------------------------
 ! R1    R(1,2)                  1.3044         -DE/DX =    0.0                 !
 ! R2    R(1,3)                  1.3019         -DE/DX =    0.0                 !
 ! R3    R(1,7)                  1.3243         -DE/DX =    0.0                 !
 ! R4    R(4,5)                  1.3296         -DE/DX =    0.0                 !
 ! R5    R(4,6)                  1.3364         -DE/DX =    0.0001              !
 ! R6    R(4,7)                  1.4991         -DE/DX =    0.0                 !
 ! R7    R(4,9)                  1.3366         -DE/DX =    0.0                 !
 ! R8    R(7,8)                  1.3327         -DE/DX =    0.0                 !
 ! A1    A(2,1,3)              112.0362         -DE/DX =    0.0                 !
 ! A2    A(2,1,7)              122.3522         -DE/DX =    0.0                 !
 ! A3    A(3,1,7)              125.6115         -DE/DX =    0.0                 !
 ! A4    A(5,4,6)              108.2803         -DE/DX =    0.0                 !
 ! A5    A(5,4,7)              111.8661         -DE/DX =    0.0                 !
 ! A6    A(5,4,9)              108.2887         -DE/DX =    0.0                 !
 ! A7    A(6,4,7)              110.5596         -DE/DX =   -0.0001              !
 ! A8    A(6,4,9)              107.1725         -DE/DX =    0.0                 !
 ! A9    A(7,4,9)              110.5163         -DE/DX =    0.0                 !
 ! A10   A(1,7,4)              127.4584         -DE/DX =    0.0001              !
 ! A11   A(1,7,8)              119.0813         -DE/DX =    0.0                 !
 ! A12   A(4,7,8)              113.4602         -DE/DX =    0.0                 !
 ! D1    D(2,1,7,4)           -179.9732         -DE/DX =    0.0                 !
 ! D2    D(2,1,7,8)              0.0082         -DE/DX =    0.0                 !
 ! D3    D(3,1,7,4)              0.0419         -DE/DX =    0.0                 !
 ! D4    D(3,1,7,8)           -179.9767         -DE/DX =    0.0                 !
 ! D5    D(5,4,7,1)             -0.0134         -DE/DX =    0.0                 !
 ! D6    D(5,4,7,8)           -179.9957         -DE/DX =    0.0                 !
 ! D7    D(6,4,7,1)           -120.7767         -DE/DX =    0.0                 !
 ! D8    D(6,4,7,8)             59.241          -DE/DX =    0.0                 !
 ! D9    D(9,4,7,1)            120.7307         -DE/DX =    0.0                 !
 ! D10   D(9,4,7,8)            -59.2516         -DE/DX =    0.0                 !
 --------------------------------------------------------------------------------
 GradGradGradGradGradGradGradGradGradGradGradGradGradGradGradGradGradGrad

                          Input orientation:                          
 ---------------------------------------------------------------------
 Center     Atomic      Atomic             Coordinates (Angstroms)
 Number     Number       Type             X           Y           Z
 ---------------------------------------------------------------------
      1          6           0       -1.362494    0.256232   -0.304765
      2          9           0       -2.475823   -0.279141   -0.723349
      3          9           0       -1.496662    1.525868   -0.049627
      4          6           0        1.088577    0.050644    0.300005
      5          9           0        1.062056    1.347797    0.590612
      6          9           0        2.019093   -0.149838   -0.638084
      7          6           0       -0.246701   -0.443910   -0.168788
      8          9           0       -0.256029   -1.742257   -0.469112
      9          9           0        1.478243   -0.615773    1.391168
 ---------------------------------------------------------------------
                    Distance matrix (angstroms):
                    1          2          3          4          5
     1  C    0.000000
     2  F    1.304353   0.000000
     3  F    1.301949   2.161184   0.000000
     4  C    2.532936   3.723031   2.996996   0.000000
     5  F    2.805648   4.109746   2.643606   1.329572   0.000000
     6  F    3.422153   4.497583   3.938884   1.336437   2.160678
     7  C    1.324268   2.302970   2.335943   1.499106   2.345154
     8  F    2.290247   2.670735   3.520763   2.369388   3.522612
     9  F    3.421458   4.496570   3.938601   1.336633   2.160951
                    6          7          8          9
     6  F    0.000000
     7  C    2.332496   0.000000
     8  F    2.782180   1.332661   0.000000
     9  F    2.151157   2.332045   2.781601   0.000000
 Stoichiometry    C3F6
 Framework group  C1[X(C3F6)]
 Deg. of freedom    21
 Full point group                 C1      NOp   1
 Largest Abelian subgroup         C1      NOp   1
 Largest concise Abelian subgroup C1      NOp   1
                         Standard orientation:                         
 ---------------------------------------------------------------------
 Center     Atomic      Atomic             Coordinates (Angstroms)
 Number     Number       Type             X           Y           Z
 ---------------------------------------------------------------------
      1          6           0        1.407942   -0.162305   -0.000017
      2          9           0        2.549004    0.469608    0.000230
      3          9           0        1.565283   -1.454712   -0.000219
      4          6           0       -1.124831   -0.133623   -0.000052
      5          9           0       -1.078312   -1.462382    0.000246
      6          9           0       -1.813120    0.261491   -1.075323
      7          6           0        0.246037    0.473038   -0.000307
      8          9           0        0.236477    1.805664   -0.000518
      9          9           0       -1.812099    0.262256    1.075834
 ---------------------------------------------------------------------
 Rotational constants (GHZ):           2.5687069           1.2583016           0.9900353

 **********************************************************************

            Population analysis using the SCF density.

 **********************************************************************

 Orbital symmetries:
 Alpha Orbitals:
       Occupied  (A) (A) (A) (A) (A) (A) (A) (A) (A) (A) (A) (A)
                 (A) (A) (A) (A) (A) (A) (A) (A) (A) (A) (A) (A)
                 (A) (A) (A) (A) (A) (A) (A) (A) (A) (A) (A) (A)
       Virtual   (A) (A) (A) (A) (A) (A) (A) (A) (A) (A) (A) (A)
                 (A) (A) (A) (A) (A) (A) (A) (A) (A) (A) (A) (A)
                 (A) (A) (A) (A) (A) (A) (A) (A) (A) (A) (A) (A)
                 (A) (A) (A) (A) (A) (A) (A) (A) (A) (A) (A) (A)
                 (A) (A) (A) (A) (A) (A) (A) (A) (A) (A) (A) (A)
                 (A) (A) (A) (A) (A) (A) (A) (A) (A) (A) (A) (A)
                 (A) (A) (A) (A) (A) (A) (A) (A) (A) (A) (A) (A)
                 (A) (A) (A) (A) (A) (A) (A) (A) (A) (A) (A) (A)
                 (A) (A) (A) (A) (A) (A) (A) (A) (A) (A) (A) (A)
                 (A) (A) (A) (A) (A) (A) (A) (A) (A) (A) (A) (A)
                 (A) (A) (A) (A) (A) (A) (A) (A) (A) (A) (A) (A)
                 (A) (A) (A) (A) (A) (A) (A) (A) (A) (A) (A) (A)
                 (A) (A) (A) (A) (A) (A) (A) (A) (A) (A) (A) (A)
                 (A) (A) (A) (A) (A) (A) (A) (A) (A) (A) (A) (A)
                 (A) (A) (A) (A) (A) (A) (A) (A) (A) (A) (A) (A)
                 (A) (A) (A) (A) (A) (A) (A) (A) (A) (A) (A) (A)
                 (A) (A) (A) (A) (A) (A) (A) (A) (A) (A) (A) (A)
                 (A) (A) (A)
 Beta  Orbitals:
       Occupied  (A) (A) (A) (A) (A) (A) (A) (A) (A) (A) (A) (A)
                 (A) (A) (A) (A) (A) (A) (A) (A) (A) (A) (A) (A)
                 (A) (A) (A) (A) (A) (A) (A) (A) (A) (A) (A) (A)
       Virtual   (A) (A) (A) (A) (A) (A) (A) (A) (A) (A) (A) (A)
                 (A) (A) (A) (A) (A) (A) (A) (A) (A) (A) (A) (A)
                 (A) (A) (A) (A) (A) (A) (A) (A) (A) (A) (A) (A)
                 (A) (A) (A) (A) (A) (A) (A) (A) (A) (A) (A) (A)
                 (A) (A) (A) (A) (A) (A) (A) (A) (A) (A) (A) (A)
                 (A) (A) (A) (A) (A) (A) (A) (A) (A) (A) (A) (A)
                 (A) (A) (A) (A) (A) (A) (A) (A) (A) (A) (A) (A)
                 (A) (A) (A) (A) (A) (A) (A) (A) (A) (A) (A) (A)
                 (A) (A) (A) (A) (A) (A) (A) (A) (A) (A) (A) (A)
                 (A) (A) (A) (A) (A) (A) (A) (A) (A) (A) (A) (A)
                 (A) (A) (A) (A) (A) (A) (A) (A) (A) (A) (A) (A)
                 (A) (A) (A) (A) (A) (A) (A) (A) (A) (A) (A) (A)
                 (A) (A) (A) (A) (A) (A) (A) (A) (A) (A) (A) (A)
                 (A) (A) (A) (A) (A) (A) (A) (A) (A) (A) (A) (A)
                 (A) (A) (A) (A) (A) (A) (A) (A) (A) (A) (A) (A)
                 (A) (A) (A) (A) (A) (A) (A) (A) (A) (A) (A) (A)
                 (A) (A) (A) (A) (A) (A) (A) (A) (A) (A) (A) (A)
                 (A) (A) (A)
 The electronic state is 1-A.
 Alpha  occ. eigenvalues --  -24.89451 -24.89292 -24.87195 -24.86709 -24.86504
 Alpha  occ. eigenvalues --  -24.86497 -10.57776 -10.50753 -10.42332  -1.45804
 Alpha  occ. eigenvalues --   -1.45040  -1.39194  -1.38103  -1.36532  -1.35953
 Alpha  occ. eigenvalues --   -0.95509  -0.85576  -0.78546  -0.74673  -0.73464
 Alpha  occ. eigenvalues --   -0.72065  -0.71061  -0.68240  -0.67180  -0.60590
 Alpha  occ. eigenvalues --   -0.59356  -0.58963  -0.58530  -0.58368  -0.57811
 Alpha  occ. eigenvalues --   -0.56781  -0.54681  -0.54439  -0.52776  -0.50160
 Alpha  occ. eigenvalues --   -0.38004
 Alpha virt. eigenvalues --    0.04547   0.06021   0.07787   0.09040   0.10152
 Alpha virt. eigenvalues --    0.11842   0.12787   0.13536   0.13939   0.14943
 Alpha virt. eigenvalues --    0.15328   0.17398   0.18755   0.19564   0.22429
 Alpha virt. eigenvalues --    0.25201   0.25712   0.27753   0.28821   0.29424
 Alpha virt. eigenvalues --    0.32128   0.33388   0.34465   0.34925   0.35914
 Alpha virt. eigenvalues --    0.36390   0.37515   0.38276   0.39809   0.39896
 Alpha virt. eigenvalues --    0.40832   0.41077   0.42044   0.42992   0.43062
 Alpha virt. eigenvalues --    0.43174   0.44857   0.46728   0.49269   0.50589
 Alpha virt. eigenvalues --    0.51795   0.51994   0.53442   0.56231   0.57766
 Alpha virt. eigenvalues --    0.59500   0.63206   0.64592   0.70407   0.72664
 Alpha virt. eigenvalues --    0.76595   0.76873   0.77871   0.79002   0.83678
 Alpha virt. eigenvalues --    0.84279   0.92371   0.96235   0.99401   0.99425
 Alpha virt. eigenvalues --    1.02668   1.08965   1.13259   1.19515   1.25946
 Alpha virt. eigenvalues --    1.27704   1.29647   1.31958   1.35308   1.37318
 Alpha virt. eigenvalues --    1.38101   1.39421   1.40440   1.41482   1.43310
 Alpha virt. eigenvalues --    1.44665   1.46173   1.46728   1.47064   1.49324
 Alpha virt. eigenvalues --    1.50493   1.50783   1.53161   1.53972   1.55979
 Alpha virt. eigenvalues --    1.56909   1.59085   1.60406   1.67497   1.74959
 Alpha virt. eigenvalues --    1.93595   1.94946   1.98622   2.01746   2.03252
 Alpha virt. eigenvalues --    2.03472   2.04585   2.05893   2.06672   2.06847
 Alpha virt. eigenvalues --    2.11414   2.15831   2.18527   2.19147   2.22408
 Alpha virt. eigenvalues --    2.23495   2.26044   2.27623   2.30578   2.35208
 Alpha virt. eigenvalues --    2.39999   2.46711   2.50063   2.55164   2.63858
 Alpha virt. eigenvalues --    2.64386   2.72200   2.75133   2.75483   2.79965
 Alpha virt. eigenvalues --    2.80824   2.88314   3.00380   3.03127   3.12452
 Alpha virt. eigenvalues --    3.16525   3.18320   3.23107   3.25432   3.30259
 Alpha virt. eigenvalues --    3.34260   3.35894   3.41057   3.47575   3.50783
 Alpha virt. eigenvalues --    3.53881   3.55508   3.57301   3.62133   3.70017
 Alpha virt. eigenvalues --    3.70453   3.73601   3.79201   3.87506   4.07975
 Alpha virt. eigenvalues --    4.28435   4.29512   4.31080   4.48643   4.82617
 Alpha virt. eigenvalues --    6.34601   6.36535   6.39397   6.40016   6.41183
 Alpha virt. eigenvalues --    6.44131   6.44766   6.47234   6.47451   6.49013
 Alpha virt. eigenvalues --    6.52310   6.54556   6.58343   6.67218   6.84092
 Alpha virt. eigenvalues --    6.84970   6.96135   6.97267   9.07021   9.08193
 Alpha virt. eigenvalues --    9.09507   9.11219   9.11481   9.14746   9.15172
 Alpha virt. eigenvalues --    9.17546   9.20743   9.21925   9.23105   9.24489
 Alpha virt. eigenvalues --    9.26061   9.26740   9.31286   9.34371   9.34930
 Alpha virt. eigenvalues --    9.39171   9.45144   9.51333   9.62497   9.68186
 Alpha virt. eigenvalues --    9.71637   9.72219   9.74022   9.77204   9.79682
 Alpha virt. eigenvalues --    9.86761   9.86841   9.94349  23.87711  24.05868
 Alpha virt. eigenvalues --   24.27472  66.89674  66.92768  66.93416  66.93866
 Alpha virt. eigenvalues --   66.95496  67.03096
  Beta  occ. eigenvalues --  -24.89451 -24.89292 -24.87195 -24.86709 -24.86504
  Beta  occ. eigenvalues --  -24.86497 -10.57776 -10.50753 -10.42332  -1.45804
  Beta  occ. eigenvalues --   -1.45040  -1.39194  -1.38103  -1.36532  -1.35953
  Beta  occ. eigenvalues --   -0.95509  -0.85576  -0.78546  -0.74673  -0.73464
  Beta  occ. eigenvalues --   -0.72065  -0.71061  -0.68240  -0.67180  -0.60590
  Beta  occ. eigenvalues --   -0.59356  -0.58963  -0.58530  -0.58368  -0.57811
  Beta  occ. eigenvalues --   -0.56781  -0.54681  -0.54439  -0.52776  -0.50160
  Beta  occ. eigenvalues --   -0.38004
  Beta virt. eigenvalues --    0.04547   0.06021   0.07787   0.09040   0.10152
  Beta virt. eigenvalues --    0.11842   0.12787   0.13536   0.13939   0.14943
  Beta virt. eigenvalues --    0.15328   0.17398   0.18755   0.19564   0.22429
  Beta virt. eigenvalues --    0.25201   0.25712   0.27753   0.28821   0.29424
  Beta virt. eigenvalues --    0.32128   0.33388   0.34465   0.34925   0.35914
  Beta virt. eigenvalues --    0.36390   0.37515   0.38276   0.39809   0.39896
  Beta virt. eigenvalues --    0.40832   0.41077   0.42044   0.42992   0.43062
  Beta virt. eigenvalues --    0.43174   0.44857   0.46728   0.49269   0.50589
  Beta virt. eigenvalues --    0.51795   0.51994   0.53442   0.56231   0.57766
  Beta virt. eigenvalues --    0.59500   0.63206   0.64592   0.70407   0.72664
  Beta virt. eigenvalues --    0.76595   0.76873   0.77871   0.79002   0.83678
  Beta virt. eigenvalues --    0.84279   0.92371   0.96235   0.99401   0.99425
  Beta virt. eigenvalues --    1.02668   1.08965   1.13259   1.19515   1.25946
  Beta virt. eigenvalues --    1.27704   1.29647   1.31958   1.35308   1.37318
  Beta virt. eigenvalues --    1.38101   1.39421   1.40440   1.41482   1.43310
  Beta virt. eigenvalues --    1.44665   1.46173   1.46728   1.47064   1.49324
  Beta virt. eigenvalues --    1.50493   1.50783   1.53161   1.53972   1.55979
  Beta virt. eigenvalues --    1.56909   1.59085   1.60406   1.67497   1.74959
  Beta virt. eigenvalues --    1.93595   1.94946   1.98622   2.01746   2.03252
  Beta virt. eigenvalues --    2.03472   2.04585   2.05893   2.06672   2.06847
  Beta virt. eigenvalues --    2.11414   2.15831   2.18527   2.19147   2.22408
  Beta virt. eigenvalues --    2.23495   2.26044   2.27623   2.30578   2.35208
  Beta virt. eigenvalues --    2.39999   2.46711   2.50063   2.55164   2.63858
  Beta virt. eigenvalues --    2.64386   2.72200   2.75133   2.75483   2.79965
  Beta virt. eigenvalues --    2.80824   2.88314   3.00380   3.03127   3.12452
  Beta virt. eigenvalues --    3.16525   3.18320   3.23107   3.25432   3.30259
  Beta virt. eigenvalues --    3.34260   3.35894   3.41057   3.47575   3.50783
  Beta virt. eigenvalues --    3.53881   3.55508   3.57301   3.62133   3.70017
  Beta virt. eigenvalues --    3.70453   3.73601   3.79201   3.87506   4.07975
  Beta virt. eigenvalues --    4.28435   4.29512   4.31080   4.48643   4.82617
  Beta virt. eigenvalues --    6.34601   6.36535   6.39397   6.40016   6.41183
  Beta virt. eigenvalues --    6.44131   6.44766   6.47234   6.47451   6.49013
  Beta virt. eigenvalues --    6.52310   6.54556   6.58343   6.67218   6.84092
  Beta virt. eigenvalues --    6.84970   6.96135   6.97267   9.07021   9.08193
  Beta virt. eigenvalues --    9.09507   9.11219   9.11481   9.14746   9.15172
  Beta virt. eigenvalues --    9.17546   9.20743   9.21925   9.23105   9.24489
  Beta virt. eigenvalues --    9.26061   9.26740   9.31286   9.34371   9.34930
  Beta virt. eigenvalues --    9.39171   9.45144   9.51333   9.62497   9.68186
  Beta virt. eigenvalues --    9.71637   9.72219   9.74022   9.77204   9.79682
  Beta virt. eigenvalues --    9.86761   9.86841   9.94349  23.87711  24.05868
  Beta virt. eigenvalues --   24.27472  66.89674  66.92768  66.93416  66.93866
  Beta virt. eigenvalues --   66.95496  67.03096
          Condensed to atoms (all electrons):
               1          2          3          4          5          6
     1  C    5.717469   0.184600   0.194307  -0.453141  -0.007399  -0.003626
     2  F    0.184600   9.191142  -0.028163   0.019823  -0.001907  -0.000304
     3  F    0.194307  -0.028163   9.185954  -0.015361   0.012457  -0.000396
     4  C   -0.453141   0.019823  -0.015361   4.887399   0.193401   0.228410
     5  F   -0.007399  -0.001907   0.012457   0.193401   9.123450   0.004934
     6  F   -0.003626  -0.000304  -0.000396   0.228410   0.004934   9.096743
     7  C   -0.073222  -0.079463  -0.081673   0.244732  -0.025899  -0.070172
     8  F   -0.074251  -0.008697   0.014735  -0.153286   0.010464   0.018800
     9  F   -0.003703  -0.000305  -0.000396   0.228392   0.004998  -0.010462
               7          8          9
     1  C   -0.073222  -0.074251  -0.003703
     2  F   -0.079463  -0.008697  -0.000305
     3  F   -0.081673   0.014735  -0.000396
     4  C    0.244732  -0.153286   0.228392
     5  F   -0.025899   0.010464   0.004998
     6  F   -0.070172   0.018800  -0.010462
     7  C    5.602474   0.178605  -0.070194
     8  F    0.178605   9.307681   0.018814
     9  F   -0.070194   0.018814   9.096788
          Atomic-Atomic Spin Densities.
               1          2          3          4          5          6
     1  C    0.000000   0.000000   0.000000   0.000000   0.000000   0.000000
     2  F    0.000000   0.000000   0.000000   0.000000   0.000000   0.000000
     3  F    0.000000   0.000000   0.000000   0.000000   0.000000   0.000000
     4  C    0.000000   0.000000   0.000000   0.000000   0.000000   0.000000
     5  F    0.000000   0.000000   0.000000   0.000000   0.000000   0.000000
     6  F    0.000000   0.000000   0.000000   0.000000   0.000000   0.000000
     7  C    0.000000   0.000000   0.000000   0.000000   0.000000   0.000000
     8  F    0.000000   0.000000   0.000000   0.000000   0.000000   0.000000
     9  F    0.000000   0.000000   0.000000   0.000000   0.000000   0.000000
               7          8          9
     1  C    0.000000   0.000000   0.000000
     2  F    0.000000   0.000000   0.000000
     3  F    0.000000   0.000000   0.000000
     4  C    0.000000   0.000000   0.000000
     5  F    0.000000   0.000000   0.000000
     6  F    0.000000   0.000000   0.000000
     7  C    0.000000   0.000000   0.000000
     8  F    0.000000   0.000000   0.000000
     9  F    0.000000   0.000000   0.000000
 Mulliken charges and spin densities:
               1          2
     1  C    0.518966   0.000000
     2  F   -0.276725   0.000000
     3  F   -0.281464   0.000000
     4  C    0.819632   0.000000
     5  F   -0.314499   0.000000
     6  F   -0.263927   0.000000
     7  C    0.374812   0.000000
     8  F   -0.312864   0.000000
     9  F   -0.263931   0.000000
 Sum of Mulliken charges =  -0.00000   0.00000
 Mulliken charges and spin densities with hydrogens summed into heavy atoms:
               1          2
     1  C    0.518966   0.000000
     2  F   -0.276725   0.000000
     3  F   -0.281464   0.000000
     4  C    0.819632   0.000000
     5  F   -0.314499   0.000000
     6  F   -0.263927   0.000000
     7  C    0.374812   0.000000
     8  F   -0.312864   0.000000
     9  F   -0.263931   0.000000
 Electronic spatial extent (au):  <R**2>=           1047.8237
 Charge=             -0.0000 electrons
 Dipole moment (field-independent basis, Debye):
    X=              1.0297    Y=             -0.3531    Z=             -0.0011  Tot=              1.0886
 Quadrupole moment (field-independent basis, Debye-Ang):
   XX=            -47.8888   YY=            -48.6498   ZZ=            -45.8717
   XY=             -0.2657   XZ=              0.0016   YZ=             -0.0003
 Traceless Quadrupole moment (field-independent basis, Debye-Ang):
   XX=             -0.4187   YY=             -1.1797   ZZ=              1.5984
   XY=             -0.2657   XZ=              0.0016   YZ=             -0.0003
 Octapole moment (field-independent basis, Debye-Ang**2):
  XXX=             -0.9205  YYY=             -2.2203  ZZZ=             -0.0006  XYY=             -1.2357
  XXY=             -1.5128  XXZ=             -0.0014  XZZ=              2.6134  YZZ=             -0.8961
  YYZ=              0.0010  XYZ=              0.0008
 Hexadecapole moment (field-independent basis, Debye-Ang**3):
 XXXX=           -642.0771 YYYY=           -275.9649 ZZZZ=           -101.8165 XXXY=             -0.2915
 XXXZ=              0.0017 YYYX=             -1.6160 YYYZ=              0.0027 ZZZX=              0.0053
 ZZZY=              0.0007 XXYY=           -152.0472 XXZZ=           -122.9506 YYZZ=            -61.6625
 XXYZ=             -0.0023 YYXZ=              0.0019 ZZXY=             -0.1612
 N-N= 5.122398453409D+02 E-N=-2.719237338008D+03  KE= 7.115491839054D+02
                          Isotropic Fermi Contact Couplings
        Atom                 a.u.       MegaHertz       Gauss      10(-4) cm-1
     1  C(13)              0.00000       0.00000       0.00000       0.00000
     2  F(19)              0.00000       0.00000       0.00000       0.00000
     3  F(19)              0.00000       0.00000       0.00000       0.00000
     4  C(13)              0.00000       0.00000       0.00000       0.00000
     5  F(19)              0.00000       0.00000       0.00000       0.00000
     6  F(19)              0.00000       0.00000       0.00000       0.00000
     7  C(13)              0.00000       0.00000       0.00000       0.00000
     8  F(19)              0.00000       0.00000       0.00000       0.00000
     9  F(19)              0.00000       0.00000       0.00000       0.00000
 --------------------------------------------------------
       Center         ----  Spin Dipole Couplings  ----
                      3XX-RR        3YY-RR        3ZZ-RR
 --------------------------------------------------------
     1   Atom        0.000000      0.000000      0.000000
     2   Atom        0.000000      0.000000      0.000000
     3   Atom        0.000000      0.000000      0.000000
     4   Atom        0.000000      0.000000      0.000000
     5   Atom        0.000000      0.000000      0.000000
     6   Atom        0.000000      0.000000      0.000000
     7   Atom        0.000000      0.000000      0.000000
     8   Atom        0.000000      0.000000      0.000000
     9   Atom        0.000000      0.000000      0.000000
 --------------------------------------------------------
                        XY            XZ            YZ
 --------------------------------------------------------
     1   Atom        0.000000      0.000000      0.000000
     2   Atom        0.000000      0.000000      0.000000
     3   Atom        0.000000      0.000000      0.000000
     4   Atom        0.000000      0.000000      0.000000
     5   Atom        0.000000      0.000000      0.000000
     6   Atom        0.000000      0.000000      0.000000
     7   Atom        0.000000      0.000000      0.000000
     8   Atom        0.000000      0.000000      0.000000
     9   Atom        0.000000      0.000000      0.000000
 --------------------------------------------------------


 ---------------------------------------------------------------------------------
              Anisotropic Spin Dipole Couplings in Principal Axis System
 ---------------------------------------------------------------------------------

       Atom             a.u.   MegaHertz   Gauss  10(-4) cm-1        Axes

              Baa     0.0000     0.000     0.000     0.000  1.0000  0.0000  0.0000
     1 C(13)  Bbb     0.0000     0.000     0.000     0.000 -0.0000  1.0000  0.0000
              Bcc     0.0000     0.000     0.000     0.000  0.0000  0.0000  1.0000
 
              Baa     0.0000     0.000     0.000     0.000  1.0000  0.0000  0.0000
     2 F(19)  Bbb     0.0000     0.000     0.000     0.000 -0.0000  1.0000  0.0000
              Bcc     0.0000     0.000     0.000     0.000  0.0000  0.0000  1.0000
 
              Baa     0.0000     0.000     0.000     0.000  1.0000  0.0000  0.0000
     3 F(19)  Bbb     0.0000     0.000     0.000     0.000 -0.0000  1.0000  0.0000
              Bcc     0.0000     0.000     0.000     0.000  0.0000  0.0000  1.0000
 
              Baa     0.0000     0.000     0.000     0.000  1.0000  0.0000  0.0000
     4 C(13)  Bbb     0.0000     0.000     0.000     0.000 -0.0000  1.0000  0.0000
              Bcc     0.0000     0.000     0.000     0.000  0.0000  0.0000  1.0000
 
              Baa     0.0000     0.000     0.000     0.000  1.0000  0.0000  0.0000
     5 F(19)  Bbb     0.0000     0.000     0.000     0.000 -0.0000  1.0000  0.0000
              Bcc     0.0000     0.000     0.000     0.000  0.0000  0.0000  1.0000
 
              Baa     0.0000     0.000     0.000     0.000  1.0000  0.0000  0.0000
     6 F(19)  Bbb     0.0000     0.000     0.000     0.000 -0.0000  1.0000  0.0000
              Bcc     0.0000     0.000     0.000     0.000  0.0000  0.0000  1.0000
 
              Baa     0.0000     0.000     0.000     0.000  1.0000  0.0000  0.0000
     7 C(13)  Bbb     0.0000     0.000     0.000     0.000 -0.0000  1.0000  0.0000
              Bcc     0.0000     0.000     0.000     0.000  0.0000  0.0000  1.0000
 
              Baa     0.0000     0.000     0.000     0.000  1.0000  0.0000  0.0000
     8 F(19)  Bbb     0.0000     0.000     0.000     0.000 -0.0000  1.0000  0.0000
              Bcc     0.0000     0.000     0.000     0.000  0.0000  0.0000  1.0000
 
              Baa     0.0000     0.000     0.000     0.000  1.0000  0.0000  0.0000
     9 F(19)  Bbb     0.0000     0.000     0.000     0.000 -0.0000  1.0000  0.0000
              Bcc     0.0000     0.000     0.000     0.000  0.0000  0.0000  1.0000
 

 ---------------------------------------------------------------------------------

 1\1\GINC-ORANGE\FOpt\UwB97XD\6-311+G(2d)\C3F6\RAPPE\07-May-2023\0\\# o
 pt freq uwb97xd/6-311+g(2d) geom=connectivity\\Title Card Required\\0,
 1\C,-1.3624944445,0.2562322083,-0.304764868\F,-2.4758228328,-0.2791414
 539,-0.723348585\F,-1.4966619588,1.5258679504,-0.0496273626\C,1.088576
 8402,0.0506440956,0.3000050744\F,1.0620557046,1.3477973567,0.590612476
 6\F,2.0190929447,-0.1498383186,-0.6380840834\C,-0.2467007484,-0.443910
 1402,-0.1687882588\F,-0.256028892,-1.7422565243,-0.469111579\F,1.47824
 3387,-0.6157731741,1.3911681859\\Version=ES64L-G16RevA.03\State=1-A\HF
 =-713.3594541\S2=0.\S2-1=0.\S2A=0.\RMSD=9.203e-09\RMSF=2.859e-05\Dipol
 e=-0.3900718,0.1638094,-0.0666539\Quadrupole=-0.2217439,-0.7508107,0.9
 725545,-0.1121342,-0.401988,-0.4739965\PG=C01 [X(C3F6)]\\@


 ONE BIG VICE IN A MAN IS APT TO KEEP OUT MANY SMALLER ONES.

                           -- BRET HARTE
 Job cpu time:       0 days  1 hours 29 minutes 27.3 seconds.
 Elapsed time:       0 days  0 hours  2 minutes 11.4 seconds.
 File lengths (MBytes):  RWF=     51 Int=      0 D2E=      0 Chk=     12 Scr=      1
 Normal termination of Gaussian 16 at Sun May  7 21:34:14 2023.
 Link1:  Proceeding to internal job step number  2.
 ----------------------------------------------------------------------
 #N Geom=AllCheck Guess=TCheck SCRF=Check GenChk UwB97XD/6-311+G(2d) Fr
 eq
 ----------------------------------------------------------------------
 1/10=4,29=7,30=1,38=1,40=1/1,3;
 2/12=2,40=1/2;
 3/5=4,6=6,7=12,11=2,14=-4,25=1,30=1,70=2,71=2,74=-58,116=2,140=1/1,2,3;
 4/5=101/1;
 5/5=2,38=6,98=1/2;
 8/6=4,10=90,11=11/1;
 11/6=1,8=1,9=11,15=111,16=1/1,2,10;
 10/6=1/2;
 6/7=2,8=2,9=2,10=2,28=1/1;
 7/8=1,10=1,25=1/1,2,3,16;
 1/10=4,30=1/3;
 99//99;
 Structure from the checkpoint file:  "propene.chk"
 -------------------
 Title Card Required
 -------------------
 Charge =  0 Multiplicity = 1
 Redundant internal coordinates found in file.  (old form).
 C,0,-1.3624944445,0.2562322083,-0.304764868
 F,0,-2.4758228328,-0.2791414539,-0.723348585
 F,0,-1.4966619588,1.5258679504,-0.0496273626
 C,0,1.0885768402,0.0506440956,0.3000050744
 F,0,1.0620557046,1.3477973567,0.5906124766
 F,0,2.0190929447,-0.1498383186,-0.6380840834
 C,0,-0.2467007484,-0.4439101402,-0.1687882588
 F,0,-0.256028892,-1.7422565243,-0.469111579
 F,0,1.478243387,-0.6157731741,1.3911681859
 Recover connectivity data from disk.

 GradGradGradGradGradGradGradGradGradGradGradGradGradGradGradGradGradGrad
 Berny optimization.
 Initialization pass.
                           ----------------------------
                           !    Initial Parameters    !
                           ! (Angstroms and Degrees)  !
 --------------------------                            --------------------------
 ! Name  Definition              Value          Derivative Info.                !
 --------------------------------------------------------------------------------
 ! R1    R(1,2)                  1.3044         calculate D2E/DX2 analytically  !
 ! R2    R(1,3)                  1.3019         calculate D2E/DX2 analytically  !
 ! R3    R(1,7)                  1.3243         calculate D2E/DX2 analytically  !
 ! R4    R(4,5)                  1.3296         calculate D2E/DX2 analytically  !
 ! R5    R(4,6)                  1.3364         calculate D2E/DX2 analytically  !
 ! R6    R(4,7)                  1.4991         calculate D2E/DX2 analytically  !
 ! R7    R(4,9)                  1.3366         calculate D2E/DX2 analytically  !
 ! R8    R(7,8)                  1.3327         calculate D2E/DX2 analytically  !
 ! A1    A(2,1,3)              112.0362         calculate D2E/DX2 analytically  !
 ! A2    A(2,1,7)              122.3522         calculate D2E/DX2 analytically  !
 ! A3    A(3,1,7)              125.6115         calculate D2E/DX2 analytically  !
 ! A4    A(5,4,6)              108.2803         calculate D2E/DX2 analytically  !
 ! A5    A(5,4,7)              111.8661         calculate D2E/DX2 analytically  !
 ! A6    A(5,4,9)              108.2887         calculate D2E/DX2 analytically  !
 ! A7    A(6,4,7)              110.5596         calculate D2E/DX2 analytically  !
 ! A8    A(6,4,9)              107.1725         calculate D2E/DX2 analytically  !
 ! A9    A(7,4,9)              110.5163         calculate D2E/DX2 analytically  !
 ! A10   A(1,7,4)              127.4584         calculate D2E/DX2 analytically  !
 ! A11   A(1,7,8)              119.0813         calculate D2E/DX2 analytically  !
 ! A12   A(4,7,8)              113.4602         calculate D2E/DX2 analytically  !
 ! D1    D(2,1,7,4)           -179.9732         calculate D2E/DX2 analytically  !
 ! D2    D(2,1,7,8)              0.0082         calculate D2E/DX2 analytically  !
 ! D3    D(3,1,7,4)              0.0419         calculate D2E/DX2 analytically  !
 ! D4    D(3,1,7,8)           -179.9767         calculate D2E/DX2 analytically  !
 ! D5    D(5,4,7,1)             -0.0134         calculate D2E/DX2 analytically  !
 ! D6    D(5,4,7,8)           -179.9957         calculate D2E/DX2 analytically  !
 ! D7    D(6,4,7,1)           -120.7767         calculate D2E/DX2 analytically  !
 ! D8    D(6,4,7,8)             59.241          calculate D2E/DX2 analytically  !
 ! D9    D(9,4,7,1)            120.7307         calculate D2E/DX2 analytically  !
 ! D10   D(9,4,7,8)            -59.2516         calculate D2E/DX2 analytically  !
 --------------------------------------------------------------------------------
 Trust Radius=3.00D-01 FncErr=1.00D-07 GrdErr=1.00D-07 EigMax=2.50D+02 EigMin=1.00D-04
 Number of steps in this run=      2 maximum allowed number of steps=      2.
 GradGradGradGradGradGradGradGradGradGradGradGradGradGradGradGradGradGrad

                          Input orientation:                          
 ---------------------------------------------------------------------
 Center     Atomic      Atomic             Coordinates (Angstroms)
 Number     Number       Type             X           Y           Z
 ---------------------------------------------------------------------
      1          6           0       -1.362494    0.256232   -0.304765
      2          9           0       -2.475823   -0.279141   -0.723349
      3          9           0       -1.496662    1.525868   -0.049627
      4          6           0        1.088577    0.050644    0.300005
      5          9           0        1.062056    1.347797    0.590612
      6          9           0        2.019093   -0.149838   -0.638084
      7          6           0       -0.246701   -0.443910   -0.168788
      8          9           0       -0.256029   -1.742257   -0.469112
      9          9           0        1.478243   -0.615773    1.391168
 ---------------------------------------------------------------------
                    Distance matrix (angstroms):
                    1          2          3          4          5
     1  C    0.000000
     2  F    1.304353   0.000000
     3  F    1.301949   2.161184   0.000000
     4  C    2.532936   3.723031   2.996996   0.000000
     5  F    2.805648   4.109746   2.643606   1.329572   0.000000
     6  F    3.422153   4.497583   3.938884   1.336437   2.160678
     7  C    1.324268   2.302970   2.335943   1.499106   2.345154
     8  F    2.290247   2.670735   3.520763   2.369388   3.522612
     9  F    3.421458   4.496570   3.938601   1.336633   2.160951
                    6          7          8          9
     6  F    0.000000
     7  C    2.332496   0.000000
     8  F    2.782180   1.332661   0.000000
     9  F    2.151157   2.332045   2.781601   0.000000
 Stoichiometry    C3F6
 Framework group  C1[X(C3F6)]
 Deg. of freedom    21
 Full point group                 C1      NOp   1
 Largest Abelian subgroup         C1      NOp   1
 Largest concise Abelian subgroup C1      NOp   1
                         Standard orientation:                         
 ---------------------------------------------------------------------
 Center     Atomic      Atomic             Coordinates (Angstroms)
 Number     Number       Type             X           Y           Z
 ---------------------------------------------------------------------
      1          6           0        1.407942   -0.162305   -0.000017
      2          9           0        2.549004    0.469608    0.000230
      3          9           0        1.565283   -1.454712   -0.000219
      4          6           0       -1.124831   -0.133623   -0.000052
      5          9           0       -1.078312   -1.462382    0.000246
      6          9           0       -1.813120    0.261491   -1.075323
      7          6           0        0.246037    0.473038   -0.000307
      8          9           0        0.236477    1.805664   -0.000518
      9          9           0       -1.812099    0.262256    1.075834
 ---------------------------------------------------------------------
 Rotational constants (GHZ):           2.5687069           1.2583016           0.9900353
 Standard basis: 6-311+G(2d) (5D, 7F)
 There are   261 symmetry adapted cartesian basis functions of A   symmetry.
 There are   243 symmetry adapted basis functions of A   symmetry.
   243 basis functions,   378 primitive gaussians,   261 cartesian basis functions
    36 alpha electrons       36 beta electrons
       nuclear repulsion energy       512.2427220874 Hartrees.
 NAtoms=    9 NActive=    9 NUniq=    9 SFac= 1.00D+00 NAtFMM=   60 NAOKFM=F Big=F
 Integral buffers will be    131072 words long.
 Raffenetti 2 integral format.
 Two-electron integral symmetry is turned on.
 Nuclear repulsion after empirical dispersion term =      512.2398453409 Hartrees.
 One-electron integrals computed using PRISM.
 NBasis=   243 RedAO= T EigKep=  4.48D-05  NBF=   243
 NBsUse=   243 1.00D-06 EigRej= -1.00D+00 NBFU=   243
 Initial guess from the checkpoint file:  "propene.chk"
 B after Tr=    -0.000000    0.000000   -0.000000
         Rot=    1.000000   -0.000000    0.000000    0.000000 Ang=   0.00 deg.
 Initial guess <Sx>= 0.0000 <Sy>= 0.0000 <Sz>= 0.0000 <S**2>=-0.0000 S=-0.0000
 Keep R1 and R2 ints in memory in canonical form, NReq=1823284279.
 Requested convergence on RMS density matrix=1.00D-08 within 128 cycles.
 Requested convergence on MAX density matrix=1.00D-06.
 Requested convergence on             energy=1.00D-06.
 No special actions if energy rises.
 SCF Done:  E(UwB97XD) =  -713.359454095     A.U. after    1 cycles
            NFock=  1  Conv=0.47D-08     -V/T= 2.0025
 <Sx>= 0.0000 <Sy>= 0.0000 <Sz>= 0.0000 <S**2>=-0.0000 S=-0.0000
 <L.S>= 0.000000000000E+00
 Annihilation of the first spin contaminant:
 S**2 before annihilation    -0.0000,   after     0.0000
 DoSCS=F DFT=T ScalE2(SS,OS)=  1.000000  1.000000
 Range of M.O.s used for correlation:     1   243
 NBasis=   243 NAE=    36 NBE=    36 NFC=     0 NFV=     0
 NROrb=    243 NOA=    36 NOB=    36 NVA=   207 NVB=   207

 **** Warning!!: The largest alpha MO coefficient is  0.55008695D+02


 **** Warning!!: The largest beta MO coefficient is  0.55008695D+02

 Symmetrizing basis deriv contribution to polar:
 IMax=3 JMax=2 DiffMx= 0.00D+00
 G2DrvN: will do    10 centers at a time, making    1 passes.
 Calling FoFCou, ICntrl=  3107 FMM=F I1Cent=   0 AccDes= 0.00D+00.
 End of G2Drv F.D. properties file   721 does not exist.
 End of G2Drv F.D. properties file   722 does not exist.
 End of G2Drv F.D. properties file   788 does not exist.
          IDoAtm=111111111
          Differentiating once with respect to electric field.
                with respect to dipole field.
          Differentiating once with respect to nuclear coordinates.
 Keep R1 and R2 ints in memory in canonical form, NReq=1823082986.
          There are    30 degrees of freedom in the 1st order CPHF.  IDoFFX=6 NUNeed=     3.
     27 vectors produced by pass  0 Test12= 4.97D-14 3.33D-09 XBig12= 3.71D+01 3.15D+00.
 AX will form    27 AO Fock derivatives at one time.
     27 vectors produced by pass  1 Test12= 4.97D-14 3.33D-09 XBig12= 4.65D+00 2.70D-01.
     27 vectors produced by pass  2 Test12= 4.97D-14 3.33D-09 XBig12= 1.94D-01 6.57D-02.
     27 vectors produced by pass  3 Test12= 4.97D-14 3.33D-09 XBig12= 6.46D-03 9.19D-03.
     27 vectors produced by pass  4 Test12= 4.97D-14 3.33D-09 XBig12= 8.10D-05 1.40D-03.
     27 vectors produced by pass  5 Test12= 4.97D-14 3.33D-09 XBig12= 6.85D-07 1.44D-04.
     27 vectors produced by pass  6 Test12= 4.97D-14 3.33D-09 XBig12= 5.21D-09 1.35D-05.
     15 vectors produced by pass  7 Test12= 4.97D-14 3.33D-09 XBig12= 3.09D-11 9.56D-07.
      4 vectors produced by pass  8 Test12= 4.97D-14 3.33D-09 XBig12= 2.22D-13 6.46D-08.
      2 vectors produced by pass  9 Test12= 4.97D-14 3.33D-09 XBig12= 1.43D-15 3.94D-09.
 InvSVY:  IOpt=1 It=  1 EMax= 2.66D-15
 Solved reduced A of dimension   210 with    30 vectors.
 Isotropic polarizability for W=    0.000000       40.53 Bohr**3.
 End of Minotr F.D. properties file   721 does not exist.
 End of Minotr F.D. properties file   722 does not exist.
 End of Minotr F.D. properties file   788 does not exist.

 **********************************************************************

            Population analysis using the SCF density.

 **********************************************************************

 Orbital symmetries:
 Alpha Orbitals:
       Occupied  (A) (A) (A) (A) (A) (A) (A) (A) (A) (A) (A) (A)
                 (A) (A) (A) (A) (A) (A) (A) (A) (A) (A) (A) (A)
                 (A) (A) (A) (A) (A) (A) (A) (A) (A) (A) (A) (A)
       Virtual   (A) (A) (A) (A) (A) (A) (A) (A) (A) (A) (A) (A)
                 (A) (A) (A) (A) (A) (A) (A) (A) (A) (A) (A) (A)
                 (A) (A) (A) (A) (A) (A) (A) (A) (A) (A) (A) (A)
                 (A) (A) (A) (A) (A) (A) (A) (A) (A) (A) (A) (A)
                 (A) (A) (A) (A) (A) (A) (A) (A) (A) (A) (A) (A)
                 (A) (A) (A) (A) (A) (A) (A) (A) (A) (A) (A) (A)
                 (A) (A) (A) (A) (A) (A) (A) (A) (A) (A) (A) (A)
                 (A) (A) (A) (A) (A) (A) (A) (A) (A) (A) (A) (A)
                 (A) (A) (A) (A) (A) (A) (A) (A) (A) (A) (A) (A)
                 (A) (A) (A) (A) (A) (A) (A) (A) (A) (A) (A) (A)
                 (A) (A) (A) (A) (A) (A) (A) (A) (A) (A) (A) (A)
                 (A) (A) (A) (A) (A) (A) (A) (A) (A) (A) (A) (A)
                 (A) (A) (A) (A) (A) (A) (A) (A) (A) (A) (A) (A)
                 (A) (A) (A) (A) (A) (A) (A) (A) (A) (A) (A) (A)
                 (A) (A) (A) (A) (A) (A) (A) (A) (A) (A) (A) (A)
                 (A) (A) (A) (A) (A) (A) (A) (A) (A) (A) (A) (A)
                 (A) (A) (A) (A) (A) (A) (A) (A) (A) (A) (A) (A)
                 (A) (A) (A)
 Beta  Orbitals:
       Occupied  (A) (A) (A) (A) (A) (A) (A) (A) (A) (A) (A) (A)
                 (A) (A) (A) (A) (A) (A) (A) (A) (A) (A) (A) (A)
                 (A) (A) (A) (A) (A) (A) (A) (A) (A) (A) (A) (A)
       Virtual   (A) (A) (A) (A) (A) (A) (A) (A) (A) (A) (A) (A)
                 (A) (A) (A) (A) (A) (A) (A) (A) (A) (A) (A) (A)
                 (A) (A) (A) (A) (A) (A) (A) (A) (A) (A) (A) (A)
                 (A) (A) (A) (A) (A) (A) (A) (A) (A) (A) (A) (A)
                 (A) (A) (A) (A) (A) (A) (A) (A) (A) (A) (A) (A)
                 (A) (A) (A) (A) (A) (A) (A) (A) (A) (A) (A) (A)
                 (A) (A) (A) (A) (A) (A) (A) (A) (A) (A) (A) (A)
                 (A) (A) (A) (A) (A) (A) (A) (A) (A) (A) (A) (A)
                 (A) (A) (A) (A) (A) (A) (A) (A) (A) (A) (A) (A)
                 (A) (A) (A) (A) (A) (A) (A) (A) (A) (A) (A) (A)
                 (A) (A) (A) (A) (A) (A) (A) (A) (A) (A) (A) (A)
                 (A) (A) (A) (A) (A) (A) (A) (A) (A) (A) (A) (A)
                 (A) (A) (A) (A) (A) (A) (A) (A) (A) (A) (A) (A)
                 (A) (A) (A) (A) (A) (A) (A) (A) (A) (A) (A) (A)
                 (A) (A) (A) (A) (A) (A) (A) (A) (A) (A) (A) (A)
                 (A) (A) (A) (A) (A) (A) (A) (A) (A) (A) (A) (A)
                 (A) (A) (A) (A) (A) (A) (A) (A) (A) (A) (A) (A)
                 (A) (A) (A)
 The electronic state is 1-A.
 Alpha  occ. eigenvalues --  -24.89451 -24.89292 -24.87195 -24.86709 -24.86504
 Alpha  occ. eigenvalues --  -24.86497 -10.57776 -10.50753 -10.42332  -1.45804
 Alpha  occ. eigenvalues --   -1.45040  -1.39194  -1.38103  -1.36532  -1.35953
 Alpha  occ. eigenvalues --   -0.95509  -0.85576  -0.78546  -0.74673  -0.73464
 Alpha  occ. eigenvalues --   -0.72065  -0.71061  -0.68240  -0.67180  -0.60590
 Alpha  occ. eigenvalues --   -0.59356  -0.58963  -0.58530  -0.58368  -0.57811
 Alpha  occ. eigenvalues --   -0.56781  -0.54681  -0.54439  -0.52776  -0.50160
 Alpha  occ. eigenvalues --   -0.38004
 Alpha virt. eigenvalues --    0.04547   0.06021   0.07787   0.09040   0.10152
 Alpha virt. eigenvalues --    0.11842   0.12787   0.13536   0.13939   0.14943
 Alpha virt. eigenvalues --    0.15328   0.17398   0.18755   0.19564   0.22429
 Alpha virt. eigenvalues --    0.25201   0.25712   0.27753   0.28821   0.29424
 Alpha virt. eigenvalues --    0.32128   0.33388   0.34465   0.34925   0.35914
 Alpha virt. eigenvalues --    0.36390   0.37515   0.38276   0.39809   0.39896
 Alpha virt. eigenvalues --    0.40832   0.41077   0.42044   0.42992   0.43062
 Alpha virt. eigenvalues --    0.43174   0.44857   0.46728   0.49269   0.50589
 Alpha virt. eigenvalues --    0.51795   0.51994   0.53442   0.56231   0.57766
 Alpha virt. eigenvalues --    0.59500   0.63206   0.64592   0.70407   0.72664
 Alpha virt. eigenvalues --    0.76595   0.76873   0.77871   0.79002   0.83678
 Alpha virt. eigenvalues --    0.84279   0.92371   0.96235   0.99401   0.99425
 Alpha virt. eigenvalues --    1.02668   1.08965   1.13259   1.19515   1.25946
 Alpha virt. eigenvalues --    1.27704   1.29647   1.31958   1.35308   1.37318
 Alpha virt. eigenvalues --    1.38101   1.39421   1.40440   1.41482   1.43310
 Alpha virt. eigenvalues --    1.44665   1.46173   1.46728   1.47064   1.49324
 Alpha virt. eigenvalues --    1.50493   1.50783   1.53161   1.53972   1.55979
 Alpha virt. eigenvalues --    1.56909   1.59085   1.60406   1.67497   1.74959
 Alpha virt. eigenvalues --    1.93595   1.94946   1.98622   2.01746   2.03252
 Alpha virt. eigenvalues --    2.03472   2.04585   2.05893   2.06672   2.06847
 Alpha virt. eigenvalues --    2.11414   2.15831   2.18527   2.19147   2.22408
 Alpha virt. eigenvalues --    2.23495   2.26044   2.27623   2.30578   2.35208
 Alpha virt. eigenvalues --    2.39999   2.46711   2.50063   2.55164   2.63858
 Alpha virt. eigenvalues --    2.64386   2.72200   2.75133   2.75483   2.79965
 Alpha virt. eigenvalues --    2.80824   2.88314   3.00380   3.03127   3.12452
 Alpha virt. eigenvalues --    3.16525   3.18319   3.23107   3.25432   3.30259
 Alpha virt. eigenvalues --    3.34260   3.35894   3.41057   3.47575   3.50783
 Alpha virt. eigenvalues --    3.53882   3.55508   3.57301   3.62133   3.70017
 Alpha virt. eigenvalues --    3.70453   3.73601   3.79201   3.87506   4.07975
 Alpha virt. eigenvalues --    4.28435   4.29512   4.31080   4.48643   4.82617
 Alpha virt. eigenvalues --    6.34601   6.36535   6.39397   6.40016   6.41183
 Alpha virt. eigenvalues --    6.44131   6.44766   6.47234   6.47451   6.49013
 Alpha virt. eigenvalues --    6.52310   6.54556   6.58343   6.67218   6.84092
 Alpha virt. eigenvalues --    6.84970   6.96135   6.97267   9.07021   9.08193
 Alpha virt. eigenvalues --    9.09507   9.11219   9.11481   9.14746   9.15172
 Alpha virt. eigenvalues --    9.17546   9.20743   9.21925   9.23105   9.24489
 Alpha virt. eigenvalues --    9.26061   9.26740   9.31286   9.34371   9.34930
 Alpha virt. eigenvalues --    9.39171   9.45144   9.51333   9.62497   9.68186
 Alpha virt. eigenvalues --    9.71637   9.72219   9.74022   9.77204   9.79682
 Alpha virt. eigenvalues --    9.86761   9.86841   9.94349  23.87711  24.05868
 Alpha virt. eigenvalues --   24.27472  66.89674  66.92767  66.93416  66.93866
 Alpha virt. eigenvalues --   66.95496  67.03096
  Beta  occ. eigenvalues --  -24.89451 -24.89292 -24.87195 -24.86709 -24.86504
  Beta  occ. eigenvalues --  -24.86497 -10.57776 -10.50753 -10.42332  -1.45804
  Beta  occ. eigenvalues --   -1.45040  -1.39194  -1.38103  -1.36532  -1.35953
  Beta  occ. eigenvalues --   -0.95509  -0.85576  -0.78546  -0.74673  -0.73464
  Beta  occ. eigenvalues --   -0.72065  -0.71061  -0.68240  -0.67180  -0.60590
  Beta  occ. eigenvalues --   -0.59356  -0.58963  -0.58530  -0.58368  -0.57811
  Beta  occ. eigenvalues --   -0.56781  -0.54681  -0.54439  -0.52776  -0.50160
  Beta  occ. eigenvalues --   -0.38004
  Beta virt. eigenvalues --    0.04547   0.06021   0.07787   0.09040   0.10152
  Beta virt. eigenvalues --    0.11842   0.12787   0.13536   0.13939   0.14943
  Beta virt. eigenvalues --    0.15328   0.17398   0.18755   0.19564   0.22429
  Beta virt. eigenvalues --    0.25201   0.25712   0.27753   0.28821   0.29424
  Beta virt. eigenvalues --    0.32128   0.33388   0.34465   0.34925   0.35914
  Beta virt. eigenvalues --    0.36390   0.37515   0.38276   0.39809   0.39896
  Beta virt. eigenvalues --    0.40832   0.41077   0.42044   0.42992   0.43062
  Beta virt. eigenvalues --    0.43174   0.44857   0.46728   0.49269   0.50589
  Beta virt. eigenvalues --    0.51795   0.51994   0.53442   0.56231   0.57766
  Beta virt. eigenvalues --    0.59500   0.63206   0.64592   0.70407   0.72664
  Beta virt. eigenvalues --    0.76595   0.76873   0.77871   0.79002   0.83678
  Beta virt. eigenvalues --    0.84279   0.92371   0.96235   0.99401   0.99425
  Beta virt. eigenvalues --    1.02668   1.08965   1.13259   1.19515   1.25946
  Beta virt. eigenvalues --    1.27704   1.29647   1.31958   1.35308   1.37318
  Beta virt. eigenvalues --    1.38101   1.39421   1.40440   1.41482   1.43310
  Beta virt. eigenvalues --    1.44665   1.46173   1.46728   1.47064   1.49324
  Beta virt. eigenvalues --    1.50493   1.50783   1.53161   1.53972   1.55979
  Beta virt. eigenvalues --    1.56909   1.59085   1.60406   1.67497   1.74959
  Beta virt. eigenvalues --    1.93595   1.94946   1.98622   2.01746   2.03252
  Beta virt. eigenvalues --    2.03472   2.04585   2.05893   2.06672   2.06847
  Beta virt. eigenvalues --    2.11414   2.15831   2.18527   2.19147   2.22408
  Beta virt. eigenvalues --    2.23495   2.26044   2.27623   2.30578   2.35208
  Beta virt. eigenvalues --    2.39999   2.46711   2.50063   2.55164   2.63858
  Beta virt. eigenvalues --    2.64386   2.72200   2.75133   2.75483   2.79965
  Beta virt. eigenvalues --    2.80824   2.88314   3.00380   3.03127   3.12452
  Beta virt. eigenvalues --    3.16525   3.18319   3.23107   3.25432   3.30259
  Beta virt. eigenvalues --    3.34260   3.35894   3.41057   3.47575   3.50783
  Beta virt. eigenvalues --    3.53882   3.55508   3.57301   3.62133   3.70017
  Beta virt. eigenvalues --    3.70453   3.73601   3.79201   3.87506   4.07975
  Beta virt. eigenvalues --    4.28435   4.29512   4.31080   4.48643   4.82617
  Beta virt. eigenvalues --    6.34601   6.36535   6.39397   6.40016   6.41183
  Beta virt. eigenvalues --    6.44131   6.44766   6.47234   6.47451   6.49013
  Beta virt. eigenvalues --    6.52310   6.54556   6.58343   6.67218   6.84092
  Beta virt. eigenvalues --    6.84970   6.96135   6.97267   9.07021   9.08193
  Beta virt. eigenvalues --    9.09507   9.11219   9.11481   9.14746   9.15172
  Beta virt. eigenvalues --    9.17546   9.20743   9.21925   9.23105   9.24489
  Beta virt. eigenvalues --    9.26061   9.26740   9.31286   9.34371   9.34930
  Beta virt. eigenvalues --    9.39171   9.45144   9.51333   9.62497   9.68186
  Beta virt. eigenvalues --    9.71637   9.72219   9.74022   9.77204   9.79682
  Beta virt. eigenvalues --    9.86761   9.86841   9.94349  23.87711  24.05868
  Beta virt. eigenvalues --   24.27472  66.89674  66.92767  66.93416  66.93866
  Beta virt. eigenvalues --   66.95496  67.03096
          Condensed to atoms (all electrons):
               1          2          3          4          5          6
     1  C    5.717469   0.184600   0.194307  -0.453141  -0.007399  -0.003626
     2  F    0.184600   9.191142  -0.028163   0.019823  -0.001907  -0.000304
     3  F    0.194307  -0.028163   9.185954  -0.015361   0.012457  -0.000396
     4  C   -0.453141   0.019823  -0.015361   4.887398   0.193401   0.228410
     5  F   -0.007399  -0.001907   0.012457   0.193401   9.123450   0.004934
     6  F   -0.003626  -0.000304  -0.000396   0.228410   0.004934   9.096743
     7  C   -0.073222  -0.079463  -0.081673   0.244732  -0.025899  -0.070172
     8  F   -0.074251  -0.008697   0.014735  -0.153286   0.010464   0.018800
     9  F   -0.003703  -0.000305  -0.000396   0.228392   0.004998  -0.010462
               7          8          9
     1  C   -0.073222  -0.074251  -0.003703
     2  F   -0.079463  -0.008697  -0.000305
     3  F   -0.081673   0.014735  -0.000396
     4  C    0.244732  -0.153286   0.228392
     5  F   -0.025899   0.010464   0.004998
     6  F   -0.070172   0.018800  -0.010462
     7  C    5.602474   0.178605  -0.070194
     8  F    0.178605   9.307681   0.018814
     9  F   -0.070194   0.018814   9.096788
          Atomic-Atomic Spin Densities.
               1          2          3          4          5          6
     1  C    0.000000   0.000000   0.000000   0.000000   0.000000   0.000000
     2  F    0.000000   0.000000   0.000000   0.000000   0.000000   0.000000
     3  F    0.000000   0.000000   0.000000   0.000000   0.000000   0.000000
     4  C    0.000000   0.000000   0.000000   0.000000   0.000000   0.000000
     5  F    0.000000   0.000000   0.000000   0.000000   0.000000   0.000000
     6  F    0.000000   0.000000   0.000000   0.000000   0.000000   0.000000
     7  C    0.000000   0.000000   0.000000   0.000000   0.000000   0.000000
     8  F    0.000000   0.000000   0.000000   0.000000   0.000000   0.000000
     9  F    0.000000   0.000000   0.000000   0.000000   0.000000   0.000000
               7          8          9
     1  C    0.000000   0.000000   0.000000
     2  F    0.000000   0.000000   0.000000
     3  F    0.000000   0.000000   0.000000
     4  C    0.000000   0.000000   0.000000
     5  F    0.000000   0.000000   0.000000
     6  F    0.000000   0.000000   0.000000
     7  C    0.000000   0.000000   0.000000
     8  F    0.000000   0.000000   0.000000
     9  F    0.000000   0.000000   0.000000
 Mulliken charges and spin densities:
               1          2
     1  C    0.518967   0.000000
     2  F   -0.276725   0.000000
     3  F   -0.281464   0.000000
     4  C    0.819633   0.000000
     5  F   -0.314499   0.000000
     6  F   -0.263927   0.000000
     7  C    0.374812   0.000000
     8  F   -0.312864   0.000000
     9  F   -0.263931   0.000000
 Sum of Mulliken charges =  -0.00000   0.00000
 Mulliken charges and spin densities with hydrogens summed into heavy atoms:
               1          2
     1  C    0.518967   0.000000
     2  F   -0.276725   0.000000
     3  F   -0.281464   0.000000
     4  C    0.819633   0.000000
     5  F   -0.314499   0.000000
     6  F   -0.263927   0.000000
     7  C    0.374812   0.000000
     8  F   -0.312864   0.000000
     9  F   -0.263931   0.000000
 APT charges:
               1
     1  C    1.146752
     2  F   -0.510640
     3  F   -0.469071
     4  C    1.755093
     5  F   -0.508538
     6  F   -0.571457
     7  C    0.153178
     8  F   -0.423738
     9  F   -0.571578
 Sum of APT charges =  -0.00000
 APT charges with hydrogens summed into heavy atoms:
               1
     1  C    1.146752
     2  F   -0.510640
     3  F   -0.469071
     4  C    1.755093
     5  F   -0.508538
     6  F   -0.571457
     7  C    0.153178
     8  F   -0.423738
     9  F   -0.571578
 Electronic spatial extent (au):  <R**2>=           1047.8237
 Charge=              0.0000 electrons
 Dipole moment (field-independent basis, Debye):
    X=              1.0297    Y=             -0.3531    Z=             -0.0011  Tot=              1.0886
 Quadrupole moment (field-independent basis, Debye-Ang):
   XX=            -47.8888   YY=            -48.6498   ZZ=            -45.8717
   XY=             -0.2657   XZ=              0.0016   YZ=             -0.0003
 Traceless Quadrupole moment (field-independent basis, Debye-Ang):
   XX=             -0.4187   YY=             -1.1797   ZZ=              1.5984
   XY=             -0.2657   XZ=              0.0016   YZ=             -0.0003
 Octapole moment (field-independent basis, Debye-Ang**2):
  XXX=             -0.9205  YYY=             -2.2203  ZZZ=             -0.0006  XYY=             -1.2357
  XXY=             -1.5128  XXZ=             -0.0014  XZZ=              2.6135  YZZ=             -0.8961
  YYZ=              0.0010  XYZ=              0.0008
 Hexadecapole moment (field-independent basis, Debye-Ang**3):
 XXXX=           -642.0772 YYYY=           -275.9649 ZZZZ=           -101.8165 XXXY=             -0.2915
 XXXZ=              0.0017 YYYX=             -1.6160 YYYZ=              0.0027 ZZZX=              0.0053
 ZZZY=              0.0007 XXYY=           -152.0472 XXZZ=           -122.9506 YYZZ=            -61.6625
 XXYZ=             -0.0023 YYXZ=              0.0019 ZZXY=             -0.1612
 N-N= 5.122398453409D+02 E-N=-2.719237346709D+03  KE= 7.115491901439D+02
  Exact polarizability:  49.941  -3.993  40.652   0.003   0.000  31.006
 Approx polarizability:  50.367  -5.730  46.422   0.005   0.000  35.284
                          Isotropic Fermi Contact Couplings
        Atom                 a.u.       MegaHertz       Gauss      10(-4) cm-1
     1  C(13)              0.00000       0.00000       0.00000       0.00000
     2  F(19)              0.00000       0.00000       0.00000       0.00000
     3  F(19)              0.00000       0.00000       0.00000       0.00000
     4  C(13)              0.00000       0.00000       0.00000       0.00000
     5  F(19)              0.00000       0.00000       0.00000       0.00000
     6  F(19)              0.00000       0.00000       0.00000       0.00000
     7  C(13)              0.00000       0.00000       0.00000       0.00000
     8  F(19)              0.00000       0.00000       0.00000       0.00000
     9  F(19)              0.00000       0.00000       0.00000       0.00000
 --------------------------------------------------------
       Center         ----  Spin Dipole Couplings  ----
                      3XX-RR        3YY-RR        3ZZ-RR
 --------------------------------------------------------
     1   Atom        0.000000      0.000000      0.000000
     2   Atom        0.000000      0.000000      0.000000
     3   Atom        0.000000      0.000000      0.000000
     4   Atom        0.000000      0.000000      0.000000
     5   Atom        0.000000      0.000000      0.000000
     6   Atom        0.000000      0.000000      0.000000
     7   Atom        0.000000      0.000000      0.000000
     8   Atom        0.000000      0.000000      0.000000
     9   Atom        0.000000      0.000000      0.000000
 --------------------------------------------------------
                        XY            XZ            YZ
 --------------------------------------------------------
     1   Atom        0.000000      0.000000      0.000000
     2   Atom        0.000000      0.000000      0.000000
     3   Atom        0.000000      0.000000      0.000000
     4   Atom        0.000000      0.000000      0.000000
     5   Atom        0.000000      0.000000      0.000000
     6   Atom        0.000000      0.000000      0.000000
     7   Atom        0.000000      0.000000      0.000000
     8   Atom        0.000000      0.000000      0.000000
     9   Atom        0.000000      0.000000      0.000000
 --------------------------------------------------------


 ---------------------------------------------------------------------------------
              Anisotropic Spin Dipole Couplings in Principal Axis System
 ---------------------------------------------------------------------------------

       Atom             a.u.   MegaHertz   Gauss  10(-4) cm-1        Axes

              Baa     0.0000     0.000     0.000     0.000  1.0000  0.0000  0.0000
     1 C(13)  Bbb     0.0000     0.000     0.000     0.000 -0.0000  1.0000  0.0000
              Bcc     0.0000     0.000     0.000     0.000  0.0000  0.0000  1.0000
 
              Baa     0.0000     0.000     0.000     0.000  1.0000  0.0000  0.0000
     2 F(19)  Bbb     0.0000     0.000     0.000     0.000 -0.0000  1.0000  0.0000
              Bcc     0.0000     0.000     0.000     0.000  0.0000  0.0000  1.0000
 
              Baa     0.0000     0.000     0.000     0.000  1.0000  0.0000  0.0000
     3 F(19)  Bbb     0.0000     0.000     0.000     0.000 -0.0000  1.0000  0.0000
              Bcc     0.0000     0.000     0.000     0.000  0.0000  0.0000  1.0000
 
              Baa     0.0000     0.000     0.000     0.000  1.0000  0.0000  0.0000
     4 C(13)  Bbb     0.0000     0.000     0.000     0.000 -0.0000  1.0000  0.0000
              Bcc     0.0000     0.000     0.000     0.000  0.0000  0.0000  1.0000
 
              Baa     0.0000     0.000     0.000     0.000  1.0000  0.0000  0.0000
     5 F(19)  Bbb     0.0000     0.000     0.000     0.000 -0.0000  1.0000  0.0000
              Bcc     0.0000     0.000     0.000     0.000  0.0000  0.0000  1.0000
 
              Baa     0.0000     0.000     0.000     0.000  1.0000  0.0000  0.0000
     6 F(19)  Bbb     0.0000     0.000     0.000     0.000 -0.0000  1.0000  0.0000
              Bcc     0.0000     0.000     0.000     0.000  0.0000  0.0000  1.0000
 
              Baa     0.0000     0.000     0.000     0.000  1.0000  0.0000  0.0000
     7 C(13)  Bbb     0.0000     0.000     0.000     0.000 -0.0000  1.0000  0.0000
              Bcc     0.0000     0.000     0.000     0.000  0.0000  0.0000  1.0000
 
              Baa     0.0000     0.000     0.000     0.000  1.0000  0.0000  0.0000
     8 F(19)  Bbb     0.0000     0.000     0.000     0.000 -0.0000  1.0000  0.0000
              Bcc     0.0000     0.000     0.000     0.000  0.0000  0.0000  1.0000
 
              Baa     0.0000     0.000     0.000     0.000  1.0000  0.0000  0.0000
     9 F(19)  Bbb     0.0000     0.000     0.000     0.000 -0.0000  1.0000  0.0000
              Bcc     0.0000     0.000     0.000     0.000  0.0000  0.0000  1.0000
 

 ---------------------------------------------------------------------------------

 Calling FoFJK, ICntrl=    100127 FMM=F ISym2X=0 I1Cent= 0 IOpClX= 1 NMat=1 NMatS=1 NMatT=0.
 Full mass-weighted force constant matrix:
 Low frequencies ---   -4.8832   -3.4848   -0.0011   -0.0006    0.0005    8.1894
 Low frequencies ---   38.4507  129.7631  168.7260
 Diagonal vibrational polarizability:
       14.6003993      11.1154588       7.5392431
 Harmonic frequencies (cm**-1), IR intensities (KM/Mole), Raman scattering
 activities (A**4/AMU), depolarization ratios for plane and unpolarized
 incident light, reduced masses (AMU), force constants (mDyne/A),
 and normal coordinates:
                      1                      2                      3
                      A                      A                      A
 Frequencies --     38.4464               129.7626               168.7255
 Red. masses --     18.7857                18.1722                18.0793
 Frc consts  --      0.0164                 0.1803                 0.3032
 IR Inten    --      0.0011                 0.3482                 1.3022
  Atom  AN      X      Y      Z        X      Y      Z        X      Y      Z
     1   6    -0.00   0.00   0.10    -0.00   0.00  -0.03     0.13  -0.09  -0.00
     2   9    -0.00   0.00   0.02    -0.00  -0.00   0.66    -0.08   0.30   0.00
     3   9     0.00   0.00   0.45    -0.00   0.00  -0.37     0.56  -0.04  -0.00
     4   6     0.00  -0.00  -0.03     0.00   0.00  -0.09    -0.10  -0.05   0.00
     5   9    -0.00  -0.00  -0.44     0.00   0.00   0.07    -0.54  -0.06   0.00
     6   9    -0.19   0.33   0.22    -0.32  -0.14   0.08     0.02   0.19   0.00
     7   6    -0.00  -0.00  -0.14    -0.00   0.00  -0.33     0.01  -0.30  -0.00
     8   9    -0.00  -0.00  -0.43     0.00   0.00  -0.22    -0.01  -0.30  -0.00
     9   9     0.19  -0.33   0.22     0.32   0.14   0.08     0.02   0.19  -0.00
                      4                      5                      6
                      A                      A                      A
 Frequencies --    252.0188               260.3122               364.8532
 Red. masses --     17.9443                18.4765                18.0396
 Frc consts  --      0.6715                 0.7377                 1.4149
 IR Inten    --      0.8044                 0.9835                 1.2955
  Atom  AN      X      Y      Z        X      Y      Z        X      Y      Z
     1   6    -0.00  -0.00  -0.10    -0.11  -0.14   0.00     0.27   0.16   0.00
     2   9    -0.00   0.00  -0.15    -0.27   0.15   0.00     0.59  -0.31   0.00
     3   9     0.00  -0.00   0.36     0.23  -0.08  -0.00     0.23   0.15  -0.00
     4   6    -0.00   0.00  -0.24    -0.15   0.12   0.00    -0.14   0.02  -0.00
     5   9     0.00   0.00  -0.16     0.26   0.12   0.00    -0.14   0.03  -0.00
     6   9    -0.38  -0.22  -0.08    -0.34  -0.08   0.05    -0.38  -0.06   0.11
     7   6    -0.00  -0.00  -0.29    -0.06  -0.02   0.00     0.11   0.07   0.00
     8   9     0.00  -0.00   0.52     0.67  -0.00  -0.00    -0.08   0.10  -0.00
     9   9     0.38   0.22  -0.08    -0.34  -0.08  -0.05    -0.37  -0.06  -0.11
                      7                      8                      9
                      A                      A                      A
 Frequencies --    372.7815               470.7628               516.2576
 Red. masses --     18.3230                15.5589                17.8579
 Frc consts  --      1.5002                 2.0316                 2.8042
 IR Inten    --      0.2043                 2.7701                 3.3425
  Atom  AN      X      Y      Z        X      Y      Z        X      Y      Z
     1   6    -0.05  -0.23   0.00    -0.00  -0.00  -0.40    -0.21  -0.10   0.00
     2   9    -0.10  -0.16  -0.00    -0.00  -0.00   0.09    -0.17  -0.32  -0.00
     3   9     0.29  -0.22  -0.00     0.00  -0.00   0.13     0.43  -0.06  -0.00
     4   6     0.01   0.15   0.00    -0.00   0.00  -0.11    -0.08   0.19   0.00
     5   9     0.54   0.19  -0.00     0.00   0.00   0.46    -0.16   0.25  -0.00
     6   9    -0.09   0.24   0.09     0.05   0.34  -0.08     0.12  -0.20  -0.31
     7   6    -0.05  -0.13   0.00    -0.00   0.00  -0.56    -0.11   0.23   0.00
     8   9    -0.48  -0.17  -0.00    -0.00   0.00   0.14    -0.09   0.34  -0.00
     9   9    -0.09   0.24  -0.09    -0.05  -0.34  -0.08     0.12  -0.20   0.31
                     10                     11                     12
                      A                      A                      A
 Frequencies --    585.5420               606.6356               665.3042
 Red. masses --     14.8394                17.7114                16.8641
 Frc consts  --      2.9977                 3.8402                 4.3980
 IR Inten    --      0.4530                 0.1636                15.3686
  Atom  AN      X      Y      Z        X      Y      Z        X      Y      Z
     1   6     0.00  -0.00   0.69     0.23  -0.01  -0.00    -0.21   0.25   0.00
     2   9     0.00   0.00  -0.17     0.23   0.27   0.00     0.01  -0.30  -0.00
     3   9    -0.00  -0.00  -0.14    -0.23  -0.09   0.00     0.05   0.54  -0.00
     4   6    -0.00   0.00  -0.26    -0.12   0.25   0.00    -0.22  -0.09   0.00
     5   9     0.00   0.00   0.29     0.03   0.48  -0.00     0.17  -0.12  -0.00
     6   9    -0.25   0.20  -0.18    -0.05  -0.15  -0.32     0.05   0.12  -0.21
     7   6     0.00  -0.00   0.22     0.09  -0.21  -0.00    -0.33  -0.19  -0.00
     8   9    -0.00  -0.00  -0.03    -0.07  -0.37   0.00     0.15  -0.35   0.00
     9   9     0.25  -0.20  -0.18    -0.05  -0.15   0.32     0.05   0.12   0.21
                     13                     14                     15
                      A                      A                      A
 Frequencies --    698.0150               776.7769              1052.2375
 Red. masses --     12.8662                17.9755                14.4398
 Frc consts  --      3.6934                 6.3903                 9.4197
 IR Inten    --      1.7693                12.6083               315.4863
  Atom  AN      X      Y      Z        X      Y      Z        X      Y      Z
     1   6    -0.00   0.00  -0.60    -0.11   0.06  -0.00     0.27  -0.11   0.00
     2   9    -0.00  -0.00   0.11    -0.19  -0.18  -0.00    -0.33  -0.13  -0.00
     3   9     0.00   0.00   0.09     0.02   0.31   0.00    -0.04   0.22   0.00
     4   6    -0.00  -0.00  -0.10     0.32   0.15   0.00     0.47   0.08  -0.00
     5   9     0.00  -0.00   0.09    -0.16   0.46  -0.00    -0.04  -0.15   0.00
     6   9    -0.17   0.06  -0.11     0.09  -0.21   0.37    -0.18   0.05  -0.19
     7   6    -0.00  -0.00   0.71     0.02  -0.06   0.00     0.58   0.07   0.00
     8   9     0.00  -0.00  -0.08    -0.00  -0.27   0.00    -0.06  -0.07   0.00
     9   9     0.17  -0.06  -0.11     0.09  -0.21  -0.37    -0.18   0.05   0.19
                     16                     17                     18
                      A                      A                      A
 Frequencies --   1173.8710              1218.4231              1232.8766
 Red. masses --     13.1120                13.0987                13.5874
 Frc consts  --     10.6454                11.4571                12.1682
 IR Inten    --    314.9976               203.1054               150.6279
  Atom  AN      X      Y      Z        X      Y      Z        X      Y      Z
     1   6     0.00  -0.00   0.01    -0.01  -0.16  -0.00    -0.39   0.15  -0.00
     2   9    -0.00  -0.00   0.01     0.02   0.02  -0.00     0.16   0.06   0.00
     3   9    -0.00   0.00  -0.00    -0.02   0.08   0.00     0.07  -0.19  -0.00
     4   6    -0.00   0.00   0.91    -0.31   0.84  -0.00     0.39   0.11   0.00
     5   9     0.00  -0.00  -0.06     0.01  -0.33   0.00    -0.05  -0.11  -0.00
     6   9    -0.13   0.06  -0.24     0.08  -0.08   0.08    -0.06   0.01  -0.05
     7   6     0.00  -0.00  -0.08     0.10   0.02   0.00    -0.13   0.65  -0.00
     8   9    -0.00   0.00   0.00    -0.03  -0.07  -0.00     0.02  -0.36   0.00
     9   9     0.13  -0.06  -0.24     0.08  -0.08  -0.08    -0.06   0.01   0.05
                     19                     20                     21
                      A                      A                      A
 Frequencies --   1348.3288              1413.4423              1861.9373
 Red. masses --     13.2526                12.5081                12.1450
 Frc consts  --     14.1952                14.7231                24.8072
 IR Inten    --    226.0802               237.7904               177.8191
  Atom  AN      X      Y      Z        X      Y      Z        X      Y      Z
     1   6     0.35   0.64   0.00     0.17   0.47   0.00     0.65  -0.35   0.00
     2   9    -0.26  -0.14  -0.00    -0.04  -0.06  -0.00    -0.08  -0.02  -0.00
     3   9     0.02  -0.23  -0.00     0.01  -0.18  -0.00    -0.03   0.08   0.00
     4   6    -0.42  -0.05  -0.00     0.46   0.33   0.00     0.04  -0.02   0.00
     5   9     0.03   0.01   0.00    -0.03  -0.10   0.00    -0.01   0.00   0.00
     6   9     0.06  -0.01   0.04    -0.05  -0.01  -0.04     0.01   0.00   0.01
     7   6     0.21   0.27  -0.00    -0.41  -0.43   0.00    -0.56   0.36  -0.00
     8   9     0.01  -0.16   0.00     0.03   0.12  -0.00     0.01  -0.07   0.00
     9   9     0.05  -0.01  -0.04    -0.05  -0.01   0.03     0.01   0.00  -0.01

 -------------------
 - Thermochemistry -
 -------------------
 Temperature   298.150 Kelvin.  Pressure   1.00000 Atm.
 Atom     1 has atomic number  6 and mass  12.00000
 Atom     2 has atomic number  9 and mass  18.99840
 Atom     3 has atomic number  9 and mass  18.99840
 Atom     4 has atomic number  6 and mass  12.00000
 Atom     5 has atomic number  9 and mass  18.99840
 Atom     6 has atomic number  9 and mass  18.99840
 Atom     7 has atomic number  6 and mass  12.00000
 Atom     8 has atomic number  9 and mass  18.99840
 Atom     9 has atomic number  9 and mass  18.99840
 Molecular mass:   149.99042 amu.
 Principal axes and moments of inertia in atomic units:
                           1         2         3
     Eigenvalues --   702.587441434.267591822.90597
           X            1.00000   0.00013  -0.00000
           Y           -0.00013   1.00000  -0.00000
           Z            0.00000   0.00000   1.00000
 This molecule is an asymmetric top.
 Rotational symmetry number  1.
 Warning -- assumption of classical behavior for rotation
           may cause significant error
 Rotational temperatures (Kelvin)      0.12328     0.06039     0.04751
 Rotational constants (GHZ):           2.56871     1.25830     0.99004
 Zero-point vibrational energy      90959.9 (Joules/Mol)
                                   21.73994 (Kcal/Mol)
 Warning -- explicit consideration of  11 degrees of freedom as
           vibrations may cause significant error
 Vibrational temperatures:     55.32   186.70   242.76   362.60   374.53
          (Kelvin)            524.94   536.35   677.32   742.78   842.46
                              872.81   957.22  1004.29  1117.61  1513.94
                             1688.94  1753.04  1773.83  1939.94  2033.63
                             2678.91
 
 Zero-point correction=                           0.034645 (Hartree/Particle)
 Thermal correction to Energy=                    0.042471
 Thermal correction to Enthalpy=                  0.043415
 Thermal correction to Gibbs Free Energy=         0.000844
 Sum of electronic and zero-point Energies=           -713.324809
 Sum of electronic and thermal Energies=              -713.316983
 Sum of electronic and thermal Enthalpies=            -713.316039
 Sum of electronic and thermal Free Energies=         -713.358610
 
                     E (Thermal)             CV                S
                      KCal/Mol        Cal/Mol-Kelvin    Cal/Mol-Kelvin
 Total                   26.651             26.525             89.598
 Electronic               0.000              0.000              0.000
 Translational            0.889              2.981             40.926
 Rotational               0.889              2.981             28.998
 Vibrational             24.873             20.563             19.674
 Vibration     1          0.594              1.982              5.338
 Vibration     2          0.612              1.924              2.950
 Vibration     3          0.625              1.881              2.450
 Vibration     4          0.664              1.759              1.716
 Vibration     5          0.668              1.745              1.660
 Vibration     6          0.738              1.545              1.101
 Vibration     7          0.744              1.528              1.068
 Vibration     8          0.828              1.315              0.735
 Vibration     9          0.871              1.214              0.619
 Vibration    10          0.943              1.063              0.475
 Vibration    11          0.965              1.018              0.438
                       Q            Log10(Q)             Ln(Q)
 Total Bot       0.408941D+00         -0.388340         -0.894185
 Total V=0       0.352492D+16         15.547149         35.798635
 Vib (Bot)       0.116740D-13        -13.932782        -32.081416
 Vib (Bot)    1  0.538224D+01          0.730963          1.683105
 Vib (Bot)    2  0.157116D+01          0.196219          0.451811
 Vib (Bot)    3  0.119490D+01          0.077330          0.178059
 Vib (Bot)    4  0.773689D+00         -0.111434         -0.256585
 Vib (Bot)    5  0.746034D+00         -0.127242         -0.292985
 Vib (Bot)    6  0.500737D+00         -0.300391         -0.691675
 Vib (Bot)    7  0.487450D+00         -0.312070         -0.718568
 Vib (Bot)    8  0.358069D+00         -0.446033         -1.027030
 Vib (Bot)    9  0.313732D+00         -0.503441         -1.159215
 Vib (Bot)   10  0.258795D+00         -0.587044         -1.351720
 Vib (Bot)   11  0.244462D+00         -0.611788         -1.408694
 Vib (V=0)       0.100625D+03          2.002707          4.611404
 Vib (V=0)    1  0.590542D+01          0.771251          1.775870
 Vib (V=0)    2  0.214880D+01          0.332195          0.764908
 Vib (V=0)    3  0.179529D+01          0.254134          0.585166
 Vib (V=0)    4  0.142119D+01          0.152653          0.351496
 Vib (V=0)    5  0.139809D+01          0.145535          0.335107
 Vib (V=0)    6  0.120763D+01          0.081933          0.188658
 Vib (V=0)    7  0.119829D+01          0.078562          0.180895
 Vib (V=0)    8  0.111499D+01          0.047271          0.108846
 Vib (V=0)    9  0.109028D+01          0.037537          0.086433
 Vib (V=0)   10  0.106301D+01          0.026535          0.061100
 Vib (V=0)   11  0.105656D+01          0.023895          0.055021
 Electronic      0.100000D+01          0.000000          0.000000
 Translational   0.722020D+08          7.858549         18.094978
 Rotational      0.485169D+06          5.685893         13.092253
 ***** Axes restored to original set *****
 -------------------------------------------------------------------
 Center     Atomic                   Forces (Hartrees/Bohr)
 Number     Number              X              Y              Z
 -------------------------------------------------------------------
      1        6          -0.000016341    0.000018845   -0.000028704
      2        9           0.000013001    0.000008982    0.000005490
      3        9          -0.000030236   -0.000010054    0.000006398
      4        6          -0.000025399   -0.000014421    0.000091393
      5        9          -0.000004597   -0.000020680    0.000012069
      6        9           0.000004644   -0.000030054   -0.000060939
      7        6           0.000044861   -0.000004694   -0.000025620
      8        9           0.000009487    0.000020306    0.000017381
      9        9           0.000004580    0.000031771   -0.000017468
 -------------------------------------------------------------------
 Cartesian Forces:  Max     0.000091393 RMS     0.000028578
 FormGI is forming the generalized inverse of G from B-inverse, IUseBI=4.

 GradGradGradGradGradGradGradGradGradGradGradGradGradGradGradGradGradGrad
 Berny optimization.
 Internal  Forces:  Max     0.000086846 RMS     0.000029920
 Search for a local minimum.
 Step number   1 out of a maximum of    2
 All quantities printed in internal units (Hartrees-Bohrs-Radians)
 Second derivative matrix not updated -- analytic derivatives used.
 ITU=  0
     Eigenvalues ---    0.00173   0.01444   0.03166   0.06698   0.12524
     Eigenvalues ---    0.12551   0.15979   0.18631   0.21005   0.22875
     Eigenvalues ---    0.25386   0.26811   0.27707   0.37156   0.38580
     Eigenvalues ---    0.41725   0.44513   0.46548   0.52989   0.55087
     Eigenvalues ---    0.66789
 Angle between quadratic step and forces=  54.39 degrees.
 Linear search not attempted -- first point.
 Iteration  1 RMS(Cart)=  0.00040788 RMS(Int)=  0.00000010
 Iteration  2 RMS(Cart)=  0.00000012 RMS(Int)=  0.00000001
 Variable       Old X    -DE/DX   Delta X   Delta X   Delta X     New X
                                 (Linear)    (Quad)   (Total)
    R1        2.46487  -0.00002   0.00000  -0.00002  -0.00002   2.46485
    R2        2.46033  -0.00000   0.00000  -0.00001  -0.00001   2.46031
    R3        2.50250   0.00004   0.00000   0.00005   0.00005   2.50255
    R4        2.51253  -0.00002   0.00000  -0.00005  -0.00005   2.51248
    R5        2.52550   0.00005   0.00000   0.00021   0.00021   2.52571
    R6        2.83290  -0.00002   0.00000  -0.00009  -0.00009   2.83281
    R7        2.52587  -0.00003   0.00000  -0.00016  -0.00016   2.52571
    R8        2.51836  -0.00002   0.00000  -0.00003  -0.00003   2.51834
    A1        1.95540  -0.00003   0.00000  -0.00006  -0.00006   1.95534
    A2        2.13545  -0.00002   0.00000  -0.00008  -0.00008   2.13537
    A3        2.19233   0.00004   0.00000   0.00014   0.00014   2.19248
    A4        1.88985   0.00004   0.00000   0.00010   0.00010   1.88995
    A5        1.95243   0.00001   0.00000   0.00004   0.00004   1.95247
    A6        1.88999  -0.00002   0.00000  -0.00004  -0.00004   1.88995
    A7        1.92963  -0.00009   0.00000  -0.00044  -0.00044   1.92918
    A8        1.87051   0.00002   0.00000   0.00004   0.00004   1.87055
    A9        1.92887   0.00005   0.00000   0.00031   0.00031   1.92918
   A10        2.22457   0.00005   0.00000   0.00024   0.00024   2.22481
   A11        2.07836  -0.00001   0.00000  -0.00006  -0.00006   2.07830
   A12        1.98025  -0.00004   0.00000  -0.00017  -0.00017   1.98008
    D1       -3.14112   0.00000   0.00000  -0.00047  -0.00047   3.14159
    D2        0.00014  -0.00000   0.00000  -0.00014  -0.00014   0.00000
    D3        0.00073  -0.00002   0.00000  -0.00073  -0.00073  -0.00000
    D4       -3.14119  -0.00002   0.00000  -0.00041  -0.00041  -3.14159
    D5       -0.00023  -0.00000   0.00000   0.00024   0.00024   0.00001
    D6       -3.14152  -0.00000   0.00000  -0.00007  -0.00007  -3.14159
    D7       -2.10795   0.00000   0.00000   0.00039   0.00039  -2.10756
    D8        1.03395   0.00000   0.00000   0.00008   0.00008   1.03403
    D9        2.10715   0.00001   0.00000   0.00043   0.00043   2.10758
   D10       -1.03413   0.00001   0.00000   0.00012   0.00012  -1.03402
         Item               Value     Threshold  Converged?
 Maximum Force            0.000087     0.000450     YES
 RMS     Force            0.000030     0.000300     YES
 Maximum Displacement     0.001049     0.001800     YES
 RMS     Displacement     0.000408     0.001200     YES
 Predicted change in Energy=-6.532637D-08
 Optimization completed.
    -- Stationary point found.
                           ----------------------------
                           !   Optimized Parameters   !
                           ! (Angstroms and Degrees)  !
 --------------------------                            --------------------------
 ! Name  Definition              Value          Derivative Info.                !
 --------------------------------------------------------------------------------
 ! R1    R(1,2)                  1.3044         -DE/DX =    0.0                 !
 ! R2    R(1,3)                  1.3019         -DE/DX =    0.0                 !
 ! R3    R(1,7)                  1.3243         -DE/DX =    0.0                 !
 ! R4    R(4,5)                  1.3296         -DE/DX =    0.0                 !
 ! R5    R(4,6)                  1.3364         -DE/DX =    0.0001              !
 ! R6    R(4,7)                  1.4991         -DE/DX =    0.0                 !
 ! R7    R(4,9)                  1.3366         -DE/DX =    0.0                 !
 ! R8    R(7,8)                  1.3327         -DE/DX =    0.0                 !
 ! A1    A(2,1,3)              112.0362         -DE/DX =    0.0                 !
 ! A2    A(2,1,7)              122.3522         -DE/DX =    0.0                 !
 ! A3    A(3,1,7)              125.6115         -DE/DX =    0.0                 !
 ! A4    A(5,4,6)              108.2803         -DE/DX =    0.0                 !
 ! A5    A(5,4,7)              111.8661         -DE/DX =    0.0                 !
 ! A6    A(5,4,9)              108.2887         -DE/DX =    0.0                 !
 ! A7    A(6,4,7)              110.5596         -DE/DX =   -0.0001              !
 ! A8    A(6,4,9)              107.1725         -DE/DX =    0.0                 !
 ! A9    A(7,4,9)              110.5163         -DE/DX =    0.0                 !
 ! A10   A(1,7,4)              127.4584         -DE/DX =    0.0001              !
 ! A11   A(1,7,8)              119.0813         -DE/DX =    0.0                 !
 ! A12   A(4,7,8)              113.4602         -DE/DX =    0.0                 !
 ! D1    D(2,1,7,4)            180.0268         -DE/DX =    0.0                 !
 ! D2    D(2,1,7,8)              0.0082         -DE/DX =    0.0                 !
 ! D3    D(3,1,7,4)              0.0419         -DE/DX =    0.0                 !
 ! D4    D(3,1,7,8)           -179.9767         -DE/DX =    0.0                 !
 ! D5    D(5,4,7,1)             -0.0134         -DE/DX =    0.0                 !
 ! D6    D(5,4,7,8)           -179.9957         -DE/DX =    0.0                 !
 ! D7    D(6,4,7,1)           -120.7767         -DE/DX =    0.0                 !
 ! D8    D(6,4,7,8)             59.241          -DE/DX =    0.0                 !
 ! D9    D(9,4,7,1)            120.7307         -DE/DX =    0.0                 !
 ! D10   D(9,4,7,8)            -59.2516         -DE/DX =    0.0                 !
 --------------------------------------------------------------------------------
 GradGradGradGradGradGradGradGradGradGradGradGradGradGradGradGradGradGrad


 ----------------------------------------------------------------------

 Electric dipole moment (input orientation):
 (Debye = 10**-18 statcoulomb cm , SI units = C m)
                  (au)            (Debye)         (10**-30 SI)
   Tot        0.428290D+00      0.108860D+01      0.363119D+01
   x         -0.390071D+00     -0.991461D+00     -0.330716D+01
   y          0.163811D+00      0.416365D+00      0.138885D+01
   z         -0.666537D-01     -0.169417D+00     -0.565113D+00

 Dipole polarizability, Alpha (input orientation).
 (esu units = cm**3 , SI units = C**2 m**2 J**-1)
 Alpha(0;0):
               (au)            (10**-24 esu)      (10**-40 SI)
   iso        0.405332D+02      0.600640D+01      0.668302D+01
   aniso      0.177973D+02      0.263729D+01      0.293438D+01
   xx         0.486402D+02      0.720773D+01      0.801968D+01
   yx        -0.491282D+01     -0.728004D+00     -0.810014D+00
   yy         0.407920D+02      0.604475D+01      0.672570D+01
   zx         0.356086D+01      0.527666D+00      0.587107D+00
   zy         0.936588D+00      0.138788D+00      0.154423D+00
   zz         0.321674D+02      0.476671D+01      0.530369D+01

 ----------------------------------------------------------------------

 Dipole orientation:
     6         -0.05614515          0.57347913          2.61981045
     9         -0.23443603          2.39384485          4.27210191
     9          0.15640718         -1.63004866          3.69335371
     6          0.09305983         -0.92050984         -1.92516948
     9          0.31764874         -3.25641084         -1.02743834
     9          2.08965336         -0.44163194         -3.39569422
     6         -0.09393130          0.99520200          0.15338730
     9         -0.32159660          3.36051548         -0.68064880
     9         -1.95673315         -0.83121365         -3.39839717

 Electric dipole moment (dipole orientation):
 (Debye = 10**-18 statcoulomb cm , SI units = C m)
                  (au)            (Debye)         (10**-30 SI)
   Tot        0.428290D+00      0.108860D+01      0.363119D+01
   x          0.000000D+00      0.000000D+00      0.000000D+00
   y          0.000000D+00      0.000000D+00      0.000000D+00
   z          0.428290D+00      0.108860D+01      0.363119D+01

 Dipole polarizability, Alpha (dipole orientation).
 (esu units = cm**3 , SI units = C**2 m**2 J**-1)
 Alpha(0;0):
               (au)            (10**-24 esu)      (10**-40 SI)
   iso        0.405332D+02      0.600640D+01      0.668302D+01
   aniso      0.177973D+02      0.263729D+01      0.293438D+01
   xx         0.310824D+02      0.460594D+01      0.512480D+01
   yx        -0.784372D+00     -0.116232D+00     -0.129325D+00
   yy         0.391034D+02      0.579453D+01      0.644728D+01
   zx         0.588690D-02      0.872349D-03      0.970620D-03
   zy        -0.302621D+00     -0.448439D-01     -0.498955D-01
   zz         0.514138D+02      0.761874D+01      0.847699D+01

 ----------------------------------------------------------------------
 1\1\GINC-ORANGE\Freq\UwB97XD\6-311+G(2d)\C3F6\RAPPE\07-May-2023\0\\#N 
 Geom=AllCheck Guess=TCheck SCRF=Check GenChk UwB97XD/6-311+G(2d) Freq\
 \Title Card Required\\0,1\C,-1.3624944445,0.2562322083,-0.304764868\F,
 -2.4758228328,-0.2791414539,-0.723348585\F,-1.4966619588,1.5258679504,
 -0.0496273626\C,1.0885768402,0.0506440956,0.3000050744\F,1.0620557046,
 1.3477973567,0.5906124766\F,2.0190929447,-0.1498383186,-0.6380840834\C
 ,-0.2467007484,-0.4439101402,-0.1687882588\F,-0.256028892,-1.742256524
 3,-0.469111579\F,1.478243387,-0.6157731741,1.3911681859\\Version=ES64L
 -G16RevA.03\State=1-A\HF=-713.3594541\S2=0.\S2-1=0.\S2A=0.\RMSD=4.675e
 -09\RMSF=2.858e-05\ZeroPoint=0.0346448\Thermal=0.0424709\Dipole=-0.390
 0709,0.1638108,-0.0666537\DipoleDeriv=1.6673084,-0.0632364,0.366715,-0
 .2568821,1.3971544,0.198388,0.3225631,0.2497795,0.3757922,-1.0860009,-
 0.1043951,-0.2971251,-0.3115888,-0.2783849,-0.1332822,-0.3447128,-0.07
 8216,-0.1675353,-0.3063864,0.1489194,-0.0296828,0.3855833,-1.0009906,-
 0.1116456,0.0244757,-0.1744506,-0.0998366,1.9886309,-0.2405905,0.00736
 53,0.0716786,1.5301565,-0.0320202,0.0790719,-0.1150445,1.7464917,-0.35
 92764,-0.0573581,-0.0357614,-0.0489273,-0.8493755,-0.1449211,-0.033854
 2,-0.1472541,-0.3169626,-0.8367025,0.1116137,0.307932,0.0392441,-0.284
 5652,-0.0553662,0.2782935,-0.0734729,-0.5931035,-0.3078839,0.0981351,-
 0.0295853,-0.2129817,0.8492152,0.1638893,-0.1007837,0.2464712,-0.08179
 6,-0.219162,-0.0410264,-0.0470513,0.2458328,-0.9318563,-0.1306815,0.01
 87365,-0.2068236,-0.1201962,-0.5405272,0.1479382,-0.2428063,0.088041,-
 0.4313537,0.2456394,-0.24379,0.2990108,-0.7428538\Polar=48.640183,-4.9
 128176,40.792024,3.5608641,0.9365882,32.1673853\Quadrupole=-0.2217483,
 -0.7508071,0.9725554,-0.1121346,-0.4019903,-0.4739957\PG=C01 [X(C3F6)]
 \NImag=0\\0.85700023,-0.19611945,0.72501547,0.14375154,0.08034091,0.20
 356849,-0.32284555,-0.07884017,-0.09098648,0.36839378,-0.09211346,-0.1
 1074754,-0.03875044,0.13259631,0.14589937,-0.09403434,-0.03522586,-0.0
 8153160,0.12210594,0.06333536,0.07024089,-0.09128297,0.05653840,0.0006
 1554,0.00373196,-0.04979567,-0.01281560,0.08663907,0.06598752,-0.37303
 946,-0.05764539,-0.03021837,-0.04723421,-0.02091602,-0.04296088,0.4605
 3801,0.00277155,-0.06013976,-0.05789956,-0.00832879,-0.02612381,0.0008
 2585,0.00723750,0.08895609,0.04468141,-0.04078774,0.01475214,-0.006922
 41,0.01872130,0.00666277,0.00375619,0.00302517,-0.01662925,-0.00230655
 ,0.58378916,0.00457599,0.03590040,0.00991931,0.01121671,-0.00217008,0.
 00011279,-0.00175243,-0.01572695,-0.00346715,0.02852016,0.55638361,-0.
 00924034,0.01263431,-0.00162958,0.00481296,-0.00109514,0.01135817,0.00
 110010,-0.00742930,-0.00402971,0.03111119,0.02280082,0.50412153,0.0027
 6007,0.00193744,0.00131488,-0.00157260,-0.00105704,-0.00052943,-0.0067
 5749,0.00016542,-0.00195039,-0.08628744,-0.02072568,-0.00829734,0.0782
 3844,0.00432332,-0.01304554,-0.00172064,-0.00350961,0.00027197,-0.0007
 5804,0.00126705,0.01011044,0.00248977,-0.02617407,-0.26944533,-0.05206
 818,-0.01017914,0.40039386,0.00186317,-0.00235845,-0.00055909,-0.00109
 335,-0.00010609,-0.00080750,-0.00169877,0.00220009,0.00076518,-0.00955
 228,-0.05060233,-0.08713705,-0.00259454,0.07104815,0.09471019,0.007572
 20,-0.01262721,0.00413879,-0.00698933,-0.00048841,-0.00562048,-0.00123
 604,0.00541694,0.00123001,-0.19317488,0.01007333,0.08995114,-0.0007145
 4,0.02790190,0.01980825,0.22934819,-0.00109642,-0.00315396,-0.00057823
 ,-0.00050848,0.00065581,-0.00028766,0.00021241,0.00145724,0.00043890,0
 .01213607,-0.07648323,-0.01458783,0.04127033,-0.02869293,-0.04451853,-
 0.03644665,0.08492722,-0.00070548,0.00080402,-0.00028597,0.00147751,0.
 00013467,0.00018643,0.00049884,0.00045412,0.00038280,0.08966790,-0.011
 55030,-0.14625396,0.02472262,-0.03596175,-0.01784721,-0.15787424,0.032
 34400,0.23772092,-0.42438470,0.18958466,-0.05563915,-0.05786554,0.0034
 2278,-0.01758382,0.01090965,0.00846992,0.00369940,-0.18221902,-0.03258
 083,-0.04019139,0.00898534,-0.00094563,0.00023597,-0.05274805,-0.00480
 986,0.00988326,0.79176486,0.23418420,-0.21553818,0.02463395,-0.0417753
 2,0.00218133,-0.01318602,0.02862533,-0.02161345,0.00165757,-0.05739983
 ,-0.07977607,-0.01999732,-0.02777650,-0.03261014,-0.01655266,0.0146992
 3,0.00668932,-0.00607709,-0.17678805,0.68780057,-0.04543018,0.01277239
 ,-0.06061427,-0.02794647,-0.00116920,0.00356526,0.00831272,-0.00369154
 ,0.00567835,-0.04586619,-0.01338328,-0.07458013,-0.00592853,-0.0094087
 8,0.00356457,0.03215467,0.00204590,0.00201152,0.13242647,0.07832842,0.
 19462556,0.00356277,0.03337013,0.00766946,0.00532662,0.00254488,0.0036
 9141,-0.00432500,0.00483371,-0.00295373,0.00446519,-0.02812881,-0.0051
 8833,-0.00577519,-0.00699350,-0.00370910,0.00293913,0.00017909,-0.0007
 9819,-0.07133932,0.00164673,-0.00959277,0.06374063,-0.01750599,-0.0441
 2990,-0.01558420,0.01012071,0.01042936,0.00654459,0.00730257,-0.015435
 20,-0.00410853,0.00928723,-0.03941907,-0.00650220,-0.00631946,-0.00189
 853,-0.00260719,-0.00281562,0.00443484,0.00280269,0.00950320,-0.347990
 64,-0.06953531,-0.00730519,0.42824132,-0.00399179,-0.00205647,0.001953
 24,0.00542680,0.00452687,-0.00388428,-0.00238905,-0.00476247,0.0092324
 0,0.00339006,-0.01645904,-0.00315710,-0.00355190,-0.00278356,0.0005422
 8,-0.00216425,0.00119547,0.00129621,-0.00779015,-0.07161297,-0.0523524
 3,0.00960346,0.09139634,0.04486864,0.00840569,-0.00859594,-0.00394216,
 -0.00690065,-0.00177215,0.00103014,-0.00070435,0.00493498,0.00060099,-
 0.10753174,0.02880156,-0.06405799,0.01112341,0.01430967,-0.00325936,0.
 01500331,-0.01093650,0.03312778,-0.02310323,0.02458421,-0.03812973,0.0
 0140516,-0.00226744,0.00146682,0.10230239,-0.00223571,-0.00126129,-0.0
 0061529,0.00091822,0.00071399,0.00038084,0.00056322,0.00094356,0.00029
 694,0.02884478,-0.10926328,0.06624483,0.02268463,-0.06508381,0.0434970
 2,-0.00571352,0.01016568,0.01704963,0.00414382,0.00085725,0.00404140,-
 0.00014703,0.00576781,0.00055583,-0.04905840,0.15716009,0.00501588,-0.
 00677109,-0.00300167,-0.00546813,-0.00075222,0.00004679,-0.00086128,0.
 00283442,0.00036329,-0.06327792,0.06262918,-0.19869217,-0.00318536,0.0
 2916303,0.00676863,0.01837611,0.02394797,-0.07721074,-0.02504059,0.022
 80612,-0.02189843,0.00127779,-0.00240620,0.00150105,0.07316350,-0.1314
 5121,0.29212326\\0.00001634,-0.00001884,0.00002870,-0.00001300,-0.0000
 0898,-0.00000549,0.00003024,0.00001005,-0.00000640,0.00002540,0.000014
 42,-0.00009139,0.00000460,0.00002068,-0.00001207,-0.00000464,0.0000300
 5,0.00006094,-0.00004486,0.00000469,0.00002562,-0.00000949,-0.00002031
 ,-0.00001738,-0.00000458,-0.00003177,0.00001747\\\@


 A MUSTACHE HAIR ACROSS A CHIP IS LIKE A REDWOOD
 TREE FALLING THROUGH A HOUSING PROJECT.
 - AN IBM MANAGER IN EAST FISHKILL, NEW YORK
   AS QUOTED IN "FROM SANDS TO CIRCUITS", IBM INNOVATION JANUARY 1985.
 Job cpu time:       0 days  1 hours 59 minutes 20.7 seconds.
 Elapsed time:       0 days  0 hours  2 minutes  0.8 seconds.
 File lengths (MBytes):  RWF=    119 Int=      0 D2E=      0 Chk=     12 Scr=      1
 Normal termination of Gaussian 16 at Sun May  7 21:36:15 2023.
