 Entering Gaussian System, Link 0=/applications/g16/g16/g16
 Initial command:
 /applications/g16/g16/l1.exe "/scratch/g98/Gau-78197.inp" -scrdir="/scratch/g98/"
 Entering Link 1 = /applications/g16/g16/l1.exe PID=     78198.
  
 Copyright (c) 1988,1990,1992,1993,1995,1998,2003,2009,2016,
            Gaussian, Inc.  All Rights Reserved.
  
 This is part of the Gaussian(R) 16 program.  It is based on
 the Gaussian(R) 09 system (copyright 2009, Gaussian, Inc.),
 the Gaussian(R) 03 system (copyright 2003, Gaussian, Inc.),
 the Gaussian(R) 98 system (copyright 1998, Gaussian, Inc.),
 the Gaussian(R) 94 system (copyright 1995, Gaussian, Inc.),
 the Gaussian 92(TM) system (copyright 1992, Gaussian, Inc.),
 the Gaussian 90(TM) system (copyright 1990, Gaussian, Inc.),
 the Gaussian 88(TM) system (copyright 1988, Gaussian, Inc.),
 the Gaussian 86(TM) system (copyright 1986, Carnegie Mellon
 University), and the Gaussian 82(TM) system (copyright 1983,
 Carnegie Mellon University). Gaussian is a federally registered
 trademark of Gaussian, Inc.
  
 This software contains proprietary and confidential information,
 including trade secrets, belonging to Gaussian, Inc.
  
 This software is provided under written license and may be
 used, copied, transmitted, or stored only in accord with that
 written license.
  
 The following legend is applicable only to US Government
 contracts under FAR:
  
                    RESTRICTED RIGHTS LEGEND
  
 Use, reproduction and disclosure by the US Government is
 subject to restrictions as set forth in subparagraphs (a)
 and (c) of the Commercial Computer Software - Restricted
 Rights clause in FAR 52.227-19.
  
 Gaussian, Inc.
 340 Quinnipiac St., Bldg. 40, Wallingford CT 06492
  
  
 ---------------------------------------------------------------
 Warning -- This program may not be used in any manner that
 competes with the business of Gaussian, Inc. or will provide
 assistance to any competitor of Gaussian, Inc.  The licensee
 of this program is prohibited from giving any competitor of
 Gaussian, Inc. access to this program.  By using this program,
 the user acknowledges that Gaussian, Inc. is engaged in the
 business of creating and licensing software in the field of
 computational chemistry and represents and warrants to the
 licensee that it is not a competitor of Gaussian, Inc. and that
 it will not use this program in any manner prohibited above.
 ---------------------------------------------------------------
  

 Cite this work as:
 Gaussian 16, Revision A.03,
 M. J. Frisch, G. W. Trucks, H. B. Schlegel, G. E. Scuseria, 
 M. A. Robb, J. R. Cheeseman, G. Scalmani, V. Barone, 
 G. A. Petersson, H. Nakatsuji, X. Li, M. Caricato, A. V. Marenich, 
 J. Bloino, B. G. Janesko, R. Gomperts, B. Mennucci, H. P. Hratchian, 
 J. V. Ortiz, A. F. Izmaylov, J. L. Sonnenberg, D. Williams-Young, 
 F. Ding, F. Lipparini, F. Egidi, J. Goings, B. Peng, A. Petrone, 
 T. Henderson, D. Ranasinghe, V. G. Zakrzewski, J. Gao, N. Rega, 
 G. Zheng, W. Liang, M. Hada, M. Ehara, K. Toyota, R. Fukuda, 
 J. Hasegawa, M. Ishida, T. Nakajima, Y. Honda, O. Kitao, H. Nakai, 
 T. Vreven, K. Throssell, J. A. Montgomery, Jr., J. E. Peralta, 
 F. Ogliaro, M. J. Bearpark, J. J. Heyd, E. N. Brothers, K. N. Kudin, 
 V. N. Staroverov, T. A. Keith, R. Kobayashi, J. Normand, 
 K. Raghavachari, A. P. Rendell, J. C. Burant, S. S. Iyengar, 
 J. Tomasi, M. Cossi, J. M. Millam, M. Klene, C. Adamo, R. Cammi, 
 J. W. Ochterski, R. L. Martin, K. Morokuma, O. Farkas, 
 J. B. Foresman, and D. J. Fox, Gaussian, Inc., Wallingford CT, 2016.
 
 ******************************************
 Gaussian 16:  EM64M-G16RevA.03 25-Dec-2016
                 7-Jan-2025 
 ******************************************
 %mem=24GB
 %nprocshared=8
 Will use up to    8 processors via shared memory.
 %chk=tfa.chk
 ----------------------------------------------------------------------
 # opt wb97xd/6-311+g(2d,2p) geom=connectivity freq integral=grid=super
 finegrid scf=(xqc,tight)
 ----------------------------------------------------------------------
 1/18=20,19=15,26=5,38=1,57=2/1,3;
 2/9=110,12=2,17=6,18=5,40=1/2;
 3/5=4,6=6,7=212,11=2,25=1,30=1,71=1,74=-58,75=-7/1,2,3;
 4//1;
 5/5=2,8=3,13=1,32=2,38=5/2,8;
 6/7=2,8=2,9=2,10=2,28=1/1;
 7//1,2,3,16;
 1/18=20,19=15,26=5/3(2);
 2/9=110/2;
 99//99;
 2/9=110/2;
 3/5=4,6=6,7=212,11=2,25=1,30=1,71=1,74=-58,75=-7/1,2,3;
 4/5=5,16=3,69=1/1;
 5/5=2,8=3,13=1,32=2,38=5/2,8;
 7//1,2,3,16;
 1/18=20,19=15,26=5/3(-5);
 2/9=110/2;
 6/7=2,8=2,9=2,10=2,19=2,28=1/1;
 99/9=1/99;
 -------------------
 Title Card Required
 -------------------
 Symbolic Z-matrix:
 Charge =  0 Multiplicity = 1
 C                     0.59982   0.02047  -0.0001 
 F                     1.10118  -0.5655    1.08448 
 F                     1.10268  -0.58018  -1.07577 
 C                    -0.93994  -0.13949   0.00013 
 O                    -1.45472  -1.21342  -0.00017 
 O                    -1.56354   1.03208  -0.00018 
 H                    -2.51233   0.85724   0.00006 
 F                     0.98493   1.29096  -0.00843 
 

 GradGradGradGradGradGradGradGradGradGradGradGradGradGradGradGradGradGrad
 Berny optimization.
 Initialization pass.
                           ----------------------------
                           !    Initial Parameters    !
                           ! (Angstroms and Degrees)  !
 --------------------------                            --------------------------
 ! Name  Definition              Value          Derivative Info.                !
 --------------------------------------------------------------------------------
 ! R1    R(1,2)                  1.3308         estimate D2E/DX2                !
 ! R2    R(1,3)                  1.3307         estimate D2E/DX2                !
 ! R3    R(1,4)                  1.548          estimate D2E/DX2                !
 ! R4    R(1,8)                  1.3276         estimate D2E/DX2                !
 ! R5    R(4,5)                  1.1909         estimate D2E/DX2                !
 ! R6    R(4,6)                  1.3272         estimate D2E/DX2                !
 ! R7    R(6,7)                  0.9648         estimate D2E/DX2                !
 ! A1    A(2,1,3)              108.5228         estimate D2E/DX2                !
 ! A2    A(2,1,4)              109.2139         estimate D2E/DX2                !
 ! A3    A(2,1,8)              108.4937         estimate D2E/DX2                !
 ! A4    A(3,1,4)              109.2296         estimate D2E/DX2                !
 ! A5    A(3,1,8)              108.4986         estimate D2E/DX2                !
 ! A6    A(4,1,8)              112.7934         estimate D2E/DX2                !
 ! A7    A(1,4,5)              121.5413         estimate D2E/DX2                !
 ! A8    A(1,4,6)              112.0947         estimate D2E/DX2                !
 ! A9    A(5,4,6)              126.364          estimate D2E/DX2                !
 ! A10   A(4,6,7)              107.5844         estimate D2E/DX2                !
 ! D1    D(2,1,4,5)            -59.6901         estimate D2E/DX2                !
 ! D2    D(2,1,4,6)            120.3504         estimate D2E/DX2                !
 ! D3    D(3,1,4,5)             58.856          estimate D2E/DX2                !
 ! D4    D(3,1,4,6)           -121.1034         estimate D2E/DX2                !
 ! D5    D(8,1,4,5)            179.5915         estimate D2E/DX2                !
 ! D6    D(8,1,4,6)             -0.3679         estimate D2E/DX2                !
 ! D7    D(1,4,6,7)           -179.9958         estimate D2E/DX2                !
 ! D8    D(5,4,6,7)              0.0471         estimate D2E/DX2                !
 --------------------------------------------------------------------------------
 Trust Radius=3.00D-01 FncErr=1.00D-07 GrdErr=1.00D-07 EigMax=2.50D+02 EigMin=1.00D-04
 Number of steps in this run=     35 maximum allowed number of steps=    100.
 GradGradGradGradGradGradGradGradGradGradGradGradGradGradGradGradGradGrad

                          Input orientation:                          
 ---------------------------------------------------------------------
 Center     Atomic      Atomic             Coordinates (Angstroms)
 Number     Number       Type             X           Y           Z
 ---------------------------------------------------------------------
      1          6           0        0.599822    0.020473   -0.000103
      2          9           0        1.101183   -0.565500    1.084479
      3          9           0        1.102679   -0.580176   -1.075773
      4          6           0       -0.939937   -0.139485    0.000134
      5          8           0       -1.454723   -1.213424   -0.000170
      6          8           0       -1.563540    1.032079   -0.000176
      7          1           0       -2.512328    0.857238    0.000062
      8          9           0        0.984929    1.290963   -0.008426
 ---------------------------------------------------------------------
                    Distance matrix (angstroms):
                    1          2          3          4          5
     1  C    0.000000
     2  F    1.330806   0.000000
     3  F    1.330680   2.160302   0.000000
     4  C    1.548045   2.350205   2.350333   0.000000
     5  O    2.396593   2.851127   2.845739   1.190945   0.000000
     6  O    2.388196   3.290818   3.296210   1.327194   2.248138
     7  H    3.222678   4.032072   4.036317   1.861685   2.325117
     8  F    1.327600   2.157408   2.157372   2.398200   3.496273
                    6          7          8
     6  O    0.000000
     7  H    0.964763   0.000000
     8  F    2.561598   3.524060   0.000000
 Stoichiometry    C2HF3O2
 Framework group  C1[X(C2HF3O2)]
 Deg. of freedom    18
 Full point group                 C1      NOp   1
 Largest Abelian subgroup         C1      NOp   1
 Largest concise Abelian subgroup C1      NOp   1
                         Standard orientation:                         
 ---------------------------------------------------------------------
 Center     Atomic      Atomic             Coordinates (Angstroms)
 Number     Number       Type             X           Y           Z
 ---------------------------------------------------------------------
      1          6           0        0.599822    0.020473   -0.000103
      2          9           0        1.101183   -0.565500    1.084479
      3          9           0        1.102679   -0.580176   -1.075773
      4          6           0       -0.939937   -0.139484    0.000134
      5          8           0       -1.454723   -1.213423   -0.000170
      6          8           0       -1.563540    1.032080   -0.000176
      7          1           0       -2.512328    0.857239    0.000062
      8          9           0        0.984929    1.290963   -0.008426
 ---------------------------------------------------------------------
 Rotational constants (GHZ):           3.8886441           2.4906323           2.0694364
 Standard basis: 6-311+G(2d,2p) (5D, 7F)
 There are   212 symmetry adapted cartesian basis functions of A   symmetry.
 There are   198 symmetry adapted basis functions of A   symmetry.
   198 basis functions,   305 primitive gaussians,   212 cartesian basis functions
    28 alpha electrons       28 beta electrons
       nuclear repulsion energy       337.6250041755 Hartrees.
 NAtoms=    8 NActive=    8 NUniq=    8 SFac= 1.00D+00 NAtFMM=   60 NAOKFM=F Big=F
 Integral buffers will be    131072 words long.
 Raffenetti 2 integral format.
 Two-electron integral symmetry is turned on.
 Nuclear repulsion after empirical dispersion term =      337.6232215966 Hartrees.
 One-electron integrals computed using PRISM.
 NBasis=   198 RedAO= T EigKep=  1.30D-04  NBF=   198
 NBsUse=   198 1.00D-06 EigRej= -1.00D+00 NBFU=   198
 ExpMin= 4.38D-02 ExpMax= 1.14D+04 ExpMxC= 1.72D+03 IAcc=3 IRadAn=         7 AccDes= 0.00D+00
 Harris functional with IExCor= 4639 and IRadAn=       7 diagonalized for initial guess.
 HarFok:  IExCor= 4639 AccDes= 0.00D+00 IRadAn=         7 IDoV= 1 UseB2=F ITyADJ=14
 ICtDFT=  3500011 ScaDFX=  1.000000  1.000000  1.000000  1.000000
 FoFCou: FMM=F IPFlag=           0 FMFlag=      100000 FMFlg1=           0
         NFxFlg=           0 DoJE=T BraDBF=F KetDBF=T FulRan=T
         wScrn=  0.000000 ICntrl=       500 IOpCl=  0 I1Cent=   200000004 NGrid=           0
         NMat0=    1 NMatS0=      1 NMatT0=    0 NMatD0=    1 NMtDS0=    0 NMtDT0=    0
 Petite list used in FoFCou.
 Keep R1 ints in memory in canonical form, NReq=396510994.
 Requested convergence on RMS density matrix=1.00D-08 within  32 cycles.
 Requested convergence on MAX density matrix=1.00D-06.
 Requested convergence on             energy=1.00D-06.
 No special actions if energy rises.
 SCF Done:  E(RwB97XD) =  -526.822062141     A.U. after   13 cycles
            NFock= 13  Conv=0.84D-08     -V/T= 2.0026
 QCSCF skips out because SCF is already converged.

 **********************************************************************

            Population analysis using the SCF density.

 **********************************************************************

 Orbital symmetries:
       Occupied  (A) (A) (A) (A) (A) (A) (A) (A) (A) (A) (A) (A)
                 (A) (A) (A) (A) (A) (A) (A) (A) (A) (A) (A) (A)
                 (A) (A) (A) (A)
       Virtual   (A) (A) (A) (A) (A) (A) (A) (A) (A) (A) (A) (A)
                 (A) (A) (A) (A) (A) (A) (A) (A) (A) (A) (A) (A)
                 (A) (A) (A) (A) (A) (A) (A) (A) (A) (A) (A) (A)
                 (A) (A) (A) (A) (A) (A) (A) (A) (A) (A) (A) (A)
                 (A) (A) (A) (A) (A) (A) (A) (A) (A) (A) (A) (A)
                 (A) (A) (A) (A) (A) (A) (A) (A) (A) (A) (A) (A)
                 (A) (A) (A) (A) (A) (A) (A) (A) (A) (A) (A) (A)
                 (A) (A) (A) (A) (A) (A) (A) (A) (A) (A) (A) (A)
                 (A) (A) (A) (A) (A) (A) (A) (A) (A) (A) (A) (A)
                 (A) (A) (A) (A) (A) (A) (A) (A) (A) (A) (A) (A)
                 (A) (A) (A) (A) (A) (A) (A) (A) (A) (A) (A) (A)
                 (A) (A) (A) (A) (A) (A) (A) (A) (A) (A) (A) (A)
                 (A) (A) (A) (A) (A) (A) (A) (A) (A) (A) (A) (A)
                 (A) (A) (A) (A) (A) (A) (A) (A) (A) (A) (A) (A)
                 (A) (A)
 The electronic state is 1-A.
 Alpha  occ. eigenvalues --  -24.86730 -24.86666 -24.86664 -19.34638 -19.28604
 Alpha  occ. eigenvalues --  -10.57083 -10.47007  -1.45659  -1.36382  -1.36282
 Alpha  occ. eigenvalues --   -1.26915  -1.17899  -0.88152  -0.78683  -0.72537
 Alpha  occ. eigenvalues --   -0.72052  -0.70146  -0.62571  -0.59851  -0.58622
 Alpha  occ. eigenvalues --   -0.58198  -0.57428  -0.55021  -0.54461  -0.52714
 Alpha  occ. eigenvalues --   -0.51363  -0.45664  -0.41339
 Alpha virt. eigenvalues --    0.02347   0.04971   0.09055   0.10350   0.10533
 Alpha virt. eigenvalues --    0.12734   0.13419   0.13473   0.18154   0.18809
 Alpha virt. eigenvalues --    0.21453   0.22942   0.24331   0.26358   0.27205
 Alpha virt. eigenvalues --    0.28098   0.29299   0.31044   0.32664   0.32982
 Alpha virt. eigenvalues --    0.33629   0.34097   0.35359   0.37238   0.37354
 Alpha virt. eigenvalues --    0.38058   0.40278   0.41272   0.42172   0.42585
 Alpha virt. eigenvalues --    0.44079   0.46502   0.48365   0.49971   0.52265
 Alpha virt. eigenvalues --    0.57422   0.58548   0.64713   0.65504   0.66629
 Alpha virt. eigenvalues --    0.69502   0.70643   0.77750   0.79507   0.80175
 Alpha virt. eigenvalues --    0.84603   0.88346   0.98385   0.99205   1.03247
 Alpha virt. eigenvalues --    1.07137   1.08216   1.14812   1.15683   1.16195
 Alpha virt. eigenvalues --    1.18310   1.21405   1.21781   1.24497   1.27351
 Alpha virt. eigenvalues --    1.34583   1.37390   1.40728   1.41380   1.42849
 Alpha virt. eigenvalues --    1.44999   1.46478   1.46572   1.51975   1.52288
 Alpha virt. eigenvalues --    1.55420   1.56886   1.60444   1.62150   1.65040
 Alpha virt. eigenvalues --    1.79155   1.81000   1.83185   1.93580   1.96170
 Alpha virt. eigenvalues --    2.01052   2.01805   2.04921   2.06399   2.09035
 Alpha virt. eigenvalues --    2.12949   2.15411   2.22239   2.22305   2.22596
 Alpha virt. eigenvalues --    2.26806   2.36748   2.44922   2.53099   2.56549
 Alpha virt. eigenvalues --    2.59776   2.67081   2.67623   2.72097   2.76600
 Alpha virt. eigenvalues --    2.78511   2.79677   2.95935   3.15208   3.19534
 Alpha virt. eigenvalues --    3.27357   3.39218   3.43673   3.46489   3.50960
 Alpha virt. eigenvalues --    3.51448   3.54654   3.54900   3.61002   3.63049
 Alpha virt. eigenvalues --    3.76670   3.84341   3.98033   4.08869   4.24807
 Alpha virt. eigenvalues --    4.27895   4.31130   4.34806   5.05221   5.12250
 Alpha virt. eigenvalues --    5.29055   5.55974   5.96684   6.30213   6.38584
 Alpha virt. eigenvalues --    6.43392   6.44446   6.44894   6.47074   6.48843
 Alpha virt. eigenvalues --    6.54350   6.82236   6.83341   6.89759   6.91739
 Alpha virt. eigenvalues --    6.92298   7.04550   7.14129   7.16342   7.22614
 Alpha virt. eigenvalues --    7.27396   7.42594   7.52031   9.08259   9.10291
 Alpha virt. eigenvalues --    9.11840   9.21656   9.22536   9.23764   9.25471
 Alpha virt. eigenvalues --    9.33523   9.37933   9.50502   9.68017   9.70302
 Alpha virt. eigenvalues --    9.76660   9.86041   9.90860  24.00744  24.19246
 Alpha virt. eigenvalues --   50.03460  50.12664  66.92782  66.94774  66.99079
          Condensed to atoms (all electrons):
               1          2          3          4          5          6
     1  C    4.280408   0.234632   0.234826   0.316486  -0.055382  -0.089697
     2  F    0.234632   9.080055  -0.001256  -0.070077   0.011992   0.001755
     3  F    0.234826  -0.001256   9.080243  -0.070117   0.012162   0.001650
     4  C    0.316486  -0.070077  -0.070117   4.680551   0.425390   0.332097
     5  O   -0.055382   0.011992   0.012162   0.425390   8.073222  -0.087884
     6  O   -0.089697   0.001755   0.001650   0.332097  -0.087884   7.906007
     7  H    0.014471  -0.000456  -0.000457  -0.028866   0.019738   0.266748
     8  F    0.245430   0.004702   0.004681  -0.049400   0.005703   0.002885
               7          8
     1  C    0.014471   0.245430
     2  F   -0.000456   0.004702
     3  F   -0.000457   0.004681
     4  C   -0.028866  -0.049400
     5  O    0.019738   0.005703
     6  O    0.266748   0.002885
     7  H    0.448350   0.000753
     8  F    0.000753   9.086148
 Mulliken charges:
               1
     1  C    0.818827
     2  F   -0.261347
     3  F   -0.261731
     4  C    0.463936
     5  O   -0.404942
     6  O   -0.333561
     7  H    0.279719
     8  F   -0.300901
 Sum of Mulliken charges =  -0.00000
 Mulliken charges with hydrogens summed into heavy atoms:
               1
     1  C    0.818827
     2  F   -0.261347
     3  F   -0.261731
     4  C    0.463936
     5  O   -0.404942
     6  O   -0.053842
     8  F   -0.300901
 Electronic spatial extent (au):  <R**2>=            595.8536
 Charge=             -0.0000 electrons
 Dipole moment (field-independent basis, Debye):
    X=             -1.8627    Y=              1.5211    Z=             -0.0003  Tot=              2.4048
 Quadrupole moment (field-independent basis, Debye-Ang):
   XX=            -31.8879   YY=            -41.3412   ZZ=            -36.9929
   XY=             -4.0397   XZ=             -0.0016   YZ=              0.0005
 Traceless Quadrupole moment (field-independent basis, Debye-Ang):
   XX=              4.8528   YY=             -4.6005   ZZ=             -0.2522
   XY=             -4.0397   XZ=             -0.0016   YZ=              0.0005
 Octapole moment (field-independent basis, Debye-Ang**2):
  XXX=            -10.2815  YYY=              2.6612  ZZZ=             -0.0211  XYY=              6.5977
  XXY=             11.4799  XXZ=              0.0024  XZZ=              1.8621  YZZ=              0.9854
  YYZ=              0.0174  XYZ=             -0.0012
 Hexadecapole moment (field-independent basis, Debye-Ang**3):
 XXXX=           -268.4009 YYYY=           -189.4487 ZZZZ=            -95.4624 XXXY=            -31.6476
 XXXZ=             -0.0042 YYYX=             -6.7781 YYYZ=              0.0019 ZZZX=             -0.0111
 ZZZY=              0.0007 XXYY=            -88.8258 XXZZ=            -72.4396 YYZZ=            -46.6296
 XXYZ=              0.0001 YYXZ=              0.0077 ZZXY=              0.1420
 N-N= 3.376232215966D+02 E-N=-1.924128369383D+03  KE= 5.254422201674D+02
 Calling FoFJK, ICntrl=      2127 FMM=F ISym2X=0 I1Cent= 0 IOpClX= 0 NMat=1 NMatS=1 NMatT=0.
 ***** Axes restored to original set *****
 -------------------------------------------------------------------
 Center     Atomic                   Forces (Hartrees/Bohr)
 Number     Number              X              Y              Z
 -------------------------------------------------------------------
      1        6           0.000020900    0.000011855    0.000009076
      2        9           0.000020144   -0.000003219    0.000038297
      3        9          -0.000010878    0.000020251    0.000009067
      4        6          -0.000032175   -0.000043788   -0.000172668
      5        8           0.000011522    0.000046489    0.000062969
      6        8          -0.000005294   -0.000002462    0.000052602
      7        1          -0.000031743   -0.000003756    0.000003882
      8        9           0.000027524   -0.000025370   -0.000003225
 -------------------------------------------------------------------
 Cartesian Forces:  Max     0.000172668 RMS     0.000044454

 GradGradGradGradGradGradGradGradGradGradGradGradGradGradGradGradGradGrad
 Berny optimization.
 FormGI is forming the generalized inverse of G from B-inverse, IUseBI=4.
 Internal  Forces:  Max     0.000057770 RMS     0.000032383
 Search for a local minimum.
 Step number   1 out of a maximum of   35
 All quantities printed in internal units (Hartrees-Bohrs-Radians)
 Mixed Optimization -- En-DIIS/RFO-DIIS
 Second derivative matrix not updated -- first step.
 ITU=  0
     Eigenvalues ---    0.00230   0.00889   0.02655   0.10578   0.11274
     Eigenvalues ---    0.16000   0.25000   0.25000   0.25000   0.25000
     Eigenvalues ---    0.25000   0.27818   0.54461   0.59316   0.59345
     Eigenvalues ---    0.60076   0.60173   1.09508
 RFO step:  Lambda=-9.77787114D-07 EMin= 2.30000000D-03
 Linear search not attempted -- first point.
 Iteration  1 RMS(Cart)=  0.00181861 RMS(Int)=  0.00000395
 Iteration  2 RMS(Cart)=  0.00000413 RMS(Int)=  0.00000282
 Iteration  3 RMS(Cart)=  0.00000000 RMS(Int)=  0.00000282
 Variable       Old X    -DE/DX   Delta X   Delta X   Delta X     New X
                                 (Linear)    (Quad)   (Total)
    R1        2.51486   0.00004   0.00000   0.00007   0.00007   2.51493
    R2        2.51462  -0.00002   0.00000  -0.00003  -0.00003   2.51459
    R3        2.92538   0.00006   0.00000   0.00021   0.00021   2.92559
    R4        2.50880  -0.00002   0.00000  -0.00003  -0.00003   2.50877
    R5        2.25056  -0.00005   0.00000  -0.00004  -0.00004   2.25052
    R6        2.50803   0.00001   0.00000   0.00002   0.00002   2.50805
    R7        1.82314   0.00003   0.00000   0.00006   0.00006   1.82320
    A1        1.89408   0.00001   0.00000   0.00005   0.00005   1.89413
    A2        1.90614   0.00001   0.00000   0.00003   0.00003   1.90618
    A3        1.89357  -0.00003   0.00000  -0.00011  -0.00011   1.89346
    A4        1.90642  -0.00002   0.00000  -0.00007  -0.00007   1.90635
    A5        1.89366  -0.00003   0.00000  -0.00013  -0.00013   1.89353
    A6        1.96862   0.00006   0.00000   0.00021   0.00021   1.96883
    A7        2.12130  -0.00001   0.00000  -0.00006  -0.00006   2.12123
    A8        1.95642   0.00005   0.00000   0.00020   0.00019   1.95662
    A9        2.20547  -0.00004   0.00000  -0.00014  -0.00015   2.20532
   A10        1.87770   0.00000   0.00000   0.00002   0.00002   1.87772
    D1       -1.04179   0.00003   0.00000   0.00278   0.00278  -1.03901
    D2        2.10051  -0.00003   0.00000  -0.00428  -0.00428   2.09623
    D3        1.02723   0.00003   0.00000   0.00282   0.00282   1.03005
    D4       -2.11365  -0.00003   0.00000  -0.00424  -0.00424  -2.11789
    D5        3.13446   0.00003   0.00000   0.00275   0.00275   3.13721
    D6       -0.00642  -0.00004   0.00000  -0.00431  -0.00431  -0.01073
    D7       -3.14152   0.00004   0.00000   0.00386   0.00386  -3.13766
    D8        0.00082  -0.00003   0.00000  -0.00361  -0.00361  -0.00279
         Item               Value     Threshold  Converged?
 Maximum Force            0.000058     0.000450     YES
 RMS     Force            0.000032     0.000300     YES
 Maximum Displacement     0.005453     0.001800     NO 
 RMS     Displacement     0.001818     0.001200     NO 
 Predicted change in Energy=-4.889132D-07
 GradGradGradGradGradGradGradGradGradGradGradGradGradGradGradGradGradGrad

                          Input orientation:                          
 ---------------------------------------------------------------------
 Center     Atomic      Atomic             Coordinates (Angstroms)
 Number     Number       Type             X           Y           Z
 ---------------------------------------------------------------------
      1          6           0        0.599894    0.020497   -0.000619
      2          9           0        1.099538   -0.564782    1.085173
      3          9           0        1.104358   -0.580861   -1.075117
      4          6           0       -0.939980   -0.139401   -0.002752
      5          8           0       -1.454742   -1.213324   -0.000349
      6          8           0       -1.563766    1.032073    0.000418
      7          1           0       -2.512559    0.857099    0.002473
      8          9           0        0.985343    1.290867   -0.009200
 ---------------------------------------------------------------------
                    Distance matrix (angstroms):
                    1          2          3          4          5
     1  C    0.000000
     2  F    1.330842   0.000000
     3  F    1.330662   2.160355   0.000000
     4  C    1.548155   2.350354   2.350356   0.000000
     5  O    2.396632   2.850142   2.846775   1.190922   0.000000
     6  O    2.388454   3.289351   3.298063   1.327204   2.248043
     7  H    3.222929   4.030041   4.038690   1.861731   2.325002
     8  F    1.327586   2.157342   2.157246   2.398453   3.496436
                    6          7          8
     6  O    0.000000
     7  H    0.964794   0.000000
     8  F    2.562230   3.524714   0.000000
 Stoichiometry    C2HF3O2
 Framework group  C1[X(C2HF3O2)]
 Deg. of freedom    18
 Full point group                 C1      NOp   1
 Largest Abelian subgroup         C1      NOp   1
 Largest concise Abelian subgroup C1      NOp   1
                         Standard orientation:                         
 ---------------------------------------------------------------------
 Center     Atomic      Atomic             Coordinates (Angstroms)
 Number     Number       Type             X           Y           Z
 ---------------------------------------------------------------------
      1          6           0        0.599859    0.020471   -0.000230
      2          9           0        1.099076   -0.564367    1.085997
      3          9           0        1.104718   -0.581347   -1.074284
      4          6           0       -0.940018   -0.139393   -0.002882
      5          8           0       -1.454806   -1.213303   -0.000228
      6          8           0       -1.563778    1.032097   -0.000438
      7          1           0       -2.512576    0.857146    0.001328
      8          9           0        0.985340    1.290828   -0.009193
 ---------------------------------------------------------------------
 Rotational constants (GHZ):           3.8888692           2.4902119           2.0692462
 Standard basis: 6-311+G(2d,2p) (5D, 7F)
 There are   212 symmetry adapted cartesian basis functions of A   symmetry.
 There are   198 symmetry adapted basis functions of A   symmetry.
   198 basis functions,   305 primitive gaussians,   212 cartesian basis functions
    28 alpha electrons       28 beta electrons
       nuclear repulsion energy       337.6165178568 Hartrees.
 NAtoms=    8 NActive=    8 NUniq=    8 SFac= 1.00D+00 NAtFMM=   60 NAOKFM=F Big=F
 Integral buffers will be    131072 words long.
 Raffenetti 2 integral format.
 Two-electron integral symmetry is turned on.
 Nuclear repulsion after empirical dispersion term =      337.6147352720 Hartrees.
 One-electron integrals computed using PRISM.
 NBasis=   198 RedAO= T EigKep=  1.30D-04  NBF=   198
 NBsUse=   198 1.00D-06 EigRej= -1.00D+00 NBFU=   198
 Initial guess from the checkpoint file:  "tfa.chk"
 B after Tr=    -0.000000    0.000000   -0.000000
         Rot=    1.000000    0.000355    0.000396    0.000029 Ang=   0.06 deg.
 Keep R1 ints in memory in canonical form, NReq=396510994.
 Requested convergence on RMS density matrix=1.00D-08 within  32 cycles.
 Requested convergence on MAX density matrix=1.00D-06.
 Requested convergence on             energy=1.00D-06.
 No special actions if energy rises.
 SCF Done:  E(RwB97XD) =  -526.822060639     A.U. after    8 cycles
            NFock=  8  Conv=0.78D-08     -V/T= 2.0026
 QCSCF skips out because SCF is already converged.
 Calling FoFJK, ICntrl=      2127 FMM=F ISym2X=0 I1Cent= 0 IOpClX= 0 NMat=1 NMatS=1 NMatT=0.
 ***** Axes restored to original set *****
 -------------------------------------------------------------------
 Center     Atomic                   Forces (Hartrees/Bohr)
 Number     Number              X              Y              Z
 -------------------------------------------------------------------
      1        6           0.000016156    0.000017114   -0.000246314
      2        9          -0.000059627    0.000018725   -0.000009402
      3        9           0.000039475   -0.000033780   -0.000016372
      4        6          -0.000014749   -0.000008336    0.000805365
      5        8           0.000012832   -0.000002456   -0.000314523
      6        8           0.000014282    0.000012343   -0.000230146
      7        1           0.000003131   -0.000004881    0.000000748
      8        9          -0.000011500    0.000001271    0.000010644
 -------------------------------------------------------------------
 Cartesian Forces:  Max     0.000805365 RMS     0.000190371

 GradGradGradGradGradGradGradGradGradGradGradGradGradGradGradGradGradGrad
 Berny optimization.
 Using GEDIIS/GDIIS optimizer.
 FormGI is forming the generalized inverse of G from B-inverse, IUseBI=4.
 Internal  Forces:  Max     0.000167518 RMS     0.000084841
 Search for a local minimum.
 Step number   2 out of a maximum of   35
 All quantities printed in internal units (Hartrees-Bohrs-Radians)
 Mixed Optimization -- En-DIIS/RFO-DIIS
 Swapping is turned off.
 Update second derivatives using D2CorX and points    1    2
 DE=  1.50D-06 DEPred=-4.89D-07 R=-3.07D+00
 Trust test=-3.07D+00 RLast= 1.03D-02 DXMaxT set to 1.50D-01
 ITU= -1  0
     Eigenvalues ---    0.00223   0.02653   0.04673   0.10765   0.11274
     Eigenvalues ---    0.16003   0.24318   0.25000   0.25000   0.25000
     Eigenvalues ---    0.25421   0.27632   0.54381   0.59274   0.59392
     Eigenvalues ---    0.60055   0.60166   1.09323
 En-DIIS/RFO-DIIS/Sim-DIIS IScMMF=       -3 using points:     2    1
 RFO step:  Lambda=-3.26768391D-06.
 DidBck=T Rises=T En-DIIS coefs:    0.34857    0.65143
 Iteration  1 RMS(Cart)=  0.00115852 RMS(Int)=  0.00000199
 Iteration  2 RMS(Cart)=  0.00000255 RMS(Int)=  0.00000007
 Iteration  3 RMS(Cart)=  0.00000000 RMS(Int)=  0.00000007
 Variable       Old X    -DE/DX   Delta X   Delta X   Delta X     New X
                                 (Linear)    (Quad)   (Total)
    R1        2.51493  -0.00004  -0.00004   0.00004  -0.00001   2.51492
    R2        2.51459   0.00004   0.00002  -0.00001   0.00001   2.51460
    R3        2.92559  -0.00002  -0.00014   0.00014   0.00000   2.92559
    R4        2.50877  -0.00000   0.00002  -0.00002  -0.00000   2.50877
    R5        2.25052  -0.00000   0.00003  -0.00003  -0.00000   2.25051
    R6        2.50805  -0.00000  -0.00001   0.00001   0.00000   2.50805
    R7        1.82320  -0.00000  -0.00004   0.00004   0.00000   1.82320
    A1        1.89413   0.00001  -0.00003   0.00004   0.00001   1.89414
    A2        1.90618  -0.00010  -0.00002  -0.00007  -0.00009   1.90608
    A3        1.89346   0.00003   0.00007  -0.00009  -0.00002   1.89345
    A4        1.90635   0.00007   0.00004   0.00002   0.00006   1.90641
    A5        1.89353   0.00001   0.00008  -0.00006   0.00003   1.89356
    A6        1.96883  -0.00001  -0.00014   0.00015   0.00001   1.96884
    A7        2.12123  -0.00001   0.00004  -0.00004  -0.00000   2.12123
    A8        1.95662  -0.00001  -0.00013   0.00014   0.00001   1.95663
    A9        2.20532   0.00002   0.00010  -0.00009   0.00001   2.20533
   A10        1.87772  -0.00001  -0.00001   0.00000  -0.00001   1.87771
    D1       -1.03901  -0.00016  -0.00181  -0.00207  -0.00388  -1.04289
    D2        2.09623   0.00011   0.00279  -0.00108   0.00171   2.09794
    D3        1.03005  -0.00017  -0.00184  -0.00205  -0.00389   1.02616
    D4       -2.11789   0.00011   0.00276  -0.00106   0.00170  -2.11619
    D5        3.13721  -0.00012  -0.00179  -0.00201  -0.00380   3.13341
    D6       -0.01073   0.00016   0.00281  -0.00101   0.00179  -0.00894
    D7       -3.13766  -0.00015  -0.00252  -0.00043  -0.00294  -3.14060
    D8       -0.00279   0.00015   0.00235   0.00062   0.00297   0.00019
         Item               Value     Threshold  Converged?
 Maximum Force            0.000168     0.000450     YES
 RMS     Force            0.000085     0.000300     YES
 Maximum Displacement     0.003778     0.001800     NO 
 RMS     Displacement     0.001159     0.001200     YES
 Predicted change in Energy=-1.633916D-06
 GradGradGradGradGradGradGradGradGradGradGradGradGradGradGradGradGradGrad

                          Input orientation:                          
 ---------------------------------------------------------------------
 Center     Atomic      Atomic             Coordinates (Angstroms)
 Number     Number       Type             X           Y           Z
 ---------------------------------------------------------------------
      1          6           0        0.599899    0.020502   -0.000273
      2          9           0        1.100573   -0.564618    1.085126
      3          9           0        1.103312   -0.581030   -1.075175
      4          6           0       -0.939978   -0.139397   -0.000753
      5          8           0       -1.454731   -1.213324   -0.001560
      6          8           0       -1.563772    1.032077    0.000768
      7          1           0       -2.512566    0.857091    0.001277
      8          9           0        0.985349    1.290867   -0.009383
 ---------------------------------------------------------------------
                    Distance matrix (angstroms):
                    1          2          3          4          5
     1  C    0.000000
     2  F    1.330838   0.000000
     3  F    1.330668   2.160365   0.000000
     4  C    1.548157   2.350275   2.350416   0.000000
     5  O    2.396630   2.851541   2.845352   1.190920   0.000000
     6  O    2.388463   3.289984   3.297438   1.327204   2.248048
     7  H    3.222937   4.031223   4.037513   1.861726   2.325003
     8  F    1.327584   2.157324   2.157272   2.398460   3.496430
                    6          7          8
     6  O    0.000000
     7  H    0.964796   0.000000
     8  F    2.562243   3.524724   0.000000
 Stoichiometry    C2HF3O2
 Framework group  C1[X(C2HF3O2)]
 Deg. of freedom    18
 Full point group                 C1      NOp   1
 Largest Abelian subgroup         C1      NOp   1
 Largest concise Abelian subgroup C1      NOp   1
                         Standard orientation:                         
 ---------------------------------------------------------------------
 Center     Atomic      Atomic             Coordinates (Angstroms)
 Number     Number       Type             X           Y           Z
 ---------------------------------------------------------------------
      1          6           0        0.599864    0.020475   -0.000160
      2          9           0        1.100477   -0.563502    1.085882
      3          9           0        1.103307   -0.582213   -1.074400
      4          6           0       -0.940018   -0.139388   -0.000535
      5          8           0       -1.454797   -1.213303   -0.000222
      6          8           0       -1.563783    1.032102   -0.000288
      7          1           0       -2.512582    0.857139    0.000367
      8          9           0        0.985344    1.290819   -0.010606
 ---------------------------------------------------------------------
 Rotational constants (GHZ):           3.8888472           2.4902142           2.0692484
 Standard basis: 6-311+G(2d,2p) (5D, 7F)
 There are   212 symmetry adapted cartesian basis functions of A   symmetry.
 There are   198 symmetry adapted basis functions of A   symmetry.
   198 basis functions,   305 primitive gaussians,   212 cartesian basis functions
    28 alpha electrons       28 beta electrons
       nuclear repulsion energy       337.6163649915 Hartrees.
 NAtoms=    8 NActive=    8 NUniq=    8 SFac= 1.00D+00 NAtFMM=   60 NAOKFM=F Big=F
 Integral buffers will be    131072 words long.
 Raffenetti 2 integral format.
 Two-electron integral symmetry is turned on.
 Nuclear repulsion after empirical dispersion term =      337.6145824104 Hartrees.
 One-electron integrals computed using PRISM.
 NBasis=   198 RedAO= T EigKep=  1.30D-04  NBF=   198
 NBsUse=   198 1.00D-06 EigRej= -1.00D+00 NBFU=   198
 Initial guess from the checkpoint file:  "tfa.chk"
 B after Tr=     0.000000    0.000000   -0.000000
         Rot=    1.000000    0.000267   -0.000268    0.000002 Ang=   0.04 deg.
 Keep R1 ints in memory in canonical form, NReq=396510994.
 Requested convergence on RMS density matrix=1.00D-08 within  32 cycles.
 Requested convergence on MAX density matrix=1.00D-06.
 Requested convergence on             energy=1.00D-06.
 No special actions if energy rises.
 SCF Done:  E(RwB97XD) =  -526.822062292     A.U. after    8 cycles
            NFock=  8  Conv=0.93D-08     -V/T= 2.0026
 QCSCF skips out because SCF is already converged.
 Calling FoFJK, ICntrl=      2127 FMM=F ISym2X=0 I1Cent= 0 IOpClX= 0 NMat=1 NMatS=1 NMatT=0.
 ***** Axes restored to original set *****
 -------------------------------------------------------------------
 Center     Atomic                   Forces (Hartrees/Bohr)
 Number     Number              X              Y              Z
 -------------------------------------------------------------------
      1        6           0.000009998    0.000014790   -0.000045593
      2        9          -0.000002824   -0.000012827    0.000023183
      3        9          -0.000012217    0.000000139    0.000018790
      4        6          -0.000011105   -0.000004974    0.000011178
      5        8           0.000010467   -0.000003022   -0.000009357
      6        8           0.000012453    0.000009085    0.000000016
      7        1           0.000004416   -0.000003523    0.000003962
      8        9          -0.000011186    0.000000334   -0.000002180
 -------------------------------------------------------------------
 Cartesian Forces:  Max     0.000045593 RMS     0.000013699

 GradGradGradGradGradGradGradGradGradGradGradGradGradGradGradGradGradGrad
 Berny optimization.
 Using GEDIIS/GDIIS optimizer.
 FormGI is forming the generalized inverse of G from B-inverse, IUseBI=4.
 Internal  Forces:  Max     0.000023481 RMS     0.000011245
 Search for a local minimum.
 Step number   3 out of a maximum of   35
 All quantities printed in internal units (Hartrees-Bohrs-Radians)
 Mixed Optimization -- En-DIIS/RFO-DIIS
 Swapping is turned off.
 Update second derivatives using D2CorX and points    1    2    3
 DE= -1.65D-06 DEPred=-1.63D-06 R= 1.01D+00
 TightC=F SS=  1.41D+00  RLast= 8.44D-03 DXNew= 2.5227D-01 2.5312D-02
 Trust test= 1.01D+00 RLast= 8.44D-03 DXMaxT set to 1.50D-01
 ITU=  1 -1  0
     Eigenvalues ---    0.00146   0.02637   0.04716   0.10704   0.11292
     Eigenvalues ---    0.16006   0.24498   0.25000   0.25000   0.25240
     Eigenvalues ---    0.26489   0.29176   0.54499   0.58861   0.59410
     Eigenvalues ---    0.60077   0.60224   1.09388
 En-DIIS/RFO-DIIS/Sim-DIIS IScMMF=       -3 using points:     3    2    1
 RFO step:  Lambda=-9.11679795D-08.
 DIIS inversion failure, remove point   3.
 RFO-DIIS uses    2 points instead of    3
 DidBck=F Rises=F RFO-DIIS coefs:    1.24247   -0.24247    0.00000
 Iteration  1 RMS(Cart)=  0.00162882 RMS(Int)=  0.00000123
 Iteration  2 RMS(Cart)=  0.00000140 RMS(Int)=  0.00000043
 Iteration  3 RMS(Cart)=  0.00000000 RMS(Int)=  0.00000043
 Variable       Old X    -DE/DX   Delta X   Delta X   Delta X     New X
                                 (Linear)    (Quad)   (Total)
    R1        2.51492   0.00002  -0.00000   0.00007   0.00007   2.51499
    R2        2.51460  -0.00002   0.00000  -0.00005  -0.00005   2.51455
    R3        2.92559  -0.00002   0.00000   0.00000   0.00001   2.92560
    R4        2.50877  -0.00000  -0.00000  -0.00002  -0.00002   2.50875
    R5        2.25051  -0.00000  -0.00000  -0.00002  -0.00002   2.25049
    R6        2.50805  -0.00000   0.00000   0.00000   0.00000   2.50805
    R7        1.82320  -0.00000   0.00000   0.00001   0.00001   1.82321
    A1        1.89414   0.00001   0.00000   0.00004   0.00004   1.89418
    A2        1.90608  -0.00002  -0.00002  -0.00011  -0.00013   1.90595
    A3        1.89345   0.00002  -0.00000   0.00002   0.00002   1.89347
    A4        1.90641  -0.00000   0.00002  -0.00002  -0.00001   1.90640
    A5        1.89356   0.00001   0.00001   0.00005   0.00006   1.89361
    A6        1.96884  -0.00001   0.00000   0.00002   0.00003   1.96887
    A7        2.12123  -0.00000  -0.00000  -0.00004  -0.00004   2.12119
    A8        1.95663  -0.00002   0.00000  -0.00001  -0.00000   1.95662
    A9        2.20533   0.00002   0.00000   0.00005   0.00005   2.20538
   A10        1.87771  -0.00001  -0.00000  -0.00005  -0.00006   1.87766
    D1       -1.04289  -0.00000  -0.00094  -0.00201  -0.00295  -1.04584
    D2        2.09794  -0.00000   0.00041  -0.00354  -0.00313   2.09481
    D3        1.02616  -0.00001  -0.00094  -0.00204  -0.00298   1.02318
    D4       -2.11619  -0.00001   0.00041  -0.00357  -0.00316  -2.11935
    D5        3.13341  -0.00000  -0.00092  -0.00198  -0.00290   3.13051
    D6       -0.00894  -0.00000   0.00043  -0.00351  -0.00308  -0.01202
    D7       -3.14060   0.00000  -0.00071   0.00102   0.00030  -3.14030
    D8        0.00019   0.00000   0.00072  -0.00061   0.00011   0.00030
         Item               Value     Threshold  Converged?
 Maximum Force            0.000023     0.000450     YES
 RMS     Force            0.000011     0.000300     YES
 Maximum Displacement     0.004677     0.001800     NO 
 RMS     Displacement     0.001629     0.001200     NO 
 Predicted change in Energy=-4.558426D-08
 GradGradGradGradGradGradGradGradGradGradGradGradGradGradGradGradGradGrad

                          Input orientation:                          
 ---------------------------------------------------------------------
 Center     Atomic      Atomic             Coordinates (Angstroms)
 Number     Number       Type             X           Y           Z
 ---------------------------------------------------------------------
      1          6           0        0.599910    0.020528   -0.000394
      2          9           0        1.099961   -0.563296    1.086033
      3          9           0        1.103779   -0.582368   -1.074286
      4          6           0       -0.939969   -0.139378   -0.001349
      5          8           0       -1.454664   -1.213320   -0.004035
      6          8           0       -1.563764    1.032091    0.002283
      7          1           0       -2.512556    0.857047    0.002634
      8          9           0        0.985388    1.290864   -0.010860
 ---------------------------------------------------------------------
                    Distance matrix (angstroms):
                    1          2          3          4          5
     1  C    0.000000
     2  F    1.330874   0.000000
     3  F    1.330643   2.160407   0.000000
     4  C    1.548160   2.350197   2.350391   0.000000
     5  O    2.396595   2.852523   2.844146   1.190910   0.000000
     6  O    2.388463   3.288648   3.298676   1.327205   2.248068
     7  H    3.222921   4.030063   4.038508   1.861695   2.324994
     8  F    1.327576   2.157362   2.157288   2.398476   3.496404
                    6          7          8
     6  O    0.000000
     7  H    0.964803   0.000000
     8  F    2.562287   3.524769   0.000000
 Stoichiometry    C2HF3O2
 Framework group  C1[X(C2HF3O2)]
 Deg. of freedom    18
 Full point group                 C1      NOp   1
 Largest Abelian subgroup         C1      NOp   1
 Largest concise Abelian subgroup C1      NOp   1
                         Standard orientation:                         
 ---------------------------------------------------------------------
 Center     Atomic      Atomic             Coordinates (Angstroms)
 Number     Number       Type             X           Y           Z
 ---------------------------------------------------------------------
      1          6           0        0.599878    0.020494   -0.000216
      2          9           0        1.099932   -0.560244    1.087863
      3          9           0        1.103710   -0.585477   -1.072393
      4          6           0       -0.940006   -0.139370   -0.000688
      5          8           0       -1.454732   -1.213300   -0.000303
      6          8           0       -1.563767    1.032123   -0.000385
      7          1           0       -2.512563    0.857108    0.000481
      8          9           0        0.985393    1.290784   -0.014310
 ---------------------------------------------------------------------
 Rotational constants (GHZ):           3.8887492           2.4902911           2.0693030
 Standard basis: 6-311+G(2d,2p) (5D, 7F)
 There are   212 symmetry adapted cartesian basis functions of A   symmetry.
 There are   198 symmetry adapted basis functions of A   symmetry.
   198 basis functions,   305 primitive gaussians,   212 cartesian basis functions
    28 alpha electrons       28 beta electrons
       nuclear repulsion energy       337.6173908218 Hartrees.
 NAtoms=    8 NActive=    8 NUniq=    8 SFac= 1.00D+00 NAtFMM=   60 NAOKFM=F Big=F
 Integral buffers will be    131072 words long.
 Raffenetti 2 integral format.
 Two-electron integral symmetry is turned on.
 Nuclear repulsion after empirical dispersion term =      337.6156082543 Hartrees.
 One-electron integrals computed using PRISM.
 NBasis=   198 RedAO= T EigKep=  1.30D-04  NBF=   198
 NBsUse=   198 1.00D-06 EigRej= -1.00D+00 NBFU=   198
 Initial guess from the checkpoint file:  "tfa.chk"
 B after Tr=     0.000000    0.000000    0.000000
         Rot=    0.999999    0.001005    0.000091    0.000006 Ang=   0.12 deg.
 Keep R1 ints in memory in canonical form, NReq=396510994.
 Requested convergence on RMS density matrix=1.00D-08 within  32 cycles.
 Requested convergence on MAX density matrix=1.00D-06.
 Requested convergence on             energy=1.00D-06.
 No special actions if energy rises.
 SCF Done:  E(RwB97XD) =  -526.822062396     A.U. after    8 cycles
            NFock=  8  Conv=0.80D-08     -V/T= 2.0026
 QCSCF skips out because SCF is already converged.
 Calling FoFJK, ICntrl=      2127 FMM=F ISym2X=0 I1Cent= 0 IOpClX= 0 NMat=1 NMatS=1 NMatT=0.
 ***** Axes restored to original set *****
 -------------------------------------------------------------------
 Center     Atomic                   Forces (Hartrees/Bohr)
 Number     Number              X              Y              Z
 -------------------------------------------------------------------
      1        6          -0.000016406    0.000000945   -0.000057119
      2        9           0.000011758   -0.000009111    0.000022164
      3        9          -0.000002392    0.000008277    0.000034009
      4        6           0.000013697    0.000010942    0.000002954
      5        8          -0.000006519   -0.000011356   -0.000008038
      6        8          -0.000003432   -0.000001499    0.000003335
      7        1           0.000008226    0.000003852    0.000005370
      8        9          -0.000004931   -0.000002050   -0.000002675
 -------------------------------------------------------------------
 Cartesian Forces:  Max     0.000057119 RMS     0.000016073

 GradGradGradGradGradGradGradGradGradGradGradGradGradGradGradGradGradGrad
 Berny optimization.
 Using GEDIIS/GDIIS optimizer.
 FormGI is forming the generalized inverse of G from B-inverse, IUseBI=4.
 Internal  Forces:  Max     0.000032134 RMS     0.000011436
 Search for a local minimum.
 Step number   4 out of a maximum of   35
 All quantities printed in internal units (Hartrees-Bohrs-Radians)
 Mixed Optimization -- En-DIIS/RFO-DIIS
 Swapping is turned off.
 Update second derivatives using D2CorX and points    1    2    3    4
 DE= -1.04D-07 DEPred=-4.56D-08 R= 2.29D+00
 Trust test= 2.29D+00 RLast= 7.44D-03 DXMaxT set to 1.50D-01
 ITU=  0  1 -1  0
     Eigenvalues ---   -0.00086   0.02595   0.04503   0.08599   0.10658
     Eigenvalues ---    0.11920   0.17131   0.24440   0.24951   0.25000
     Eigenvalues ---    0.25108   0.27549   0.54372   0.57417   0.59207
     Eigenvalues ---    0.60048   0.60118   1.08897
 Use linear search instead of GDIIS.
 RFO step:  Lambda=-8.64200833D-04 EMin=-8.63899829D-04
 I=     1 Eig=   -8.64D-04 Dot1=  6.04D-06
 I=     1 Stepn=  3.75D-01 RXN=   3.75D-01 EDone=F
 Mixed    1 eigenvectors in step.  Raw Step.Grad=  6.04D-06.
 RFO eigenvector is Hessian eigenvector with negative curvature.
 Taking step of  3.75D-01 in eigenvector direction(s).  Step.Grad=  1.60D-06.
 Skip linear search -- no minimum in search direction.
 Iteration  1 RMS(Cart)=  0.08322867 RMS(Int)=  0.00295993
 Iteration  2 RMS(Cart)=  0.00367281 RMS(Int)=  0.00002443
 Iteration  3 RMS(Cart)=  0.00000529 RMS(Int)=  0.00002418
 Iteration  4 RMS(Cart)=  0.00000000 RMS(Int)=  0.00002418
 Variable       Old X    -DE/DX   Delta X   Delta X   Delta X     New X
                                 (Linear)    (Quad)   (Total)
    R1        2.51499   0.00003   0.00000   0.00360   0.00360   2.51859
    R2        2.51455  -0.00003   0.00000  -0.00423  -0.00423   2.51033
    R3        2.92560  -0.00001   0.00000   0.00424   0.00424   2.92984
    R4        2.50875  -0.00000   0.00000  -0.00103  -0.00103   2.50773
    R5        2.25049   0.00001   0.00000   0.00037   0.00037   2.25086
    R6        2.50805  -0.00000   0.00000   0.00082   0.00082   2.50888
    R7        1.82321  -0.00001   0.00000   0.00014   0.00014   1.82336
    A1        1.89418  -0.00001   0.00000  -0.00495  -0.00498   1.88920
    A2        1.90595   0.00000   0.00000   0.00330   0.00329   1.90924
    A3        1.89347   0.00000   0.00000  -0.00856  -0.00856   1.88491
    A4        1.90640   0.00002   0.00000   0.01132   0.01129   1.91769
    A5        1.89361  -0.00000   0.00000  -0.00558  -0.00562   1.88800
    A6        1.96887  -0.00001   0.00000   0.00392   0.00391   1.97277
    A7        2.12119   0.00001   0.00000   0.00288   0.00284   2.12402
    A8        1.95662  -0.00001   0.00000   0.00387   0.00383   1.96045
    A9        2.20538   0.00001   0.00000  -0.00676  -0.00681   2.19857
   A10        1.87766   0.00000   0.00000   0.00676   0.00676   1.88441
    D1       -1.04584  -0.00001   0.00000  -0.14711  -0.14711  -1.19295
    D2        2.09481  -0.00001   0.00000  -0.16323  -0.16326   1.93155
    D3        1.02318  -0.00001   0.00000  -0.14453  -0.14451   0.87867
    D4       -2.11935  -0.00001   0.00000  -0.16065  -0.16066  -2.28001
    D5        3.13051  -0.00000   0.00000  -0.14114  -0.14112   2.98940
    D6       -0.01202  -0.00000   0.00000  -0.15726  -0.15726  -0.16928
    D7       -3.14030   0.00001   0.00000   0.02259   0.02255  -3.11775
    D8        0.00030   0.00000   0.00000   0.00554   0.00558   0.00588
         Item               Value     Threshold  Converged?
 Maximum Force            0.000032     0.000450     YES
 RMS     Force            0.000011     0.000300     YES
 Maximum Displacement     0.233956     0.001800     NO 
 RMS     Displacement     0.083152     0.001200     NO 
 Predicted change in Energy=-6.679676D-05
 GradGradGradGradGradGradGradGradGradGradGradGradGradGradGradGradGradGrad

                          Input orientation:                          
 ---------------------------------------------------------------------
 Center     Atomic      Atomic             Coordinates (Angstroms)
 Number     Number       Type             X           Y           Z
 ---------------------------------------------------------------------
      1          6           0        0.599867    0.019063   -0.007779
      2          9           0        1.076931   -0.492396    1.126733
      3          9           0        1.139311   -0.646323   -1.023124
      4          6           0       -0.942345   -0.137797   -0.034716
      5          8           0       -1.461255   -1.205874   -0.127839
      6          8           0       -1.569764    1.026881    0.077088
      7          1           0       -2.519196    0.854939    0.074964
      8          9           0        0.994537    1.283675   -0.085301
 ---------------------------------------------------------------------
                    Distance matrix (angstroms):
                    1          2          3          4          5
     1  C    0.000000
     2  F    1.332778   0.000000
     3  F    1.328407   2.156263   0.000000
     4  C    1.550403   2.356307   2.359839   0.000000
     5  O    2.400649   2.919828   2.806702   1.191104   0.000000
     6  O    2.393783   3.227220   3.368852   1.327641   2.244765
     7  H    3.230184   3.981666   4.104175   1.866551   2.325364
     8  F    1.327033   2.151800   2.150666   2.403051   3.497225
                    6          7          8
     6  O    0.000000
     7  H    0.964879   0.000000
     8  F    2.582237   3.543419   0.000000
 Stoichiometry    C2HF3O2
 Framework group  C1[X(C2HF3O2)]
 Deg. of freedom    18
 Full point group                 C1      NOp   1
 Largest Abelian subgroup         C1      NOp   1
 Largest concise Abelian subgroup C1      NOp   1
                         Standard orientation:                         
 ---------------------------------------------------------------------
 Center     Atomic      Atomic             Coordinates (Angstroms)
 Number     Number       Type             X           Y           Z
 ---------------------------------------------------------------------
      1          6           0        0.598524    0.018669   -0.003704
      2          9           0        1.078932   -0.385554    1.171928
      3          9           0        1.135233   -0.737895   -0.954608
      4          6           0       -0.943722   -0.139964   -0.011599
      5          8           0       -1.462646   -1.212059   -0.003939
      6          8           0       -1.571091    1.030083   -0.006333
      7          1           0       -2.520486    0.858712    0.010183
      8          9           0        0.992677    1.270656   -0.199120
 ---------------------------------------------------------------------
 Rotational constants (GHZ):           3.9059173           2.4731301           2.0593010
 Standard basis: 6-311+G(2d,2p) (5D, 7F)
 There are   212 symmetry adapted cartesian basis functions of A   symmetry.
 There are   198 symmetry adapted basis functions of A   symmetry.
   198 basis functions,   305 primitive gaussians,   212 cartesian basis functions
    28 alpha electrons       28 beta electrons
       nuclear repulsion energy       337.3469280041 Hartrees.
 NAtoms=    8 NActive=    8 NUniq=    8 SFac= 1.00D+00 NAtFMM=   60 NAOKFM=F Big=F
 Integral buffers will be    131072 words long.
 Raffenetti 2 integral format.
 Two-electron integral symmetry is turned on.
 Nuclear repulsion after empirical dispersion term =      337.3451431761 Hartrees.
 One-electron integrals computed using PRISM.
 NBasis=   198 RedAO= T EigKep=  1.31D-04  NBF=   198
 NBsUse=   198 1.00D-06 EigRej= -1.00D+00 NBFU=   198
 Initial guess from the checkpoint file:  "tfa.chk"
 B after Tr=    -0.000000   -0.000000    0.000000
         Rot=    0.998695    0.050836    0.004983   -0.000017 Ang=   5.86 deg.
 ExpMin= 4.38D-02 ExpMax= 1.14D+04 ExpMxC= 1.72D+03 IAcc=3 IRadAn=         5 AccDes= 0.00D+00
 Harris functional with IExCor= 4639 and IRadAn=       5 diagonalized for initial guess.
 HarFok:  IExCor= 4639 AccDes= 0.00D+00 IRadAn=         5 IDoV= 1 UseB2=F ITyADJ=14
 ICtDFT=  3500011 ScaDFX=  1.000000  1.000000  1.000000  1.000000
 FoFCou: FMM=F IPFlag=           0 FMFlag=      100000 FMFlg1=           0
         NFxFlg=           0 DoJE=T BraDBF=F KetDBF=T FulRan=T
         wScrn=  0.000000 ICntrl=       500 IOpCl=  0 I1Cent=   200000004 NGrid=           0
         NMat0=    1 NMatS0=      1 NMatT0=    0 NMatD0=    1 NMtDS0=    0 NMtDT0=    0
 Petite list used in FoFCou.
 Keep R1 ints in memory in canonical form, NReq=396510994.
 Requested convergence on RMS density matrix=1.00D-08 within  32 cycles.
 Requested convergence on MAX density matrix=1.00D-06.
 Requested convergence on             energy=1.00D-06.
 No special actions if energy rises.
 SCF Done:  E(RwB97XD) =  -526.822029377     A.U. after   12 cycles
            NFock= 12  Conv=0.43D-08     -V/T= 2.0026
 QCSCF skips out because SCF is already converged.
 Calling FoFJK, ICntrl=      2127 FMM=F ISym2X=0 I1Cent= 0 IOpClX= 0 NMat=1 NMatS=1 NMatT=0.
 ***** Axes restored to original set *****
 -------------------------------------------------------------------
 Center     Atomic                   Forces (Hartrees/Bohr)
 Number     Number              X              Y              Z
 -------------------------------------------------------------------
      1        6           0.003014735    0.000631713   -0.000045996
      2        9          -0.001804081   -0.000892963    0.000896948
      3        9          -0.001813490   -0.001020372   -0.000672892
      4        6          -0.001626455   -0.000677866    0.000501181
      5        8           0.001260688   -0.000341895   -0.000362456
      6        8           0.002072430    0.001157058    0.000083231
      7        1           0.000536647   -0.000735654   -0.000095076
      8        9          -0.001640474    0.001879979   -0.000304939
 -------------------------------------------------------------------
 Cartesian Forces:  Max     0.003014735 RMS     0.001243652

 GradGradGradGradGradGradGradGradGradGradGradGradGradGradGradGradGradGrad
 Berny optimization.
 Using GEDIIS/GDIIS optimizer.
 FormGI is forming the generalized inverse of G from B-inverse, IUseBI=4.
 Internal  Forces:  Max     0.002868198 RMS     0.001590091
 Search for a local minimum.
 Step number   5 out of a maximum of   35
 All quantities printed in internal units (Hartrees-Bohrs-Radians)
 Mixed Optimization -- RFO/linear search
 Update second derivatives using D2CorX and points    1    2    3    5    4
 ITU=  0  0  1 -1  0
 Use linear search instead of GDIIS.
     Eigenvalues ---    0.00020   0.02603   0.04748   0.10562   0.11179
     Eigenvalues ---    0.16028   0.22284   0.24982   0.25090   0.26040
     Eigenvalues ---    0.27788   0.53474   0.57434   0.58952   0.59290
     Eigenvalues ---    0.60288   1.07381   1.43667
 RFO step:  Lambda=-1.01211462D-06 EMin= 2.00829046D-04
 Quartic linear search produced a step of -0.91642.
 Iteration  1 RMS(Cart)=  0.06354337 RMS(Int)=  0.00173077
 Iteration  2 RMS(Cart)=  0.00214648 RMS(Int)=  0.00000722
 Iteration  3 RMS(Cart)=  0.00000184 RMS(Int)=  0.00000712
 Iteration  4 RMS(Cart)=  0.00000000 RMS(Int)=  0.00000712
 Variable       Old X    -DE/DX   Delta X   Delta X   Delta X     New X
                                 (Linear)    (Quad)   (Total)
    R1        2.51859   0.00046  -0.00330   0.00070  -0.00260   2.51599
    R2        2.51033   0.00029   0.00387  -0.00060   0.00328   2.51360
    R3        2.92984  -0.00217  -0.00388   0.00069  -0.00320   2.92664
    R4        2.50773   0.00132   0.00094  -0.00005   0.00089   2.50862
    R5        2.25086  -0.00021  -0.00034  -0.00009  -0.00043   2.25043
    R6        2.50888  -0.00086  -0.00075   0.00007  -0.00068   2.50819
    R7        1.82336  -0.00040  -0.00013   0.00015   0.00002   1.82337
    A1        1.88920   0.00235   0.00456   0.00007   0.00464   1.89384
    A2        1.90924  -0.00265  -0.00301  -0.00045  -0.00346   1.90578
    A3        1.88491   0.00287   0.00784  -0.00073   0.00711   1.89202
    A4        1.91769  -0.00266  -0.01034   0.00082  -0.00952   1.90817
    A5        1.88800   0.00282   0.00515  -0.00029   0.00487   1.89286
    A6        1.97277  -0.00238  -0.00358   0.00054  -0.00303   1.96974
    A7        2.12402  -0.00036  -0.00260   0.00014  -0.00244   2.12158
    A8        1.96045  -0.00220  -0.00351   0.00052  -0.00297   1.95748
    A9        2.19857   0.00256   0.00624  -0.00071   0.00554   2.20412
   A10        1.88441  -0.00150  -0.00619   0.00035  -0.00584   1.87857
    D1       -1.19295   0.00000   0.13482  -0.02218   0.11264  -1.08032
    D2        1.93155   0.00019   0.14961  -0.02483   0.12479   2.05634
    D3        0.87867  -0.00033   0.13244  -0.02187   0.11056   0.98923
    D4       -2.28001  -0.00014   0.14723  -0.02452   0.12271  -2.15729
    D5        2.98940  -0.00022   0.12932  -0.02129   0.10802   3.09742
    D6       -0.16928  -0.00003   0.14412  -0.02395   0.12017  -0.04911
    D7       -3.11775  -0.00010  -0.02067   0.00359  -0.01707  -3.13482
    D8        0.00588   0.00006  -0.00512   0.00081  -0.00432   0.00156
         Item               Value     Threshold  Converged?
 Maximum Force            0.002868     0.000450     NO 
 RMS     Force            0.001590     0.000300     NO 
 Maximum Displacement     0.178931     0.001800     NO 
 RMS     Displacement     0.063590     0.001200     NO 
 Predicted change in Energy=-2.332232D-06
 GradGradGradGradGradGradGradGradGradGradGradGradGradGradGradGradGradGrad

                          Input orientation:                          
 ---------------------------------------------------------------------
 Center     Atomic      Atomic             Coordinates (Angstroms)
 Number     Number       Type             X           Y           Z
 ---------------------------------------------------------------------
      1          6           0        0.600123    0.020371   -0.002184
      2          9           0        1.093857   -0.546916    1.096475
      3          9           0        1.111691   -0.597856   -1.063017
      4          6           0       -0.940332   -0.139168   -0.009287
      5          8           0       -1.455655   -1.212511   -0.033153
      6          8           0       -1.564937    1.031594    0.019927
      7          1           0       -2.513849    0.856734    0.019794
      8          9           0        0.987188    1.289920   -0.028529
 ---------------------------------------------------------------------
                    Distance matrix (angstroms):
                    1          2          3          4          5
     1  C    0.000000
     2  F    1.331405   0.000000
     3  F    1.330140   2.160167   0.000000
     4  C    1.548711   2.350935   2.351923   0.000000
     5  O    2.397327   2.866895   2.833670   1.190879   0.000000
     6  O    2.389676   3.274116   3.315452   1.327279   2.247392
     7  H    3.224408   4.018086   4.053746   1.862423   2.324726
     8  F    1.327505   2.156613   2.156239   2.399583   3.497094
                    6          7          8
     6  O    0.000000
     7  H    0.964888   0.000000
     8  F    2.565623   3.528065   0.000000
 Stoichiometry    C2HF3O2
 Framework group  C1[X(C2HF3O2)]
 Deg. of freedom    18
 Full point group                 C1      NOp   1
 Largest Abelian subgroup         C1      NOp   1
 Largest concise Abelian subgroup C1      NOp   1
                         Standard orientation:                         
 ---------------------------------------------------------------------
 Center     Atomic      Atomic             Coordinates (Angstroms)
 Number     Number       Type             X           Y           Z
 ---------------------------------------------------------------------
      1          6           0        0.599861    0.020226   -0.001062
      2          9           0        1.094199   -0.520729    1.110530
      3          9           0        1.110705   -0.623227   -1.047141
      4          6           0       -0.940617   -0.139228   -0.003415
      5          8           0       -1.456084   -1.212765   -0.001327
      6          8           0       -1.565063    1.031983   -0.001786
      7          1           0       -2.513995    0.857297    0.002835
      8          9           0        0.987063    1.288732   -0.057953
 ---------------------------------------------------------------------
 Rotational constants (GHZ):           3.8911647           2.4871545           2.0676498
 Standard basis: 6-311+G(2d,2p) (5D, 7F)
 There are   212 symmetry adapted cartesian basis functions of A   symmetry.
 There are   198 symmetry adapted basis functions of A   symmetry.
   198 basis functions,   305 primitive gaussians,   212 cartesian basis functions
    28 alpha electrons       28 beta electrons
       nuclear repulsion energy       337.5612380234 Hartrees.
 NAtoms=    8 NActive=    8 NUniq=    8 SFac= 1.00D+00 NAtFMM=   60 NAOKFM=F Big=F
 Integral buffers will be    131072 words long.
 Raffenetti 2 integral format.
 Two-electron integral symmetry is turned on.
 Nuclear repulsion after empirical dispersion term =      337.5594551292 Hartrees.
 One-electron integrals computed using PRISM.
 NBasis=   198 RedAO= T EigKep=  1.30D-04  NBF=   198
 NBsUse=   198 1.00D-06 EigRej= -1.00D+00 NBFU=   198
 Lowest energy guess from the checkpoint file:  "tfa.chk"
 B after Tr=    -0.000000   -0.000000    0.000000
         Rot=    0.999928    0.011926    0.001216    0.000089 Ang=   1.37 deg.
 B after Tr=     0.000000   -0.000000    0.000000
         Rot=    0.999235   -0.038916   -0.003760    0.000102 Ang=  -4.48 deg.
 Keep R1 ints in memory in canonical form, NReq=396510994.
 Requested convergence on RMS density matrix=1.00D-08 within  32 cycles.
 Requested convergence on MAX density matrix=1.00D-06.
 Requested convergence on             energy=1.00D-06.
 No special actions if energy rises.
 SCF Done:  E(RwB97XD) =  -526.822064091     A.U. after   10 cycles
            NFock= 10  Conv=0.89D-08     -V/T= 2.0026
 QCSCF skips out because SCF is already converged.
 Calling FoFJK, ICntrl=      2127 FMM=F ISym2X=0 I1Cent= 0 IOpClX= 0 NMat=1 NMatS=1 NMatT=0.
 ***** Axes restored to original set *****
 -------------------------------------------------------------------
 Center     Atomic                   Forces (Hartrees/Bohr)
 Number     Number              X              Y              Z
 -------------------------------------------------------------------
      1        6           0.000300647    0.000099280   -0.000086012
      2        9          -0.000237035   -0.000145531    0.000068176
      3        9          -0.000236629   -0.000149248    0.000008893
      4        6          -0.000172511    0.000038945    0.000135933
      5        8           0.000181790   -0.000180402   -0.000089868
      6        8           0.000285826    0.000187582    0.000001164
      7        1           0.000160389   -0.000095008   -0.000001717
      8        9          -0.000282475    0.000244384   -0.000036569
 -------------------------------------------------------------------
 Cartesian Forces:  Max     0.000300647 RMS     0.000168809

 GradGradGradGradGradGradGradGradGradGradGradGradGradGradGradGradGradGrad
 Berny optimization.
 Using GEDIIS/GDIIS optimizer.
 FormGI is forming the generalized inverse of G from B-inverse, IUseBI=4.
 Internal  Forces:  Max     0.000472998 RMS     0.000246418
 Search for a local minimum.
 Step number   6 out of a maximum of   35
 All quantities printed in internal units (Hartrees-Bohrs-Radians)
 Mixed Optimization -- En-DIIS/RFO-DIIS
 Update second derivatives using D2CorX and points    1    2    3    5    4
                                                      6
 DE= -1.69D-06 DEPred=-2.33D-06 R= 7.27D-01
 TightC=F SS=  1.41D+00  RLast= 8.82D-02 DXNew= 2.5227D-01 2.6456D-01
 Trust test= 7.27D-01 RLast= 8.82D-02 DXMaxT set to 2.52D-01
 ITU=  1  0  0  1 -1  0
 Use linear search instead of GDIIS.
     Eigenvalues ---   -0.00008   0.00044   0.02602   0.10434   0.11321
     Eigenvalues ---    0.16068   0.22061   0.24715   0.24998   0.25955
     Eigenvalues ---    0.27698   0.53701   0.56876   0.59062   0.59479
     Eigenvalues ---    0.60274   1.08049   8.12566
 RFO step:  Lambda=-8.96887952D-05 EMin=-8.38177377D-05
 I=     1 Eig=   -8.38D-05 Dot1=  1.38D-05
 I=     1 Stepn=  6.00D-01 RXN=   6.00D-01 EDone=F
 Mixed    1 eigenvectors in step.  Raw Step.Grad=  1.38D-05.
 RFO eigenvector is Hessian eigenvector with negative curvature.
 Taking step of  6.00D-01 in eigenvector direction(s).  Step.Grad=  3.06D-04.
 Skip linear search -- no minimum in search direction.
 Iteration  1 RMS(Cart)=  0.10749279 RMS(Int)=  0.02252510
 Iteration  2 RMS(Cart)=  0.02411350 RMS(Int)=  0.00027258
 Iteration  3 RMS(Cart)=  0.00030143 RMS(Int)=  0.00002166
 Iteration  4 RMS(Cart)=  0.00000004 RMS(Int)=  0.00002166
 Variable       Old X    -DE/DX   Delta X   Delta X   Delta X     New X
                                 (Linear)    (Quad)   (Total)
    R1        2.51599   0.00003   0.00000   0.00657   0.00657   2.52256
    R2        2.51360  -0.00003   0.00000  -0.00668  -0.00668   2.50693
    R3        2.92664  -0.00045   0.00000   0.00687   0.00687   2.93351
    R4        2.50862   0.00015   0.00000  -0.00112  -0.00112   2.50750
    R5        2.25043   0.00009   0.00000  -0.00026  -0.00026   2.25017
    R6        2.50819  -0.00013   0.00000   0.00104   0.00104   2.50924
    R7        1.82337  -0.00014   0.00000   0.00093   0.00093   1.82430
    A1        1.89384   0.00024   0.00000  -0.00359  -0.00360   1.89024
    A2        1.90578  -0.00034   0.00000  -0.00100  -0.00100   1.90477
    A3        1.89202   0.00043   0.00000  -0.01044  -0.01044   1.88158
    A4        1.90817  -0.00030   0.00000   0.01347   0.01343   1.92160
    A5        1.89286   0.00041   0.00000  -0.00543  -0.00551   1.88736
    A6        1.96974  -0.00042   0.00000   0.00641   0.00638   1.97612
    A7        2.12158  -0.00007   0.00000   0.00223   0.00223   2.12381
    A8        1.95748  -0.00040   0.00000   0.00616   0.00616   1.96364
    A9        2.20412   0.00047   0.00000  -0.00838  -0.00838   2.19573
   A10        1.87857  -0.00022   0.00000   0.00635   0.00635   1.88492
    D1       -1.08032  -0.00001   0.00000  -0.25023  -0.25024  -1.33056
    D2        2.05634   0.00003   0.00000  -0.24689  -0.24689   1.80945
    D3        0.98923  -0.00009   0.00000  -0.24725  -0.24727   0.74196
    D4       -2.15729  -0.00005   0.00000  -0.24391  -0.24393  -2.40122
    D5        3.09742  -0.00005   0.00000  -0.24049  -0.24047   2.85695
    D6       -0.04911  -0.00000   0.00000  -0.23716  -0.23712  -0.28623
    D7       -3.13482  -0.00002   0.00000   0.02118   0.02119  -3.11363
    D8        0.00156   0.00002   0.00000   0.02475   0.02474   0.02630
         Item               Value     Threshold  Converged?
 Maximum Force            0.000473     0.000450     NO 
 RMS     Force            0.000246     0.000300     YES
 Maximum Displacement     0.376511     0.001800     NO 
 RMS     Displacement     0.130288     0.001200     NO 
 Predicted change in Energy=-2.884472D-05
 GradGradGradGradGradGradGradGradGradGradGradGradGradGradGradGradGradGrad

                          Input orientation:                          
 ---------------------------------------------------------------------
 Center     Atomic      Atomic             Coordinates (Angstroms)
 Number     Number       Type             X           Y           Z
 ---------------------------------------------------------------------
      1          6           0        0.601344    0.019208   -0.012310
      2          9           0        1.056781   -0.434075    1.157740
      3          9           0        1.155358   -0.698006   -0.981103
      4          6           0       -0.942903   -0.134323   -0.051249
      5          8           0       -1.462053   -1.190510   -0.232394
      6          8           0       -1.573313    1.018855    0.138229
      7          1           0       -2.522858    0.845090    0.126915
      8          9           0        1.005731    1.275929   -0.145800
 ---------------------------------------------------------------------
                    Distance matrix (angstroms):
                    1          2          3          4          5
     1  C    0.000000
     2  F    1.334880   0.000000
     3  F    1.326608   2.157320   0.000000
     4  C    1.552349   2.355895   2.363274   0.000000
     5  O    2.401970   2.974759   2.766580   1.190739   0.000000
     6  O    2.398143   3.172980   3.412647   1.327832   2.242996
     7  H    3.234518   3.938614   4.139822   1.867418   2.323376
     8  F    1.326913   2.150800   2.148614   2.407265   3.490097
                    6          7          8
     6  O    0.000000
     7  H    0.965380   0.000000
     8  F    2.607341   3.565240   0.000000
 Stoichiometry    C2HF3O2
 Framework group  C1[X(C2HF3O2)]
 Deg. of freedom    18
 Full point group                 C1      NOp   1
 Largest Abelian subgroup         C1      NOp   1
 Largest concise Abelian subgroup C1      NOp   1
                         Standard orientation:                         
 ---------------------------------------------------------------------
 Center     Atomic      Atomic             Coordinates (Angstroms)
 Number     Number       Type             X           Y           Z
 ---------------------------------------------------------------------
      1          6           0        0.599441    0.017312   -0.006171
      2          9           0        1.062677   -0.233229    1.220429
      3          9           0        1.147432   -0.852873   -0.844247
      4          6           0       -0.944963   -0.139521   -0.008735
      5          8           0       -1.464843   -1.210772   -0.006455
      6          8           0       -1.574604    1.029531   -0.011638
      7          1           0       -2.524130    0.856986    0.012570
      8          9           0        1.002428    1.233457   -0.351558
 ---------------------------------------------------------------------
 Rotational constants (GHZ):           3.9098145           2.4658375           2.0558072
 Standard basis: 6-311+G(2d,2p) (5D, 7F)
 There are   212 symmetry adapted cartesian basis functions of A   symmetry.
 There are   198 symmetry adapted basis functions of A   symmetry.
   198 basis functions,   305 primitive gaussians,   212 cartesian basis functions
    28 alpha electrons       28 beta electrons
       nuclear repulsion energy       337.1865353026 Hartrees.
 NAtoms=    8 NActive=    8 NUniq=    8 SFac= 1.00D+00 NAtFMM=   60 NAOKFM=F Big=F
 Integral buffers will be    131072 words long.
 Raffenetti 2 integral format.
 Two-electron integral symmetry is turned on.
 Nuclear repulsion after empirical dispersion term =      337.1847492690 Hartrees.
 One-electron integrals computed using PRISM.
 NBasis=   198 RedAO= T EigKep=  1.29D-04  NBF=   198
 NBsUse=   198 1.00D-06 EigRej= -1.00D+00 NBFU=   198
 Initial guess from the checkpoint file:  "tfa.chk"
 B after Tr=    -0.000000   -0.000000    0.000000
         Rot=    0.996652    0.081492    0.006605    0.000313 Ang=   9.38 deg.
 ExpMin= 4.38D-02 ExpMax= 1.14D+04 ExpMxC= 1.72D+03 IAcc=3 IRadAn=         5 AccDes= 0.00D+00
 Harris functional with IExCor= 4639 and IRadAn=       5 diagonalized for initial guess.
 HarFok:  IExCor= 4639 AccDes= 0.00D+00 IRadAn=         5 IDoV= 1 UseB2=F ITyADJ=14
 ICtDFT=  3500011 ScaDFX=  1.000000  1.000000  1.000000  1.000000
 FoFCou: FMM=F IPFlag=           0 FMFlag=      100000 FMFlg1=           0
         NFxFlg=           0 DoJE=T BraDBF=F KetDBF=T FulRan=T
         wScrn=  0.000000 ICntrl=       500 IOpCl=  0 I1Cent=   200000004 NGrid=           0
         NMat0=    1 NMatS0=      1 NMatT0=    0 NMatD0=    1 NMtDS0=    0 NMtDT0=    0
 Petite list used in FoFCou.
 Keep R1 ints in memory in canonical form, NReq=396510994.
 Requested convergence on RMS density matrix=1.00D-08 within  32 cycles.
 Requested convergence on MAX density matrix=1.00D-06.
 Requested convergence on             energy=1.00D-06.
 No special actions if energy rises.
 SCF Done:  E(RwB97XD) =  -526.822039565     A.U. after   14 cycles
            NFock= 14  Conv=0.33D-08     -V/T= 2.0026
 QCSCF skips out because SCF is already converged.
 Calling FoFJK, ICntrl=      2127 FMM=F ISym2X=0 I1Cent= 0 IOpClX= 0 NMat=1 NMatS=1 NMatT=0.
 ***** Axes restored to original set *****
 -------------------------------------------------------------------
 Center     Atomic                   Forces (Hartrees/Bohr)
 Number     Number              X              Y              Z
 -------------------------------------------------------------------
      1        6           0.002823109    0.000612977    0.001587184
      2        9          -0.001762222   -0.001103956    0.000712941
      3        9          -0.002297159   -0.001173554   -0.000377613
      4        6          -0.001324235   -0.000058671   -0.003115184
      5        8           0.001117757   -0.001242008    0.000718577
      6        8           0.002716963    0.001283856    0.001374608
      7        1           0.001148021   -0.000715947   -0.000217941
      8        9          -0.002422235    0.002397303   -0.000682571
 -------------------------------------------------------------------
 Cartesian Forces:  Max     0.003115184 RMS     0.001609111

 GradGradGradGradGradGradGradGradGradGradGradGradGradGradGradGradGradGrad
 Berny optimization.
 Using GEDIIS/GDIIS optimizer.
 FormGI is forming the generalized inverse of G from B-inverse, IUseBI=4.
 Internal  Forces:  Max     0.004040042 RMS     0.002144628
 Search for a local minimum.
 Step number   7 out of a maximum of   35
 All quantities printed in internal units (Hartrees-Bohrs-Radians)
 Mixed Optimization -- RFO/linear search
 Update second derivatives using D2CorX and points    1    2    3    5    4
                                                      7    6
 ITU=  0  1  0  0  1 -1  0
 Use linear search instead of GDIIS.
     Eigenvalues ---    0.00000   0.02587   0.03511   0.10608   0.11411
     Eigenvalues ---    0.16346   0.23732   0.24891   0.25887   0.27767
     Eigenvalues ---    0.28340   0.53908   0.57415   0.59155   0.59451
     Eigenvalues ---    0.60314   1.08549  91.09736
 RFO step:  Lambda=-3.41674871D-05 EMin= 4.03263625D-08
 Quartic linear search produced a step of -0.78269.
 Iteration  1 RMS(Cart)=  0.10111900 RMS(Int)=  0.00663091
 Iteration  2 RMS(Cart)=  0.00798782 RMS(Int)=  0.00016191
 Iteration  3 RMS(Cart)=  0.00004830 RMS(Int)=  0.00015759
 Iteration  4 RMS(Cart)=  0.00000000 RMS(Int)=  0.00015759
 Variable       Old X    -DE/DX   Delta X   Delta X   Delta X     New X
                                 (Linear)    (Quad)   (Total)
    R1        2.52256   0.00040  -0.00514   0.01095   0.00581   2.52836
    R2        2.50693  -0.00005   0.00522  -0.01063  -0.00540   2.50152
    R3        2.93351  -0.00354  -0.00538   0.01043   0.00505   2.93856
    R4        2.50750   0.00160   0.00088  -0.00149  -0.00061   2.50689
    R5        2.25017   0.00051   0.00021  -0.00077  -0.00056   2.24961
    R6        2.50924  -0.00118  -0.00082   0.00146   0.00064   2.50988
    R7        1.82430  -0.00100  -0.00073   0.00171   0.00098   1.82528
    A1        1.89024   0.00233   0.00282  -0.00353  -0.00069   1.88955
    A2        1.90477  -0.00213   0.00079  -0.00375  -0.00295   1.90182
    A3        1.88158   0.00360   0.00817  -0.01433  -0.00616   1.87542
    A4        1.92160  -0.00318  -0.01051   0.01787   0.00739   1.92898
    A5        1.88736   0.00369   0.00431  -0.00696  -0.00262   1.88473
    A6        1.97612  -0.00388  -0.00499   0.00952   0.00454   1.98066
    A7        2.12381   0.00034  -0.00175   0.00257   0.00038   2.12419
    A8        1.96364  -0.00404  -0.00482   0.00909   0.00382   1.96746
    A9        2.19573   0.00370   0.00656  -0.01174  -0.00562   2.19011
   A10        1.88492  -0.00171  -0.00497   0.00786   0.00289   1.88781
    D1       -1.33056   0.00068   0.19586  -0.36081  -0.16492  -1.49548
    D2        1.80945  -0.00030   0.19324  -0.41089  -0.21767   1.59178
    D3        0.74196   0.00033   0.19354  -0.35674  -0.16317   0.57879
    D4       -2.40122  -0.00065   0.19092  -0.40681  -0.21591  -2.61714
    D5        2.85695   0.00012   0.18821  -0.34623  -0.15800   2.69895
    D6       -0.28623  -0.00085   0.18559  -0.39630  -0.21075  -0.49698
    D7       -3.11363   0.00044  -0.01658   0.06282   0.04614  -3.06749
    D8        0.02630  -0.00059  -0.01936   0.01030  -0.00897   0.01733
         Item               Value     Threshold  Converged?
 Maximum Force            0.004040     0.000450     NO 
 RMS     Force            0.002145     0.000300     NO 
 Maximum Displacement     0.277162     0.001800     NO 
 RMS     Displacement     0.106074     0.001200     NO 
 Predicted change in Energy=-3.010817D-05
 GradGradGradGradGradGradGradGradGradGradGradGradGradGradGradGradGradGrad

                          Input orientation:                          
 ---------------------------------------------------------------------
 Center     Atomic      Atomic             Coordinates (Angstroms)
 Number     Number       Type             X           Y           Z
 ---------------------------------------------------------------------
      1          6           0        0.602803    0.020011   -0.023730
      2          9           0        1.009918   -0.340995    1.198584
      3          9           0        1.187082   -0.774210   -0.906987
      4          6           0       -0.943799   -0.120605   -0.103349
      5          8           0       -1.464641   -1.154944   -0.379062
      6          8           0       -1.578510    0.997697    0.229184
      7          1           0       -2.527628    0.818558    0.222656
      8          9           0        1.032861    1.256655   -0.237270
 ---------------------------------------------------------------------
                    Distance matrix (angstroms):
                    1          2          3          4          5
     1  C    0.000000
     2  F    1.337953   0.000000
     3  F    1.323749   2.156963   0.000000
     4  C    1.555021   2.358095   2.369322   0.000000
     5  O    2.404393   3.045475   2.730439   1.190441   0.000000
     6  O    2.403739   3.071122   3.475491   1.328170   2.239819
     7  H    3.240059   3.848536   4.196673   1.869978   2.320929
     8  F    1.326590   2.148183   2.143996   2.412875   3.474685
                    6          7          8
     6  O    0.000000
     7  H    0.965897   0.000000
     8  F    2.665314   3.616703   0.000000
 Stoichiometry    C2HF3O2
 Framework group  C1[X(C2HF3O2)]
 Deg. of freedom    18
 Full point group                 C1      NOp   1
 Largest Abelian subgroup         C1      NOp   1
 Largest concise Abelian subgroup C1      NOp   1
                         Standard orientation:                         
 ---------------------------------------------------------------------
 Center     Atomic      Atomic             Coordinates (Angstroms)
 Number     Number       Type             X           Y           Z
 ---------------------------------------------------------------------
      1          6           0        0.600085    0.013882   -0.010517
      2          9           0        1.017238    0.006491    1.260722
      3          9           0        1.177711   -0.995676   -0.642538
      4          6           0       -0.947023   -0.140755   -0.035660
      5          8           0       -1.469451   -1.210095   -0.008615
      6          8           0       -1.579704    1.026966   -0.022364
      7          1           0       -2.528737    0.854665    0.028694
      8          9           0        1.027674    1.141586   -0.563049
 ---------------------------------------------------------------------
 Rotational constants (GHZ):           3.9211665           2.4542837           2.0491977
 Standard basis: 6-311+G(2d,2p) (5D, 7F)
 There are   212 symmetry adapted cartesian basis functions of A   symmetry.
 There are   198 symmetry adapted basis functions of A   symmetry.
   198 basis functions,   305 primitive gaussians,   212 cartesian basis functions
    28 alpha electrons       28 beta electrons
       nuclear repulsion energy       336.9564991963 Hartrees.
 NAtoms=    8 NActive=    8 NUniq=    8 SFac= 1.00D+00 NAtFMM=   60 NAOKFM=F Big=F
 Integral buffers will be    131072 words long.
 Raffenetti 2 integral format.
 Two-electron integral symmetry is turned on.
 Nuclear repulsion after empirical dispersion term =      336.9547093144 Hartrees.
 One-electron integrals computed using PRISM.
 NBasis=   198 RedAO= T EigKep=  1.26D-04  NBF=   198
 NBsUse=   198 1.00D-06 EigRej= -1.00D+00 NBFU=   198
 Lowest energy guess from the checkpoint file:  "tfa.chk"
 B after Tr=    -0.000000   -0.000000    0.000000
         Rot=    0.989186    0.145949    0.014448    0.001116 Ang=  16.87 deg.
 B after Tr=     0.000000   -0.000000    0.000000
         Rot=    0.997890    0.064442    0.007925    0.000525 Ang=   7.45 deg.
 Keep R1 ints in memory in canonical form, NReq=396510994.
 Requested convergence on RMS density matrix=1.00D-08 within  32 cycles.
 Requested convergence on MAX density matrix=1.00D-06.
 Requested convergence on             energy=1.00D-06.
 No special actions if energy rises.
 SCF Done:  E(RwB97XD) =  -526.822019965     A.U. after   13 cycles
            NFock= 13  Conv=0.59D-08     -V/T= 2.0027
 QCSCF skips out because SCF is already converged.
 Calling FoFJK, ICntrl=      2127 FMM=F ISym2X=0 I1Cent= 0 IOpClX= 0 NMat=1 NMatS=1 NMatT=0.
 ***** Axes restored to original set *****
 -------------------------------------------------------------------
 Center     Atomic                   Forces (Hartrees/Bohr)
 Number     Number              X              Y              Z
 -------------------------------------------------------------------
      1        6           0.003568411    0.001279540    0.002259202
      2        9          -0.003021847   -0.001264391    0.000032203
      3        9          -0.003050637   -0.002040051   -0.000708891
      4        6          -0.001469030   -0.001904645    0.002134061
      5        8           0.001241696   -0.001591140   -0.001933926
      6        8           0.004381874    0.002376948    0.000284050
      7        1           0.001955792   -0.000829129   -0.000632358
      8        9          -0.003606257    0.003972868   -0.001434341
 -------------------------------------------------------------------
 Cartesian Forces:  Max     0.004381874 RMS     0.002264033

 GradGradGradGradGradGradGradGradGradGradGradGradGradGradGradGradGradGrad
 Berny optimization.
 Using GEDIIS/GDIIS optimizer.
 FormGI is forming the generalized inverse of G from B-inverse, IUseBI=4.
 Internal  Forces:  Max     0.007306717 RMS     0.003401922
 Search for a local minimum.
 Step number   8 out of a maximum of   35
 All quantities printed in internal units (Hartrees-Bohrs-Radians)
 Mixed Optimization -- RFO/linear search
 Iteration  1 RMS(Cart)=  0.10093079 RMS(Int)=  0.00676544
 Iteration  2 RMS(Cart)=  0.00834338 RMS(Int)=  0.00004045
 Iteration  3 RMS(Cart)=  0.00005259 RMS(Int)=  0.00000000
 Iteration  4 RMS(Cart)=  0.00000000 RMS(Int)=  0.00000000
 Update second derivatives using D2CorX and points    1    2    3    5    4
                                                      7    6
 DE=  2.45D-05 DEPred=-3.01D-05 R=-8.15D-01
 Trust test=-8.15D-01 RLast= 6.00D-01 DXMaxT set to 1.26D-01
 ITU= -1  0  1  0  0  1 -1  0
 Use linear search instead of GDIIS.
 Energy rises -- skip Quadratic/GDIIS search.
 Quartic linear search produced a step of -0.78269.
 Iteration  1 RMS(Cart)=  0.10173825 RMS(Int)=  0.00450530
 Iteration  2 RMS(Cart)=  0.00536917 RMS(Int)=  0.00004776
 Iteration  3 RMS(Cart)=  0.00001117 RMS(Int)=  0.00004711
 Iteration  4 RMS(Cart)=  0.00000000 RMS(Int)=  0.00004711
 Variable       Old X    -DE/DX   Delta X   Delta X   Delta X     New X
                                 (Linear)    (Quad)   (Total)
    R1        2.52256   0.00040  -0.00514   0.00000   0.00067   2.52322
    R2        2.50693  -0.00005   0.00522   0.00000  -0.00018   2.50675
    R3        2.93351  -0.00354  -0.00538   0.00000  -0.00033   2.93318
    R4        2.50750   0.00160   0.00088   0.00000   0.00027   2.50777
    R5        2.25017   0.00051   0.00021   0.00000  -0.00036   2.24981
    R6        2.50924  -0.00118  -0.00082   0.00000  -0.00018   2.50906
    R7        1.82430  -0.00100  -0.00073   0.00000   0.00025   1.82455
    A1        1.89024   0.00233   0.00282   0.00000   0.00213   1.89237
    A2        1.90477  -0.00213   0.00079   0.00000  -0.00217   1.90261
    A3        1.88158   0.00360   0.00817   0.00000   0.00201   1.88359
    A4        1.92160  -0.00318  -0.01051   0.00000  -0.00307   1.91852
    A5        1.88736   0.00369   0.00431   0.00000   0.00177   1.88912
    A6        1.97612  -0.00388  -0.00499   0.00000  -0.00041   1.97571
    A7        2.12381   0.00034  -0.00175   0.00000  -0.00141   2.12240
    A8        1.96364  -0.00404  -0.00482   0.00000  -0.00105   1.96259
    A9        2.19573   0.00370   0.00656   0.00000   0.00089   2.19663
   A10        1.88492  -0.00171  -0.00497   0.00000  -0.00208   1.88284
    D1       -1.33056   0.00068   0.19586   0.00000   0.03090  -1.29966
    D2        1.80945  -0.00030   0.19324   0.00000  -0.02439   1.78506
    D3        0.74196   0.00033   0.19354   0.00000   0.03036   0.77232
    D4       -2.40122  -0.00065   0.19092   0.00000  -0.02492  -2.42615
    D5        2.85695   0.00012   0.18821   0.00000   0.03014   2.88709
    D6       -0.28623  -0.00085   0.18559   0.00000  -0.02515  -0.31138
    D7       -3.11363   0.00044  -0.01658   0.00000   0.02967  -3.08396
    D8        0.02630  -0.00059  -0.01936   0.00000  -0.02844  -0.00214
         Item               Value     Threshold  Converged?
 Maximum Force            0.007307     0.000450     NO 
 RMS     Force            0.003402     0.000300     NO 
 Maximum Displacement     0.288277     0.001800     NO 
 RMS     Displacement     0.101792     0.001200     NO 
 Predicted change in Energy=-9.001936D-06
 GradGradGradGradGradGradGradGradGradGradGradGradGradGradGradGradGradGrad

                          Input orientation:                          
 ---------------------------------------------------------------------
 Center     Atomic      Atomic             Coordinates (Angstroms)
 Number     Number       Type             X           Y           Z
 ---------------------------------------------------------------------
      1          6           0        0.601669    0.020430   -0.016147
      2          9           0        1.040769   -0.432840    1.160536
      3          9           0        1.161416   -0.700717   -0.978575
      4          6           0       -0.942143   -0.130485   -0.071937
      5          8           0       -1.460159   -1.191228   -0.226512
      6          8           0       -1.571881    1.019288    0.138628
      7          1           0       -2.520833    0.841256    0.141818
      8          9           0        1.009247    1.276464   -0.147784
 ---------------------------------------------------------------------
                    Distance matrix (angstroms):
                    1          2          3          4          5
     1  C    0.000000
     2  F    1.335233   0.000000
     3  F    1.326513   2.159192   0.000000
     4  C    1.552174   2.354220   2.360534   0.000000
     5  O    2.400730   2.958665   2.771075   1.190551   0.000000
     6  O    2.397080   3.158942   3.417232   1.327737   2.243255
     7  H    3.232449   3.917412   4.146314   1.866074   2.322001
     8  F    1.327053   2.152770   2.150027   2.406904   3.491944
                    6          7          8
     6  O    0.000000
     7  H    0.965513   0.000000
     8  F    2.609674   3.568577   0.000000
 Stoichiometry    C2HF3O2
 Framework group  C1[X(C2HF3O2)]
 Deg. of freedom    18
 Full point group                 C1      NOp   1
 Largest Abelian subgroup         C1      NOp   1
 Largest concise Abelian subgroup C1      NOp   1
                         Standard orientation:                         
 ---------------------------------------------------------------------
 Center     Atomic      Atomic             Coordinates (Angstroms)
 Number     Number       Type             X           Y           Z
 ---------------------------------------------------------------------
      1          6           0        0.600185    0.017633   -0.007158
      2          9           0        1.042939   -0.234247    1.227092
      3          9           0        1.156541   -0.853888   -0.838156
      4          6           0       -0.943855   -0.139067   -0.032249
      5          8           0       -1.462756   -1.210284   -0.006821
      6          8           0       -1.572487    1.030275   -0.013652
      7          1           0       -2.521488    0.856100    0.022053
      8          9           0        1.007791    1.233976   -0.346917
 ---------------------------------------------------------------------
 Rotational constants (GHZ):           3.9057287           2.4700626           2.0587244
 Standard basis: 6-311+G(2d,2p) (5D, 7F)
 There are   212 symmetry adapted cartesian basis functions of A   symmetry.
 There are   198 symmetry adapted basis functions of A   symmetry.
   198 basis functions,   305 primitive gaussians,   212 cartesian basis functions
    28 alpha electrons       28 beta electrons
       nuclear repulsion energy       337.2432596841 Hartrees.
 NAtoms=    8 NActive=    8 NUniq=    8 SFac= 1.00D+00 NAtFMM=   60 NAOKFM=F Big=F
 Integral buffers will be    131072 words long.
 Raffenetti 2 integral format.
 Two-electron integral symmetry is turned on.
 Nuclear repulsion after empirical dispersion term =      337.2414731684 Hartrees.
 One-electron integrals computed using PRISM.
 NBasis=   198 RedAO= T EigKep=  1.30D-04  NBF=   198
 NBsUse=   198 1.00D-06 EigRej= -1.00D+00 NBFU=   198
 Lowest energy guess from the checkpoint file:  "tfa.chk"
 B after Tr=    -0.000000    0.000000    0.000000
         Rot=    0.996633    0.081431    0.009513    0.000853 Ang=   9.41 deg.
 B after Tr=    -0.000000    0.000000   -0.000000
         Rot=    0.997903   -0.064538   -0.004960   -0.000523 Ang=  -7.42 deg.
 Keep R1 ints in memory in canonical form, NReq=396510994.
 Requested convergence on RMS density matrix=1.00D-08 within  32 cycles.
 Requested convergence on MAX density matrix=1.00D-06.
 Requested convergence on             energy=1.00D-06.
 No special actions if energy rises.
 SCF Done:  E(RwB97XD) =  -526.822039741     A.U. after   12 cycles
            NFock= 12  Conv=0.92D-08     -V/T= 2.0026
 QCSCF skips out because SCF is already converged.
 Calling FoFJK, ICntrl=      2127 FMM=F ISym2X=0 I1Cent= 0 IOpClX= 0 NMat=1 NMatS=1 NMatT=0.
 ***** Axes restored to original set *****
 -------------------------------------------------------------------
 Center     Atomic                   Forces (Hartrees/Bohr)
 Number     Number              X              Y              Z
 -------------------------------------------------------------------
      1        6           0.001716481    0.000721818   -0.000307910
      2        9          -0.001833808   -0.000619024   -0.000156542
      3        9          -0.001350831   -0.001171445   -0.000231715
      4        6          -0.000664787   -0.000923496    0.004515569
      5        8           0.000728355   -0.001027767   -0.002216622
      6        8           0.002213047    0.001466452   -0.000879890
      7        1           0.001156800   -0.000467312   -0.000223635
      8        9          -0.001965257    0.002020774   -0.000499255
 -------------------------------------------------------------------
 Cartesian Forces:  Max     0.004515569 RMS     0.001532871

 GradGradGradGradGradGradGradGradGradGradGradGradGradGradGradGradGradGrad
 Berny optimization.
 Using GEDIIS/GDIIS optimizer.
 FormGI is forming the generalized inverse of G from B-inverse, IUseBI=4.
 Internal  Forces:  Max     0.003774439 RMS     0.001867657
 Search for a local minimum.
 Step number   9 out of a maximum of   35
 All quantities printed in internal units (Hartrees-Bohrs-Radians)
 Mixed Optimization -- RFO/linear search
 Update second derivatives using D2CorX and points    1    2    3    5    4
                                                      7    9    6
 ITU=  0 -1  0  1  0  0  1 -1  0
 Use linear search instead of GDIIS.
 Energy rises -- skip Quadratic/GDIIS search.
 Quartic linear search produced a step of -0.69716.
 Iteration  1 RMS(Cart)=  0.09370046 RMS(Int)=  0.00376975
 Iteration  2 RMS(Cart)=  0.00482941 RMS(Int)=  0.00003369
 Iteration  3 RMS(Cart)=  0.00001024 RMS(Int)=  0.00003308
 Iteration  4 RMS(Cart)=  0.00000000 RMS(Int)=  0.00003308
 Variable       Old X    -DE/DX   Delta X   Delta X   Delta X     New X
                                 (Linear)    (Quad)   (Total)
    R1        2.52322  -0.00053  -0.00504   0.00000  -0.00504   2.51818
    R2        2.50675   0.00023   0.00478   0.00000   0.00478   2.51152
    R3        2.93318  -0.00337  -0.00456   0.00000  -0.00456   2.92862
    R4        2.50777   0.00136   0.00060   0.00000   0.00060   2.50836
    R5        2.24981   0.00089   0.00043   0.00000   0.00043   2.25025
    R6        2.50906  -0.00091  -0.00060   0.00000  -0.00060   2.50846
    R7        1.82455  -0.00105  -0.00082   0.00000  -0.00082   1.82373
    A1        1.89237   0.00160   0.00103   0.00000   0.00103   1.89340
    A2        1.90261  -0.00216   0.00221   0.00000   0.00221   1.90482
    A3        1.88359   0.00297   0.00588   0.00000   0.00588   1.88947
    A4        1.91852  -0.00173  -0.00722   0.00000  -0.00721   1.91131
    A5        1.88912   0.00288   0.00261   0.00000   0.00262   1.89174
    A6        1.97571  -0.00326  -0.00416   0.00000  -0.00415   1.97155
    A7        2.12240   0.00056  -0.00057   0.00000  -0.00048   2.12192
    A8        1.96259  -0.00377  -0.00356   0.00000  -0.00347   1.95912
    A9        2.19663   0.00330   0.00522   0.00000   0.00531   2.20194
   A10        1.88284  -0.00128  -0.00298   0.00000  -0.00298   1.87987
    D1       -1.29966  -0.00084   0.15291   0.00000   0.15291  -1.14675
    D2        1.78506   0.00085   0.18913   0.00000   0.18913   1.97420
    D3        0.77232  -0.00121   0.15122   0.00000   0.15122   0.92354
    D4       -2.42615   0.00048   0.18743   0.00000   0.18745  -2.23870
    D5        2.88709  -0.00098   0.14664   0.00000   0.14662   3.03371
    D6       -0.31138   0.00071   0.18285   0.00000   0.18285  -0.12853
    D7       -3.08396  -0.00092  -0.03545   0.00000  -0.03543  -3.11939
    D8       -0.00214   0.00074   0.00258   0.00000   0.00255   0.00041
         Item               Value     Threshold  Converged?
 Maximum Force            0.003774     0.000450     NO 
 RMS     Force            0.001868     0.000300     NO 
 Maximum Displacement     0.254481     0.001800     NO 
 RMS     Displacement     0.093737     0.001200     NO 
 Predicted change in Energy=-1.498059D-05
 GradGradGradGradGradGradGradGradGradGradGradGradGradGradGradGradGradGrad

                          Input orientation:                          
 ---------------------------------------------------------------------
 Center     Atomic      Atomic             Coordinates (Angstroms)
 Number     Number       Type             X           Y           Z
 ---------------------------------------------------------------------
      1          6           0        0.600579    0.020118   -0.006479
      2          9           0        1.078379   -0.513060    1.117424
      3          9           0        1.128009   -0.630017   -1.038707
      4          6           0       -0.940973   -0.137652   -0.028380
      5          8           0       -1.457315   -1.208782   -0.091846
      6          8           0       -1.566941    1.029858    0.056018
      7          1           0       -2.515989    0.854699    0.057092
      8          9           0        0.992334    1.287003   -0.065095
 ---------------------------------------------------------------------
                    Distance matrix (angstroms):
                    1          2          3          4          5
     1  C    0.000000
     2  F    1.332564   0.000000
     3  F    1.329042   2.159871   0.000000
     4  C    1.549760   2.351931   2.354543   0.000000
     5  O    2.398418   2.894150   2.813434   1.190779   0.000000
     6  O    2.391992   3.241125   3.349084   1.327418   2.246194
     7  H    3.227006   3.989304   4.084590   1.863529   2.323990
     8  F    1.327368   2.155454   2.154366   2.401805   3.497205
                    6          7          8
     6  O    0.000000
     7  H    0.965077   0.000000
     8  F    2.575011   3.536969   0.000000
 Stoichiometry    C2HF3O2
 Framework group  C1[X(C2HF3O2)]
 Deg. of freedom    18
 Full point group                 C1      NOp   1
 Largest Abelian subgroup         C1      NOp   1
 Largest concise Abelian subgroup C1      NOp   1
                         Standard orientation:                         
 ---------------------------------------------------------------------
 Center     Atomic      Atomic             Coordinates (Angstroms)
 Number     Number       Type             X           Y           Z
 ---------------------------------------------------------------------
      1          6           0        0.599934    0.019683   -0.002961
      2          9           0        1.079206   -0.437339    1.153394
      3          9           0        1.125932   -0.698005   -0.990180
      4          6           0       -0.941657   -0.138953   -0.012221
      5          8           0       -1.458157   -1.211849   -0.003337
      6          8           0       -1.567430    1.031685   -0.005128
      7          1           0       -2.516488    0.857140    0.008906
      8          9           0        0.991697    1.279765   -0.146558
 ---------------------------------------------------------------------
 Rotational constants (GHZ):           3.8953430           2.4817919           2.0648730
 Standard basis: 6-311+G(2d,2p) (5D, 7F)
 There are   212 symmetry adapted cartesian basis functions of A   symmetry.
 There are   198 symmetry adapted basis functions of A   symmetry.
   198 basis functions,   305 primitive gaussians,   212 cartesian basis functions
    28 alpha electrons       28 beta electrons
       nuclear repulsion energy       337.4622366341 Hartrees.
 NAtoms=    8 NActive=    8 NUniq=    8 SFac= 1.00D+00 NAtFMM=   60 NAOKFM=F Big=F
 Integral buffers will be    131072 words long.
 Raffenetti 2 integral format.
 Two-electron integral symmetry is turned on.
 Nuclear repulsion after empirical dispersion term =      337.4604529816 Hartrees.
 One-electron integrals computed using PRISM.
 NBasis=   198 RedAO= T EigKep=  1.31D-04  NBF=   198
 NBsUse=   198 1.00D-06 EigRej= -1.00D+00 NBFU=   198
 Lowest energy guess from the checkpoint file:  "tfa.chk"
 B after Tr=    -0.000000    0.000000   -0.000000
         Rot=    0.999695    0.024525    0.002906    0.000219 Ang=   2.83 deg.
 B after Tr=     0.000000    0.000000   -0.000000
         Rot=    0.998357   -0.056904   -0.006620   -0.000637 Ang=  -6.57 deg.
 Keep R1 ints in memory in canonical form, NReq=396510994.
 Requested convergence on RMS density matrix=1.00D-08 within  32 cycles.
 Requested convergence on MAX density matrix=1.00D-06.
 Requested convergence on             energy=1.00D-06.
 No special actions if energy rises.
 SCF Done:  E(RwB97XD) =  -526.822066476     A.U. after    9 cycles
            NFock=  9  Conv=0.65D-08     -V/T= 2.0026
 QCSCF skips out because SCF is already converged.
 Calling FoFJK, ICntrl=      2127 FMM=F ISym2X=0 I1Cent= 0 IOpClX= 0 NMat=1 NMatS=1 NMatT=0.
 ***** Axes restored to original set *****
 -------------------------------------------------------------------
 Center     Atomic                   Forces (Hartrees/Bohr)
 Number     Number              X              Y              Z
 -------------------------------------------------------------------
      1        6           0.000738813    0.000256327   -0.000298266
      2        9          -0.000713324   -0.000304243    0.000047688
      3        9          -0.000547475   -0.000461585   -0.000063735
      4        6          -0.000357818   -0.000009962    0.001453200
      5        8           0.000403489   -0.000490165   -0.000687715
      6        8           0.000810135    0.000516815   -0.000288229
      7        1           0.000456392   -0.000223290   -0.000039315
      8        9          -0.000790212    0.000716104   -0.000123626
 -------------------------------------------------------------------
 Cartesian Forces:  Max     0.001453200 RMS     0.000553613

 GradGradGradGradGradGradGradGradGradGradGradGradGradGradGradGradGradGrad
 Berny optimization.
 Using GEDIIS/GDIIS optimizer.
 FormGI is forming the generalized inverse of G from B-inverse, IUseBI=4.
 Internal  Forces:  Max     0.001299966 RMS     0.000704214
 Search for a local minimum.
 Step number  10 out of a maximum of   35
 All quantities printed in internal units (Hartrees-Bohrs-Radians)
 Mixed Optimization -- En-DIIS/RFO-DIIS
 Update second derivatives using D2CorX and points    1    2    3    5    4
                                                      7    9    6   10
 ITU=  0  0 -1  0  1  0  0  1 -1  0
 Use linear search instead of GDIIS.
     Eigenvalues ---    0.00000   0.02475   0.05998   0.10092   0.11193
     Eigenvalues ---    0.16159   0.21505   0.24597   0.25500   0.26962
     Eigenvalues ---    0.30867   0.52589   0.55363   0.58817   0.59788
     Eigenvalues ---    0.60466   1.06757   3.82488
 RFO step:  Lambda=-2.82566751D-05 EMin= 9.20328287D-08
 Quartic linear search produced a step of -0.00876.
 Iteration  1 RMS(Cart)=  0.11071252 RMS(Int)=  0.08138397
 Iteration  2 RMS(Cart)=  0.09001676 RMS(Int)=  0.00364024
 Iteration  3 RMS(Cart)=  0.00442722 RMS(Int)=  0.00015496
 Iteration  4 RMS(Cart)=  0.00000942 RMS(Int)=  0.00015485
 Iteration  5 RMS(Cart)=  0.00000000 RMS(Int)=  0.00015485
 Variable       Old X    -DE/DX   Delta X   Delta X   Delta X     New X
                                 (Linear)    (Quad)   (Total)
    R1        2.51818  -0.00009  -0.00002   0.01076   0.01074   2.52892
    R2        2.51152   0.00006   0.00002  -0.01021  -0.01019   2.50133
    R3        2.92862  -0.00129  -0.00002   0.00986   0.00985   2.93847
    R4        2.50836   0.00046   0.00000  -0.00131  -0.00130   2.50706
    R5        2.25025   0.00030   0.00000  -0.00091  -0.00091   2.24934
    R6        2.50846  -0.00036  -0.00000   0.00132   0.00131   2.50977
    R7        1.82373  -0.00041  -0.00000   0.00176   0.00176   1.82549
    A1        1.89340   0.00064   0.00000  -0.00235  -0.00234   1.89105
    A2        1.90482  -0.00093   0.00001  -0.00505  -0.00504   1.89978
    A3        1.88947   0.00119   0.00002  -0.01285  -0.01282   1.87665
    A4        1.91131  -0.00070  -0.00003   0.01603   0.01594   1.92725
    A5        1.89174   0.00113   0.00001  -0.00559  -0.00570   1.88604
    A6        1.97155  -0.00123  -0.00002   0.00911   0.00903   1.98058
    A7        2.12192  -0.00003  -0.00000   0.00156   0.00114   2.12307
    A8        1.95912  -0.00126  -0.00001   0.00833   0.00791   1.96702
    A9        2.20194   0.00130   0.00002  -0.01090  -0.01127   2.19067
   A10        1.87987  -0.00056  -0.00001   0.00648   0.00647   1.88634
    D1       -1.14675  -0.00025   0.00058  -0.34525  -0.34462  -1.49137
    D2        1.97420   0.00026   0.00072  -0.39556  -0.39489   1.57930
    D3        0.92354  -0.00043   0.00058  -0.34167  -0.34109   0.58245
    D4       -2.23870   0.00007   0.00071  -0.39197  -0.39136  -2.63006
    D5        3.03371  -0.00031   0.00056  -0.33140  -0.33074   2.70297
    D6       -0.12853   0.00020   0.00070  -0.38170  -0.38101  -0.50954
    D7       -3.11939  -0.00027  -0.00014   0.06187   0.06156  -3.05783
    D8        0.00041   0.00024   0.00001   0.00898   0.00917   0.00958
         Item               Value     Threshold  Converged?
 Maximum Force            0.001300     0.000450     NO 
 RMS     Force            0.000704     0.000300     NO 
 Maximum Displacement     0.546809     0.001800     NO 
 RMS     Displacement     0.199140     0.001200     NO 
 Predicted change in Energy=-2.530225D-05
 GradGradGradGradGradGradGradGradGradGradGradGradGradGradGradGradGradGrad

                          Input orientation:                          
 ---------------------------------------------------------------------
 Center     Atomic      Atomic             Coordinates (Angstroms)
 Number     Number       Type             X           Y           Z
 ---------------------------------------------------------------------
      1          6           0        0.603114    0.020837   -0.025130
      2          9           0        1.002691   -0.337989    1.200630
      3          9           0        1.187725   -0.777457   -0.904334
      4          6           0       -0.943287   -0.118225   -0.110219
      5          8           0       -1.463134   -1.154146   -0.381205
      6          8           0       -1.577826    0.997298    0.231621
      7          1           0       -2.526536    0.815332    0.229090
      8          9           0        1.035337    1.256517   -0.240427
 ---------------------------------------------------------------------
                    Distance matrix (angstroms):
                    1          2          3          4          5
     1  C    0.000000
     2  F    1.338247   0.000000
     3  F    1.323648   2.158296   0.000000
     4  C    1.554970   2.356577   2.367787   0.000000
     5  O    2.403488   3.041153   2.728116   1.190297   0.000000
     6  O    2.403309   3.062848   3.476841   1.328113   2.239959
     7  H    3.238912   3.837901   4.197304   1.869047   2.319940
     8  F    1.326678   2.149456   2.145005   2.412845   3.474690
                    6          7          8
     6  O    0.000000
     7  H    0.966006   0.000000
     8  F    2.668079   3.619672   0.000000
 Stoichiometry    C2HF3O2
 Framework group  C1[X(C2HF3O2)]
 Deg. of freedom    18
 Full point group                 C1      NOp   1
 Largest Abelian subgroup         C1      NOp   1
 Largest concise Abelian subgroup C1      NOp   1
                         Standard orientation:                         
 ---------------------------------------------------------------------
 Center     Atomic      Atomic             Coordinates (Angstroms)
 Number     Number       Type             X           Y           Z
 ---------------------------------------------------------------------
      1          6           0        0.600641    0.014055   -0.010951
      2          9           0        1.008929    0.012788    1.263492
      3          9           0        1.179188   -0.999876   -0.634866
      4          6           0       -0.946294   -0.140518   -0.043050
      5          8           0       -1.467841   -1.209927   -0.008981
      6          8           0       -1.578621    1.027244   -0.023560
      7          1           0       -2.527290    0.853578    0.031537
      8          9           0        1.031095    1.138940   -0.567205
 ---------------------------------------------------------------------
 Rotational constants (GHZ):           3.9184003           2.4569259           2.0510173
 Standard basis: 6-311+G(2d,2p) (5D, 7F)
 There are   212 symmetry adapted cartesian basis functions of A   symmetry.
 There are   198 symmetry adapted basis functions of A   symmetry.
   198 basis functions,   305 primitive gaussians,   212 cartesian basis functions
    28 alpha electrons       28 beta electrons
       nuclear repulsion energy       336.9907414714 Hartrees.
 NAtoms=    8 NActive=    8 NUniq=    8 SFac= 1.00D+00 NAtFMM=   60 NAOKFM=F Big=F
 Integral buffers will be    131072 words long.
 Raffenetti 2 integral format.
 Two-electron integral symmetry is turned on.
 Nuclear repulsion after empirical dispersion term =      336.9889515115 Hartrees.
 One-electron integrals computed using PRISM.
 NBasis=   198 RedAO= T EigKep=  1.27D-04  NBF=   198
 NBsUse=   198 1.00D-06 EigRej= -1.00D+00 NBFU=   198
 Initial guess from the checkpoint file:  "tfa.chk"
 B after Tr=    -0.000000   -0.000000    0.000000
         Rot=    0.992301    0.123194    0.012695    0.001252 Ang=  14.23 deg.
 ExpMin= 4.38D-02 ExpMax= 1.14D+04 ExpMxC= 1.72D+03 IAcc=3 IRadAn=         5 AccDes= 0.00D+00
 Harris functional with IExCor= 4639 and IRadAn=       5 diagonalized for initial guess.
 HarFok:  IExCor= 4639 AccDes= 0.00D+00 IRadAn=         5 IDoV= 1 UseB2=F ITyADJ=14
 ICtDFT=  3500011 ScaDFX=  1.000000  1.000000  1.000000  1.000000
 FoFCou: FMM=F IPFlag=           0 FMFlag=      100000 FMFlg1=           0
         NFxFlg=           0 DoJE=T BraDBF=F KetDBF=T FulRan=T
         wScrn=  0.000000 ICntrl=       500 IOpCl=  0 I1Cent=   200000004 NGrid=           0
         NMat0=    1 NMatS0=      1 NMatT0=    0 NMatD0=    1 NMtDS0=    0 NMtDT0=    0
 Petite list used in FoFCou.
 Keep R1 ints in memory in canonical form, NReq=396510994.
 Requested convergence on RMS density matrix=1.00D-08 within  32 cycles.
 Requested convergence on MAX density matrix=1.00D-06.
 Requested convergence on             energy=1.00D-06.
 No special actions if energy rises.
 SCF Done:  E(RwB97XD) =  -526.822009957     A.U. after   14 cycles
            NFock= 14  Conv=0.52D-08     -V/T= 2.0027
 QCSCF skips out because SCF is already converged.
 Calling FoFJK, ICntrl=      2127 FMM=F ISym2X=0 I1Cent= 0 IOpClX= 0 NMat=1 NMatS=1 NMatT=0.
 ***** Axes restored to original set *****
 -------------------------------------------------------------------
 Center     Atomic                   Forces (Hartrees/Bohr)
 Number     Number              X              Y              Z
 -------------------------------------------------------------------
      1        6           0.002794932    0.001316303    0.001790410
      2        9          -0.002817690   -0.001070855   -0.000444724
      3        9          -0.002598053   -0.001882307   -0.000504061
      4        6          -0.000987536   -0.002284758    0.004283669
      5        8           0.000911176   -0.001550741   -0.002799344
      6        8           0.004050979    0.002425232   -0.000375567
      7        1           0.001982942   -0.000652307   -0.000615383
      8        9          -0.003336749    0.003699432   -0.001334998
 -------------------------------------------------------------------
 Cartesian Forces:  Max     0.004283669 RMS     0.002254336

 GradGradGradGradGradGradGradGradGradGradGradGradGradGradGradGradGradGrad
 Berny optimization.
 Using GEDIIS/GDIIS optimizer.
 FormGI is forming the generalized inverse of G from B-inverse, IUseBI=4.
 Internal  Forces:  Max     0.007210908 RMS     0.003238038
 Search for a local minimum.
 Step number  11 out of a maximum of   35
 All quantities printed in internal units (Hartrees-Bohrs-Radians)
 Mixed Optimization -- RFO/linear search
 Update second derivatives using D2CorX and points    1    2    3    5    4
                                                      7    9    6   11   10
 DE=  5.65D-05 DEPred=-2.53D-05 R=-2.23D+00
 Trust test=-2.23D+00 RLast= 8.97D-01 DXMaxT set to 6.31D-02
 ITU= -1  0  0 -1  0  1  0  0  1 -1  0
 Use linear search instead of GDIIS.
     Eigenvalues ---    0.00013   0.01970   0.02636   0.09463   0.11176
     Eigenvalues ---    0.16054   0.21413   0.24325   0.25473   0.26979
     Eigenvalues ---    0.29730   0.52437   0.55139   0.58729   0.59789
     Eigenvalues ---    0.60468   1.06235   2.17929
 RFO step:  Lambda=-1.91093298D-04 EMin= 1.32812095D-04
 Quartic linear search produced a step of -0.60770.
 Iteration  1 RMS(Cart)=  0.02065965 RMS(Int)=  0.00039979
 Iteration  2 RMS(Cart)=  0.00047387 RMS(Int)=  0.00021982
 Iteration  3 RMS(Cart)=  0.00000004 RMS(Int)=  0.00021982
 Variable       Old X    -DE/DX   Delta X   Delta X   Delta X     New X
                                 (Linear)    (Quad)   (Total)
    R1        2.52892  -0.00096  -0.00653   0.00678   0.00026   2.52918
    R2        2.50133   0.00032   0.00619  -0.00717  -0.00097   2.50036
    R3        2.93847  -0.00577  -0.00598   0.00300  -0.00299   2.93548
    R4        2.50706   0.00258   0.00079  -0.00083  -0.00003   2.50702
    R5        2.24934   0.00159   0.00055  -0.00034   0.00022   2.24955
    R6        2.50977  -0.00165  -0.00080   0.00064  -0.00016   2.50961
    R7        1.82549  -0.00182  -0.00107   0.00043  -0.00064   1.82485
    A1        1.89105   0.00275   0.00142  -0.00173  -0.00032   1.89074
    A2        1.89978  -0.00286   0.00306  -0.00791  -0.00486   1.89492
    A3        1.87665   0.00500   0.00779  -0.00427   0.00351   1.88016
    A4        1.92725  -0.00349  -0.00968   0.00920  -0.00044   1.92680
    A5        1.88604   0.00509   0.00346  -0.00119   0.00235   1.88839
    A6        1.98058  -0.00588  -0.00549   0.00531  -0.00014   1.98044
    A7        2.12307   0.00171  -0.00069  -0.00281  -0.00413   2.11893
    A8        1.96702  -0.00721  -0.00481   0.00689   0.00146   1.96848
    A9        2.19067   0.00562   0.00685  -0.00112   0.00510   2.19577
   A10        1.88634  -0.00209  -0.00393  -0.00010  -0.00404   1.88230
    D1       -1.49137  -0.00082   0.20943  -0.22756  -0.01811  -1.50948
    D2        1.57930   0.00118   0.23998  -0.18444   0.05551   1.63481
    D3        0.58245  -0.00128   0.20728  -0.22905  -0.02171   0.56074
    D4       -2.63006   0.00071   0.23783  -0.18593   0.05191  -2.57815
    D5        2.70297  -0.00138   0.20099  -0.22007  -0.01909   2.68389
    D6       -0.50954   0.00061   0.23154  -0.17695   0.05453  -0.45501
    D7       -3.05783  -0.00121  -0.03741   0.00176  -0.03573  -3.09355
    D8        0.00958   0.00066  -0.00557   0.04680   0.04130   0.05088
         Item               Value     Threshold  Converged?
 Maximum Force            0.007211     0.000450     NO 
 RMS     Force            0.003238     0.000300     NO 
 Maximum Displacement     0.056630     0.001800     NO 
 RMS     Displacement     0.020662     0.001200     NO 
 Predicted change in Energy=-1.305193D-04
 GradGradGradGradGradGradGradGradGradGradGradGradGradGradGradGradGradGrad

                          Input orientation:                          
 ---------------------------------------------------------------------
 Center     Atomic      Atomic             Coordinates (Angstroms)
 Number     Number       Type             X           Y           Z
 ---------------------------------------------------------------------
      1          6           0        0.602635    0.020325   -0.020803
      2          9           0        1.019268   -0.352059    1.195345
      3          9           0        1.174668   -0.768189   -0.916182
      4          6           0       -0.942815   -0.124833   -0.080252
      5          8           0       -1.458098   -1.157418   -0.372366
      6          8           0       -1.577233    1.002485    0.220294
      7          1           0       -2.525682    0.821618    0.204450
      8          9           0        1.025343    1.260240   -0.230459
 ---------------------------------------------------------------------
                    Distance matrix (angstroms):
                    1          2          3          4          5
     1  C    0.000000
     2  F    1.338383   0.000000
     3  F    1.323133   2.157744   0.000000
     4  C    1.553390   2.351287   2.365676   0.000000
     5  O    2.399436   3.040340   2.716375   1.190411   0.000000
     6  O    2.403038   3.086638   3.464077   1.328029   2.242905
     7  H    3.237155   3.863426   4.180417   1.866090   2.321429
     8  F    1.326660   2.152315   2.146401   2.411356   3.468817
                    6          7          8
     6  O    0.000000
     7  H    0.965670   0.000000
     8  F    2.653869   3.604346   0.000000
 Stoichiometry    C2HF3O2
 Framework group  C1[X(C2HF3O2)]
 Deg. of freedom    18
 Full point group                 C1      NOp   1
 Largest Abelian subgroup         C1      NOp   1
 Largest concise Abelian subgroup C1      NOp   1
                         Standard orientation:                         
 ---------------------------------------------------------------------
 Center     Atomic      Atomic             Coordinates (Angstroms)
 Number     Number       Type             X           Y           Z
 ---------------------------------------------------------------------
      1          6           0        0.600347    0.016000   -0.010109
      2          9           0        1.029550   -0.016231    1.257178
      3          9           0        1.165988   -0.983877   -0.666596
      4          6           0       -0.945196   -0.139911   -0.013110
      5          8           0       -1.460410   -1.213053   -0.012224
      6          8           0       -1.579806    1.026659   -0.019920
      7          1           0       -2.527864    0.848101    0.022755
      8          9           0        1.017650    1.154164   -0.549059
 ---------------------------------------------------------------------
 Rotational constants (GHZ):           3.9114715           2.4635332           2.0549645
 Standard basis: 6-311+G(2d,2p) (5D, 7F)
 There are   212 symmetry adapted cartesian basis functions of A   symmetry.
 There are   198 symmetry adapted basis functions of A   symmetry.
   198 basis functions,   305 primitive gaussians,   212 cartesian basis functions
    28 alpha electrons       28 beta electrons
       nuclear repulsion energy       337.1278559264 Hartrees.
 NAtoms=    8 NActive=    8 NUniq=    8 SFac= 1.00D+00 NAtFMM=   60 NAOKFM=F Big=F
 Integral buffers will be    131072 words long.
 Raffenetti 2 integral format.
 Two-electron integral symmetry is turned on.
 Nuclear repulsion after empirical dispersion term =      337.1260690018 Hartrees.
 One-electron integrals computed using PRISM.
 NBasis=   198 RedAO= T EigKep=  1.25D-04  NBF=   198
 NBsUse=   198 1.00D-06 EigRej= -1.00D+00 NBFU=   198
 Lowest energy guess from the checkpoint file:  "tfa.chk"
 B after Tr=    -0.000000   -0.000000    0.000000
         Rot=    0.993299    0.115212    0.009098   -0.000025 Ang=  13.27 deg.
 B after Tr=     0.000000   -0.000000    0.000000
         Rot=    0.999961   -0.007973   -0.003668   -0.000843 Ang=  -1.01 deg.
 Keep R1 ints in memory in canonical form, NReq=396510994.
 Requested convergence on RMS density matrix=1.00D-08 within  32 cycles.
 Requested convergence on MAX density matrix=1.00D-06.
 Requested convergence on             energy=1.00D-06.
 No special actions if energy rises.
 SCF Done:  E(RwB97XD) =  -526.822084761     A.U. after   13 cycles
            NFock= 13  Conv=0.32D-08     -V/T= 2.0026
 QCSCF skips out because SCF is already converged.
 Calling FoFJK, ICntrl=      2127 FMM=F ISym2X=0 I1Cent= 0 IOpClX= 0 NMat=1 NMatS=1 NMatT=0.
 ***** Axes restored to original set *****
 -------------------------------------------------------------------
 Center     Atomic                   Forces (Hartrees/Bohr)
 Number     Number              X              Y              Z
 -------------------------------------------------------------------
      1        6           0.001987338    0.000536012    0.004614537
      2        9          -0.001368632   -0.000678015    0.000093680
      3        9          -0.002290006   -0.001487129   -0.000761159
      4        6          -0.000087602    0.000128096   -0.005976460
      5        8          -0.000097796   -0.001819432    0.001221756
      6        8           0.003500625    0.000635780    0.002396051
      7        1           0.001396337   -0.000299191   -0.000505621
      8        9          -0.003040265    0.002983879   -0.001082784
 -------------------------------------------------------------------
 Cartesian Forces:  Max     0.005976460 RMS     0.002202990

 GradGradGradGradGradGradGradGradGradGradGradGradGradGradGradGradGradGrad
 Berny optimization.
 Using GEDIIS/GDIIS optimizer.
 FormGI is forming the generalized inverse of G from B-inverse, IUseBI=4.
 Internal  Forces:  Max     0.006657264 RMS     0.002720284
 Search for a local minimum.
 Step number  12 out of a maximum of   35
 All quantities printed in internal units (Hartrees-Bohrs-Radians)
 Mixed Optimization -- RFO/linear search
 Update second derivatives using D2CorX and points    8    7    9   11   10
                                                     12
 DE= -1.83D-05 DEPred=-1.31D-04 R= 1.40D-01
 Trust test= 1.40D-01 RLast= 8.52D-01 DXMaxT set to 6.31D-02
 ITU=  0 -1  0  0 -1  0  1  0  0  1 -1  0
 Use linear search instead of GDIIS.
     Eigenvalues ---    0.00007   0.02553   0.05853   0.10059   0.11346
     Eigenvalues ---    0.15705   0.22213   0.23054   0.25559   0.26450
     Eigenvalues ---    0.27113   0.52312   0.54630   0.58467   0.59821
     Eigenvalues ---    0.60527   0.95703   1.21008
 RFO step:  Lambda=-1.91478556D-04 EMin= 7.33829633D-05
 Quartic linear search produced a step of -0.38421.
 Iteration  1 RMS(Cart)=  0.04795695 RMS(Int)=  0.00098923
 Iteration  2 RMS(Cart)=  0.00124213 RMS(Int)=  0.00002001
 Iteration  3 RMS(Cart)=  0.00000065 RMS(Int)=  0.00002000
 Variable       Old X    -DE/DX   Delta X   Delta X   Delta X     New X
                                 (Linear)    (Quad)   (Total)
    R1        2.52918  -0.00015  -0.00422   0.00814   0.00391   2.53309
    R2        2.50036   0.00041   0.00429  -0.00738  -0.00309   2.49727
    R3        2.93548  -0.00445  -0.00264   0.00011  -0.00252   2.93296
    R4        2.50702   0.00199   0.00051   0.00009   0.00060   2.50763
    R5        2.24955   0.00132   0.00027  -0.00088  -0.00062   2.24894
    R6        2.50961  -0.00163  -0.00044  -0.00022  -0.00066   2.50895
    R7        1.82485  -0.00131  -0.00043   0.00081   0.00038   1.82523
    A1        1.89074   0.00213   0.00102   0.00476   0.00575   1.89649
    A2        1.89492  -0.00060   0.00380  -0.01268  -0.00890   1.88602
    A3        1.88016   0.00364   0.00358   0.00121   0.00477   1.88493
    A4        1.92680  -0.00342  -0.00595   0.00207  -0.00387   1.92294
    A5        1.88839   0.00433   0.00129   0.00396   0.00529   1.89369
    A6        1.98044  -0.00560  -0.00342   0.00094  -0.00246   1.97798
    A7        2.11893   0.00271   0.00115  -0.00260  -0.00145   2.11748
    A8        1.96848  -0.00666  -0.00360   0.00001  -0.00360   1.96489
    A9        2.19577   0.00395   0.00237   0.00260   0.00497   2.20073
   A10        1.88230  -0.00122  -0.00093  -0.00445  -0.00539   1.87691
    D1       -1.50948   0.00079   0.13936  -0.21813  -0.07878  -1.58826
    D2        1.63481  -0.00079   0.13039  -0.22494  -0.09455   1.54026
    D3        0.56074   0.00102   0.13939  -0.21882  -0.07940   0.48134
    D4       -2.57815  -0.00056   0.13042  -0.22563  -0.09517  -2.67333
    D5        2.68389   0.00017   0.13440  -0.21148  -0.07711   2.60677
    D6       -0.45501  -0.00141   0.12543  -0.21830  -0.09289  -0.54789
    D7       -3.09355   0.00050  -0.00993   0.02592   0.01601  -3.07754
    D8        0.05088  -0.00115  -0.01939   0.01876  -0.00065   0.05023
         Item               Value     Threshold  Converged?
 Maximum Force            0.006657     0.000450     NO 
 RMS     Force            0.002720     0.000300     NO 
 Maximum Displacement     0.126137     0.001800     NO 
 RMS     Displacement     0.048007     0.001200     NO 
 Predicted change in Energy=-1.335953D-04
 GradGradGradGradGradGradGradGradGradGradGradGradGradGradGradGradGradGrad

                          Input orientation:                          
 ---------------------------------------------------------------------
 Center     Atomic      Atomic             Coordinates (Angstroms)
 Number     Number       Type             X           Y           Z
 ---------------------------------------------------------------------
      1          6           0        0.603191    0.021725   -0.025241
      2          9           0        0.990773   -0.310426    1.214223
      3          9           0        1.178377   -0.802489   -0.883255
      4          6           0       -0.940639   -0.118947   -0.100566
      5          8           0       -1.453212   -1.138239   -0.439115
      6          8           0       -1.571999    0.991324    0.261945
      7          1           0       -2.519784    0.806092    0.244615
      8          9           0        1.031377    1.253128   -0.272579
 ---------------------------------------------------------------------
                    Distance matrix (angstroms):
                    1          2          3          4          5
     1  C    0.000000
     2  F    1.340453   0.000000
     3  F    1.321498   2.162576   0.000000
     4  C    1.552054   2.344287   2.360098   0.000000
     5  O    2.396999   3.064615   2.689843   1.190085   0.000000
     6  O    2.398760   3.028066   3.477617   1.327679   2.245136
     7  H    3.231258   3.809299   4.187603   1.862404   2.320665
     8  F    1.326979   2.157992   2.149441   2.408532   3.452471
                    6          7          8
     6  O    0.000000
     7  H    0.965872   0.000000
     8  F    2.670547   3.616362   0.000000
 Stoichiometry    C2HF3O2
 Framework group  C1[X(C2HF3O2)]
 Deg. of freedom    18
 Full point group                 C1      NOp   1
 Largest Abelian subgroup         C1      NOp   1
 Largest concise Abelian subgroup C1      NOp   1
                         Standard orientation:                         
 ---------------------------------------------------------------------
 Center     Atomic      Atomic             Coordinates (Angstroms)
 Number     Number       Type             X           Y           Z
 ---------------------------------------------------------------------
      1          6           0        0.602072    0.014736   -0.011539
      2          9           0        1.002906    0.092662    1.265204
      3          9           0        1.170551   -1.039670   -0.569586
      4          6           0       -0.942098   -0.141124   -0.022423
      5          8           0       -1.455625   -1.214686   -0.014769
      6          8           0       -1.572420    1.027389   -0.024432
      7          1           0       -2.519888    0.847117    0.027674
      8          9           0        1.024809    1.103628   -0.641206
 ---------------------------------------------------------------------
 Rotational constants (GHZ):           3.8987026           2.4759430           2.0633782
 Standard basis: 6-311+G(2d,2p) (5D, 7F)
 There are   212 symmetry adapted cartesian basis functions of A   symmetry.
 There are   198 symmetry adapted basis functions of A   symmetry.
   198 basis functions,   305 primitive gaussians,   212 cartesian basis functions
    28 alpha electrons       28 beta electrons
       nuclear repulsion energy       337.3195796967 Hartrees.
 NAtoms=    8 NActive=    8 NUniq=    8 SFac= 1.00D+00 NAtFMM=   60 NAOKFM=F Big=F
 Integral buffers will be    131072 words long.
 Raffenetti 2 integral format.
 Two-electron integral symmetry is turned on.
 Nuclear repulsion after empirical dispersion term =      337.3177927654 Hartrees.
 One-electron integrals computed using PRISM.
 NBasis=   198 RedAO= T EigKep=  1.21D-04  NBF=   198
 NBsUse=   198 1.00D-06 EigRej= -1.00D+00 NBFU=   198
 Initial guess from the checkpoint file:  "tfa.chk"
 B after Tr=     0.000000    0.000000   -0.000000
         Rot=    0.999574    0.028980    0.003589    0.000329 Ang=   3.35 deg.
 ExpMin= 4.38D-02 ExpMax= 1.14D+04 ExpMxC= 1.72D+03 IAcc=3 IRadAn=         5 AccDes= 0.00D+00
 Harris functional with IExCor= 4639 and IRadAn=       5 diagonalized for initial guess.
 HarFok:  IExCor= 4639 AccDes= 0.00D+00 IRadAn=         5 IDoV= 1 UseB2=F ITyADJ=14
 ICtDFT=  3500011 ScaDFX=  1.000000  1.000000  1.000000  1.000000
 FoFCou: FMM=F IPFlag=           0 FMFlag=      100000 FMFlg1=           0
         NFxFlg=           0 DoJE=T BraDBF=F KetDBF=T FulRan=T
         wScrn=  0.000000 ICntrl=       500 IOpCl=  0 I1Cent=   200000004 NGrid=           0
         NMat0=    1 NMatS0=      1 NMatT0=    0 NMatD0=    1 NMtDS0=    0 NMtDT0=    0
 Petite list used in FoFCou.
 Keep R1 ints in memory in canonical form, NReq=396510994.
 Requested convergence on RMS density matrix=1.00D-08 within  32 cycles.
 Requested convergence on MAX density matrix=1.00D-06.
 Requested convergence on             energy=1.00D-06.
 No special actions if energy rises.
 SCF Done:  E(RwB97XD) =  -526.822283943     A.U. after   12 cycles
            NFock= 12  Conv=0.24D-08     -V/T= 2.0026
 QCSCF skips out because SCF is already converged.
 Calling FoFJK, ICntrl=      2127 FMM=F ISym2X=0 I1Cent= 0 IOpClX= 0 NMat=1 NMatS=1 NMatT=0.
 ***** Axes restored to original set *****
 -------------------------------------------------------------------
 Center     Atomic                   Forces (Hartrees/Bohr)
 Number     Number              X              Y              Z
 -------------------------------------------------------------------
      1        6          -0.000897245    0.000303905    0.005234807
      2        9           0.000014377    0.000017316   -0.001473668
      3        9          -0.000639339   -0.001013265   -0.000170267
      4        6           0.001634420   -0.000024433   -0.004708888
      5        8          -0.001519595   -0.001600434    0.000530931
      6        8           0.002198041   -0.000165306    0.001817473
      7        1           0.001282599    0.000432393   -0.000431533
      8        9          -0.002073257    0.002049824   -0.000798854
 -------------------------------------------------------------------
 Cartesian Forces:  Max     0.005234807 RMS     0.001839993

 GradGradGradGradGradGradGradGradGradGradGradGradGradGradGradGradGradGrad
 Berny optimization.
 Using GEDIIS/GDIIS optimizer.
 FormGI is forming the generalized inverse of G from B-inverse, IUseBI=4.
 Internal  Forces:  Max     0.006318666 RMS     0.002189786
 Search for a local minimum.
 Step number  13 out of a maximum of   35
 All quantities printed in internal units (Hartrees-Bohrs-Radians)
 Mixed Optimization -- RFO/linear search
 Update second derivatives using D2CorX and points    8   11   12   13
 DE= -1.99D-04 DEPred=-1.34D-04 R= 1.49D+00
 TightC=F SS=  1.41D+00  RLast= 2.14D-01 DXNew= 1.0607D-01 6.4080D-01
 Trust test= 1.49D+00 RLast= 2.14D-01 DXMaxT set to 1.06D-01
 ITU=  1  0 -1  0  0 -1  0  1  0  0  1 -1  0
 Use linear search instead of GDIIS.
     Eigenvalues ---    0.00006   0.02560   0.04631   0.10035   0.11496
     Eigenvalues ---    0.16217   0.22178   0.24670   0.25550   0.26721
     Eigenvalues ---    0.31485   0.50259   0.52848   0.57234   0.60169
     Eigenvalues ---    0.60404   0.65231   1.09954
 RFO step:  Lambda=-2.43226929D-04 EMin= 6.41443522D-05
 Quartic linear search produced a step of  1.06518.
 Iteration  1 RMS(Cart)=  0.07848829 RMS(Int)=  0.00279051
 Iteration  2 RMS(Cart)=  0.00339207 RMS(Int)=  0.00005035
 Iteration  3 RMS(Cart)=  0.00000571 RMS(Int)=  0.00005020
 Iteration  4 RMS(Cart)=  0.00000000 RMS(Int)=  0.00005020
 Variable       Old X    -DE/DX   Delta X   Delta X   Delta X     New X
                                 (Linear)    (Quad)   (Total)
    R1        2.53309  -0.00136   0.00417  -0.00097   0.00319   2.53628
    R2        2.49727   0.00046  -0.00329  -0.00064  -0.00393   2.49334
    R3        2.93296  -0.00332  -0.00269  -0.00373  -0.00642   2.92654
    R4        2.50763   0.00138   0.00064   0.00137   0.00201   2.50964
    R5        2.24894   0.00187  -0.00066   0.00072   0.00007   2.24900
    R6        2.50895  -0.00105  -0.00070  -0.00049  -0.00120   2.50775
    R7        1.82523  -0.00133   0.00041  -0.00098  -0.00058   1.82465
    A1        1.89649  -0.00005   0.00612  -0.00153   0.00456   1.90105
    A2        1.88602   0.00182  -0.00948   0.00502  -0.00451   1.88151
    A3        1.88493   0.00159   0.00508   0.00076   0.00579   1.89072
    A4        1.92294  -0.00102  -0.00412   0.00141  -0.00273   1.92021
    A5        1.89369   0.00245   0.00564   0.00180   0.00742   1.90111
    A6        1.97798  -0.00462  -0.00262  -0.00733  -0.00998   1.96800
    A7        2.11748   0.00403  -0.00155   0.01011   0.00843   2.12591
    A8        1.96489  -0.00632  -0.00383  -0.01199  -0.01596   1.94893
    A9        2.20073   0.00228   0.00529   0.00180   0.00695   2.20769
   A10        1.87691   0.00007  -0.00574   0.00256  -0.00318   1.87374
    D1       -1.58826   0.00031  -0.08391  -0.04989  -0.13380  -1.72206
    D2        1.54026  -0.00064  -0.10071  -0.05659  -0.15729   1.38297
    D3        0.48134   0.00076  -0.08457  -0.04794  -0.13252   0.34882
    D4       -2.67333  -0.00019  -0.10138  -0.05465  -0.15601  -2.82934
    D5        2.60677  -0.00005  -0.08214  -0.04971  -0.13187   2.47490
    D6       -0.54789  -0.00100  -0.09894  -0.05641  -0.15536  -0.70325
    D7       -3.07754   0.00007   0.01706  -0.00299   0.01410  -3.06344
    D8        0.05023  -0.00092  -0.00069  -0.01001  -0.01073   0.03950
         Item               Value     Threshold  Converged?
 Maximum Force            0.006319     0.000450     NO 
 RMS     Force            0.002190     0.000300     NO 
 Maximum Displacement     0.209370     0.001800     NO 
 RMS     Displacement     0.078700     0.001200     NO 
 Predicted change in Energy=-2.239556D-04
 GradGradGradGradGradGradGradGradGradGradGradGradGradGradGradGradGradGrad

                          Input orientation:                          
 ---------------------------------------------------------------------
 Center     Atomic      Atomic             Coordinates (Angstroms)
 Number     Number       Type             X           Y           Z
 ---------------------------------------------------------------------
      1          6           0        0.601477    0.022000   -0.029630
      2          9           0        0.951855   -0.238526    1.239506
      3          9           0        1.186591   -0.854461   -0.823556
      4          6           0       -0.937749   -0.113596   -0.133245
      5          8           0       -1.453729   -1.101798   -0.549908
      6          8           0       -1.556938    0.963852    0.332332
      7          1           0       -2.505474    0.785412    0.304834
      8          9           0        1.032051    1.239286   -0.340305
 ---------------------------------------------------------------------
                    Distance matrix (angstroms):
                    1          2          3          4          5
     1  C    0.000000
     2  F    1.342142   0.000000
     3  F    1.319416   2.165803   0.000000
     4  C    1.548657   2.338943   2.353344   0.000000
     5  O    2.399475   3.119948   2.665961   1.190120   0.000000
     6  O    2.382616   2.926213   3.488451   1.327046   2.248534
     7  H    3.216801   3.724941   4.194495   1.859540   2.323427
     8  F    1.328043   2.164755   2.154342   2.398598   3.421068
                    6          7          8
     6  O    0.000000
     7  H    0.965566   0.000000
     8  F    2.689083   3.624402   0.000000
 Stoichiometry    C2HF3O2
 Framework group  C1[X(C2HF3O2)]
 Deg. of freedom    18
 Full point group                 C1      NOp   1
 Largest Abelian subgroup         C1      NOp   1
 Largest concise Abelian subgroup C1      NOp   1
                         Standard orientation:                         
 ---------------------------------------------------------------------
 Center     Atomic      Atomic             Coordinates (Angstroms)
 Number     Number       Type             X           Y           Z
 ---------------------------------------------------------------------
      1          6           0        0.602759    0.009799   -0.012168
      2          9           0        0.971093    0.272583    1.251406
      3          9           0        1.176287   -1.113286   -0.400249
      4          6           0       -0.937821   -0.146721   -0.033461
      5          8           0       -1.459936   -1.216068   -0.016698
      6          8           0       -1.550040    1.030641   -0.026073
      7          1           0       -2.498918    0.861544    0.031845
      8          9           0        1.029187    1.001081   -0.786259
 ---------------------------------------------------------------------
 Rotational constants (GHZ):           3.8829803           2.4968078           2.0761702
 Standard basis: 6-311+G(2d,2p) (5D, 7F)
 There are   212 symmetry adapted cartesian basis functions of A   symmetry.
 There are   198 symmetry adapted basis functions of A   symmetry.
   198 basis functions,   305 primitive gaussians,   212 cartesian basis functions
    28 alpha electrons       28 beta electrons
       nuclear repulsion energy       337.7009132894 Hartrees.
 NAtoms=    8 NActive=    8 NUniq=    8 SFac= 1.00D+00 NAtFMM=   60 NAOKFM=F Big=F
 Integral buffers will be    131072 words long.
 Raffenetti 2 integral format.
 Two-electron integral symmetry is turned on.
 Nuclear repulsion after empirical dispersion term =      337.6991267646 Hartrees.
 One-electron integrals computed using PRISM.
 NBasis=   198 RedAO= T EigKep=  1.14D-04  NBF=   198
 NBsUse=   198 1.00D-06 EigRej= -1.00D+00 NBFU=   198
 Initial guess from the checkpoint file:  "tfa.chk"
 B after Tr=     0.000000   -0.000000   -0.000000
         Rot=    0.998835    0.048069    0.004106    0.001414 Ang=   5.53 deg.
 ExpMin= 4.38D-02 ExpMax= 1.14D+04 ExpMxC= 1.72D+03 IAcc=3 IRadAn=         5 AccDes= 0.00D+00
 Harris functional with IExCor= 4639 and IRadAn=       5 diagonalized for initial guess.
 HarFok:  IExCor= 4639 AccDes= 0.00D+00 IRadAn=         5 IDoV= 1 UseB2=F ITyADJ=14
 ICtDFT=  3500011 ScaDFX=  1.000000  1.000000  1.000000  1.000000
 FoFCou: FMM=F IPFlag=           0 FMFlag=      100000 FMFlg1=           0
         NFxFlg=           0 DoJE=T BraDBF=F KetDBF=T FulRan=T
         wScrn=  0.000000 ICntrl=       500 IOpCl=  0 I1Cent=   200000004 NGrid=           0
         NMat0=    1 NMatS0=      1 NMatT0=    0 NMatD0=    1 NMtDS0=    0 NMtDT0=    0
 Petite list used in FoFCou.
 Keep R1 ints in memory in canonical form, NReq=396510994.
 Requested convergence on RMS density matrix=1.00D-08 within  32 cycles.
 Requested convergence on MAX density matrix=1.00D-06.
 Requested convergence on             energy=1.00D-06.
 No special actions if energy rises.
 SCF Done:  E(RwB97XD) =  -526.822574888     A.U. after   12 cycles
            NFock= 12  Conv=0.42D-08     -V/T= 2.0026
 QCSCF skips out because SCF is already converged.
 Calling FoFJK, ICntrl=      2127 FMM=F ISym2X=0 I1Cent= 0 IOpClX= 0 NMat=1 NMatS=1 NMatT=0.
 ***** Axes restored to original set *****
 -------------------------------------------------------------------
 Center     Atomic                   Forces (Hartrees/Bohr)
 Number     Number              X              Y              Z
 -------------------------------------------------------------------
      1        6          -0.003230038   -0.000170929    0.005312892
      2        9           0.001355299    0.000682596   -0.002955332
      3        9           0.001333549   -0.000435474    0.000028627
      4        6           0.002628021   -0.000964107   -0.001957504
      5        8          -0.002227741   -0.000355269   -0.000426414
      6        8           0.000026129   -0.000568450    0.000615269
      7        1           0.000721113    0.001057134   -0.000201119
      8        9          -0.000606333    0.000754498   -0.000416420
 -------------------------------------------------------------------
 Cartesian Forces:  Max     0.005312892 RMS     0.001733543

 GradGradGradGradGradGradGradGradGradGradGradGradGradGradGradGradGradGrad
 Berny optimization.
 Using GEDIIS/GDIIS optimizer.
 FormGI is forming the generalized inverse of G from B-inverse, IUseBI=4.
 Internal  Forces:  Max     0.003957223 RMS     0.001728128
 Search for a local minimum.
 Step number  14 out of a maximum of   35
 All quantities printed in internal units (Hartrees-Bohrs-Radians)
 Mixed Optimization -- RFO/linear search
 Update second derivatives using D2CorX and points    8   11   12   13   14
 DE= -2.91D-04 DEPred=-2.24D-04 R= 1.30D+00
 TightC=F SS=  1.41D+00  RLast= 3.56D-01 DXNew= 1.7838D-01 1.0694D+00
 Trust test= 1.30D+00 RLast= 3.56D-01 DXMaxT set to 1.78D-01
 ITU=  1  1  0 -1  0  0 -1  0  1  0  0  1 -1  0
 Use linear search instead of GDIIS.
     Eigenvalues ---    0.00007   0.02428   0.04792   0.09879   0.11608
     Eigenvalues ---    0.16391   0.18788   0.22330   0.25040   0.25563
     Eigenvalues ---    0.27407   0.52638   0.54317   0.57250   0.59456
     Eigenvalues ---    0.60408   0.89185   1.10751
 RFO step:  Lambda=-1.63531188D-04 EMin= 6.65929863D-05
 Quartic linear search produced a step of  0.52528.
 Iteration  1 RMS(Cart)=  0.04077063 RMS(Int)=  0.00089274
 Iteration  2 RMS(Cart)=  0.00094281 RMS(Int)=  0.00002436
 Iteration  3 RMS(Cart)=  0.00000064 RMS(Int)=  0.00002435
 Variable       Old X    -DE/DX   Delta X   Delta X   Delta X     New X
                                 (Linear)    (Quad)   (Total)
    R1        2.53628  -0.00257   0.00168  -0.00334  -0.00166   2.53462
    R2        2.49334   0.00086  -0.00207   0.00228   0.00021   2.49355
    R3        2.92654  -0.00094  -0.00337  -0.00204  -0.00541   2.92113
    R4        2.50964   0.00059   0.00106   0.00156   0.00261   2.51225
    R5        2.24900   0.00141   0.00003   0.00009   0.00013   2.24913
    R6        2.50775   0.00019  -0.00063   0.00033  -0.00030   2.50745
    R7        1.82465  -0.00090  -0.00030  -0.00074  -0.00105   1.82361
    A1        1.90105  -0.00203   0.00240   0.00031   0.00270   1.90375
    A2        1.88151   0.00391  -0.00237   0.00834   0.00598   1.88749
    A3        1.89072  -0.00077   0.00304   0.00219   0.00524   1.89595
    A4        1.92021   0.00160  -0.00143  -0.00111  -0.00258   1.91762
    A5        1.90111  -0.00014   0.00390  -0.00017   0.00366   1.90477
    A6        1.96800  -0.00261  -0.00524  -0.00920  -0.01447   1.95353
    A7        2.12591   0.00396   0.00443   0.00793   0.01231   2.13822
    A8        1.94893  -0.00384  -0.00838  -0.00889  -0.01732   1.93161
    A9        2.20769  -0.00011   0.00365   0.00140   0.00501   2.21270
   A10        1.87374   0.00138  -0.00167   0.00281   0.00114   1.87487
    D1       -1.72206  -0.00047  -0.07028  -0.00792  -0.07821  -1.80026
    D2        1.38297  -0.00024  -0.08262   0.00433  -0.07829   1.30468
    D3        0.34882   0.00029  -0.06961  -0.00324  -0.07287   0.27594
    D4       -2.82934   0.00052  -0.08195   0.00901  -0.07296  -2.90229
    D5        2.47490  -0.00053  -0.06927  -0.01060  -0.07985   2.39506
    D6       -0.70325  -0.00030  -0.08161   0.00165  -0.07993  -0.78318
    D7       -3.06344  -0.00065   0.00741  -0.02114  -0.01374  -3.07718
    D8        0.03950  -0.00031  -0.00564  -0.00804  -0.01367   0.02583
         Item               Value     Threshold  Converged?
 Maximum Force            0.003957     0.000450     NO 
 RMS     Force            0.001728     0.000300     NO 
 Maximum Displacement     0.112874     0.001800     NO 
 RMS     Displacement     0.040837     0.001200     NO 
 Predicted change in Energy=-1.367942D-04
 GradGradGradGradGradGradGradGradGradGradGradGradGradGradGradGradGradGrad

                          Input orientation:                          
 ---------------------------------------------------------------------
 Center     Atomic      Atomic             Coordinates (Angstroms)
 Number     Number       Type             X           Y           Z
 ---------------------------------------------------------------------
      1          6           0        0.599155    0.019821   -0.026835
      2          9           0        0.940346   -0.200922    1.251387
      3          9           0        1.190320   -0.877892   -0.792204
      4          6           0       -0.935941   -0.117241   -0.145887
      5          8           0       -1.458060   -1.081023   -0.609639
      6          8           0       -1.542478    0.943375    0.371645
      7          1           0       -2.493051    0.783357    0.326327
      8          9           0        1.017794    1.232693   -0.374766
 ---------------------------------------------------------------------
                    Distance matrix (angstroms):
                    1          2          3          4          5
     1  C    0.000000
     2  F    1.341264   0.000000
     3  F    1.319528   2.167265   0.000000
     4  C    1.545794   2.340904   2.348894   0.000000
     5  O    2.404922   3.160750   2.662425   1.190189   0.000000
     6  O    2.366079   2.871894   3.484213   1.326888   2.251274
     7  H    3.204598   3.689546   4.192622   1.859745   2.328766
     8  F    1.329426   2.169245   2.158376   2.385747   3.396807
                    6          7          8
     6  O    0.000000
     7  H    0.965012   0.000000
     8  F    2.682504   3.608250   0.000000
 Stoichiometry    C2HF3O2
 Framework group  C1[X(C2HF3O2)]
 Deg. of freedom    18
 Full point group                 C1      NOp   1
 Largest Abelian subgroup         C1      NOp   1
 Largest concise Abelian subgroup C1      NOp   1
                         Standard orientation:                         
 ---------------------------------------------------------------------
 Center     Atomic      Atomic             Coordinates (Angstroms)
 Number     Number       Type             X           Y           Z
 ---------------------------------------------------------------------
      1          6           0        0.602432    0.006033   -0.009751
      2          9           0        0.969278    0.365097    1.229397
      3          9           0        1.175498   -1.143165   -0.313217
      4          6           0       -0.935125   -0.152076   -0.029815
      5          8           0       -1.469066   -1.215658   -0.014000
      6          8           0       -1.528249    1.034829   -0.020241
      7          1           0       -2.479948    0.881884    0.025851
      8          9           0        1.016849    0.938179   -0.862238
 ---------------------------------------------------------------------
 Rotational constants (GHZ):           3.8707435           2.5120564           2.0857975
 Standard basis: 6-311+G(2d,2p) (5D, 7F)
 There are   212 symmetry adapted cartesian basis functions of A   symmetry.
 There are   198 symmetry adapted basis functions of A   symmetry.
   198 basis functions,   305 primitive gaussians,   212 cartesian basis functions
    28 alpha electrons       28 beta electrons
       nuclear repulsion energy       337.9878329560 Hartrees.
 NAtoms=    8 NActive=    8 NUniq=    8 SFac= 1.00D+00 NAtFMM=   60 NAOKFM=F Big=F
 Integral buffers will be    131072 words long.
 Raffenetti 2 integral format.
 Two-electron integral symmetry is turned on.
 Nuclear repulsion after empirical dispersion term =      337.9860472967 Hartrees.
 One-electron integrals computed using PRISM.
 NBasis=   198 RedAO= T EigKep=  1.09D-04  NBF=   198
 NBsUse=   198 1.00D-06 EigRej= -1.00D+00 NBFU=   198
 Initial guess from the checkpoint file:  "tfa.chk"
 B after Tr=    -0.000000    0.000000   -0.000000
         Rot=    0.999680    0.025257   -0.000701    0.001456 Ang=   2.90 deg.
 ExpMin= 4.38D-02 ExpMax= 1.14D+04 ExpMxC= 1.72D+03 IAcc=3 IRadAn=         5 AccDes= 0.00D+00
 Harris functional with IExCor= 4639 and IRadAn=       5 diagonalized for initial guess.
 HarFok:  IExCor= 4639 AccDes= 0.00D+00 IRadAn=         5 IDoV= 1 UseB2=F ITyADJ=14
 ICtDFT=  3500011 ScaDFX=  1.000000  1.000000  1.000000  1.000000
 FoFCou: FMM=F IPFlag=           0 FMFlag=      100000 FMFlg1=           0
         NFxFlg=           0 DoJE=T BraDBF=F KetDBF=T FulRan=T
         wScrn=  0.000000 ICntrl=       500 IOpCl=  0 I1Cent=   200000004 NGrid=           0
         NMat0=    1 NMatS0=      1 NMatT0=    0 NMatD0=    1 NMtDS0=    0 NMtDT0=    0
 Petite list used in FoFCou.
 Keep R1 ints in memory in canonical form, NReq=396510994.
 Requested convergence on RMS density matrix=1.00D-08 within  32 cycles.
 Requested convergence on MAX density matrix=1.00D-06.
 Requested convergence on             energy=1.00D-06.
 No special actions if energy rises.
 SCF Done:  E(RwB97XD) =  -526.822746063     A.U. after   12 cycles
            NFock= 12  Conv=0.23D-08     -V/T= 2.0026
 QCSCF skips out because SCF is already converged.
 Calling FoFJK, ICntrl=      2127 FMM=F ISym2X=0 I1Cent= 0 IOpClX= 0 NMat=1 NMatS=1 NMatT=0.
 ***** Axes restored to original set *****
 -------------------------------------------------------------------
 Center     Atomic                   Forces (Hartrees/Bohr)
 Number     Number              X              Y              Z
 -------------------------------------------------------------------
      1        6          -0.003998130   -0.000930453    0.003510920
      2        9           0.001969914    0.000993630   -0.003441842
      3        9           0.002380130    0.000184040    0.000531194
      4        6           0.002461626   -0.000848578   -0.000469855
      5        8          -0.001952120    0.000501614   -0.000439346
      6        8          -0.001805857   -0.000673806   -0.000032108
      7        1           0.000135234    0.001089702    0.000109808
      8        9           0.000809203   -0.000316148    0.000231229
 -------------------------------------------------------------------
 Cartesian Forces:  Max     0.003998130 RMS     0.001693992

 GradGradGradGradGradGradGradGradGradGradGradGradGradGradGradGradGradGrad
 Berny optimization.
 Using GEDIIS/GDIIS optimizer.
 FormGI is forming the generalized inverse of G from B-inverse, IUseBI=4.
 Internal  Forces:  Max     0.004333080 RMS     0.001739121
 Search for a local minimum.
 Step number  15 out of a maximum of   35
 All quantities printed in internal units (Hartrees-Bohrs-Radians)
 Mixed Optimization -- RFO/linear search
 Update second derivatives using D2CorX and points   13   14   15
 DE= -1.71D-04 DEPred=-1.37D-04 R= 1.25D+00
 TightC=F SS=  1.41D+00  RLast= 1.92D-01 DXNew= 3.0000D-01 5.7579D-01
 Trust test= 1.25D+00 RLast= 1.92D-01 DXMaxT set to 3.00D-01
 ITU=  1  1  1  0 -1  0  0 -1  0  1  0  0  1 -1  0
 Use linear search instead of GDIIS.
     Eigenvalues ---    0.00005   0.02351   0.04810   0.10125   0.11588
     Eigenvalues ---    0.16370   0.19635   0.22266   0.25261   0.25797
     Eigenvalues ---    0.27634   0.52488   0.54614   0.57020   0.59154
     Eigenvalues ---    0.60598   1.06243   1.10186
 RFO step:  Lambda=-2.70812083D-04 EMin= 4.79290829D-05
 Quartic linear search produced a step of  0.52651.
 Iteration  1 RMS(Cart)=  0.10661730 RMS(Int)=  0.06668847
 Iteration  2 RMS(Cart)=  0.07292727 RMS(Int)=  0.00234097
 Iteration  3 RMS(Cart)=  0.00276736 RMS(Int)=  0.00001138
 Iteration  4 RMS(Cart)=  0.00000342 RMS(Int)=  0.00001117
 Iteration  5 RMS(Cart)=  0.00000000 RMS(Int)=  0.00001117
 Variable       Old X    -DE/DX   Delta X   Delta X   Delta X     New X
                                 (Linear)    (Quad)   (Total)
    R1        2.53462  -0.00294  -0.00087   0.00534   0.00447   2.53909
    R2        2.49355   0.00063   0.00011  -0.00740  -0.00729   2.48626
    R3        2.92113   0.00121  -0.00285   0.00270  -0.00015   2.92098
    R4        2.51225  -0.00009   0.00138   0.00132   0.00269   2.51494
    R5        2.24913   0.00062   0.00007  -0.00061  -0.00055   2.24858
    R6        2.50745   0.00113  -0.00016   0.00113   0.00098   2.50843
    R7        1.82361  -0.00032  -0.00055   0.00022  -0.00033   1.82328
    A1        1.90375  -0.00317   0.00142  -0.00119   0.00021   1.90396
    A2        1.88749   0.00433   0.00315  -0.00133   0.00179   1.88928
    A3        1.89595  -0.00247   0.00276  -0.00468  -0.00193   1.89403
    A4        1.91762   0.00324  -0.00136   0.00992   0.00854   1.92617
    A5        1.90477  -0.00202   0.00193  -0.00033   0.00159   1.90636
    A6        1.95353  -0.00003  -0.00762  -0.00257  -0.01020   1.94334
    A7        2.13822   0.00235   0.00648   0.00560   0.01207   2.15029
    A8        1.93161  -0.00043  -0.00912  -0.00337  -0.01249   1.91912
    A9        2.21270  -0.00190   0.00264  -0.00247   0.00016   2.21286
   A10        1.87487   0.00181   0.00060   0.00288   0.00347   1.87835
    D1       -1.80026  -0.00066  -0.04118  -0.29484  -0.33601  -2.13628
    D2        1.30468  -0.00019  -0.04122  -0.30138  -0.34262   0.96206
    D3        0.27594  -0.00005  -0.03837  -0.29136  -0.32971  -0.05377
    D4       -2.90229   0.00042  -0.03841  -0.29791  -0.33632   3.04457
    D5        2.39506  -0.00039  -0.04204  -0.28663  -0.32866   2.06639
    D6       -0.78318   0.00008  -0.04208  -0.29318  -0.33527  -1.11845
    D7       -3.07718  -0.00062  -0.00723   0.02025   0.01299  -3.06419
    D8        0.02583  -0.00001  -0.00720   0.01356   0.00638   0.03221
         Item               Value     Threshold  Converged?
 Maximum Force            0.004333     0.000450     NO 
 RMS     Force            0.001739     0.000300     NO 
 Maximum Displacement     0.440385     0.001800     NO 
 RMS     Displacement     0.177783     0.001200     NO 
 Predicted change in Energy=-2.482584D-04
 GradGradGradGradGradGradGradGradGradGradGradGradGradGradGradGradGradGrad

                          Input orientation:                          
 ---------------------------------------------------------------------
 Center     Atomic      Atomic             Coordinates (Angstroms)
 Number     Number       Type             X           Y           Z
 ---------------------------------------------------------------------
      1          6           0        0.598347    0.018820   -0.033733
      2          9           0        0.885223   -0.029896    1.278009
      3          9           0        1.197175   -0.982020   -0.642599
      4          6           0       -0.934631   -0.091269   -0.198333
      5          8           0       -1.461377   -0.941691   -0.842680
      6          8           0       -1.535966    0.851490    0.516931
      7          1           0       -2.487632    0.708942    0.446786
      8          9           0        1.056945    1.167793   -0.524355
 ---------------------------------------------------------------------
                    Distance matrix (angstroms):
                    1          2          3          4          5
     1  C    0.000000
     2  F    1.343629   0.000000
     3  F    1.315673   2.166239   0.000000
     4  C    1.545715   2.344189   2.352745   0.000000
     5  O    2.412352   3.291691   2.666376   1.189900   0.000000
     6  O    2.356239   2.686678   3.489460   1.327404   2.251578
     7  H    3.198504   3.551474   4.198084   1.862344   2.332490
     8  F    1.330850   2.170821   2.157625   2.378635   3.300485
                    6          7          8
     6  O    0.000000
     7  H    0.964836   0.000000
     8  F    2.812030   3.703739   0.000000
 Stoichiometry    C2HF3O2
 Framework group  C1[X(C2HF3O2)]
 Deg. of freedom    18
 Full point group                 C1      NOp   1
 Largest Abelian subgroup         C1      NOp   1
 Largest concise Abelian subgroup C1      NOp   1
                         Standard orientation:                         
 ---------------------------------------------------------------------
 Center     Atomic      Atomic             Coordinates (Angstroms)
 Number     Number       Type             X           Y           Z
 ---------------------------------------------------------------------
      1          6           0        0.602521   -0.003104   -0.007260
      2          9           0        0.931684    0.751683    1.054477
      3          9           0        1.181690   -1.179123    0.104703
      4          6           0       -0.934940   -0.160853   -0.030980
      5          8           0       -1.481956   -1.217349   -0.009706
      6          8           0       -1.513154    1.033973   -0.023170
      7          1           0       -2.466541    0.896724    0.032715
      8          9           0        1.044619    0.600109   -1.108099
 ---------------------------------------------------------------------
 Rotational constants (GHZ):           3.8717920           2.5149028           2.0873609
 Standard basis: 6-311+G(2d,2p) (5D, 7F)
 There are   212 symmetry adapted cartesian basis functions of A   symmetry.
 There are   198 symmetry adapted basis functions of A   symmetry.
   198 basis functions,   305 primitive gaussians,   212 cartesian basis functions
    28 alpha electrons       28 beta electrons
       nuclear repulsion energy       338.0827946605 Hartrees.
 NAtoms=    8 NActive=    8 NUniq=    8 SFac= 1.00D+00 NAtFMM=   60 NAOKFM=F Big=F
 Integral buffers will be    131072 words long.
 Raffenetti 2 integral format.
 Two-electron integral symmetry is turned on.
 Nuclear repulsion after empirical dispersion term =      338.0810103296 Hartrees.
 One-electron integrals computed using PRISM.
 NBasis=   198 RedAO= T EigKep=  1.03D-04  NBF=   198
 NBsUse=   198 1.00D-06 EigRej= -1.00D+00 NBFU=   198
 Initial guess from the checkpoint file:  "tfa.chk"
 B after Tr=     0.000000   -0.000000    0.000000
         Rot=    0.993607    0.112695    0.006448    0.001632 Ang=  12.96 deg.
 ExpMin= 4.38D-02 ExpMax= 1.14D+04 ExpMxC= 1.72D+03 IAcc=3 IRadAn=         5 AccDes= 0.00D+00
 Harris functional with IExCor= 4639 and IRadAn=       5 diagonalized for initial guess.
 HarFok:  IExCor= 4639 AccDes= 0.00D+00 IRadAn=         5 IDoV= 1 UseB2=F ITyADJ=14
 ICtDFT=  3500011 ScaDFX=  1.000000  1.000000  1.000000  1.000000
 FoFCou: FMM=F IPFlag=           0 FMFlag=      100000 FMFlg1=           0
         NFxFlg=           0 DoJE=T BraDBF=F KetDBF=T FulRan=T
         wScrn=  0.000000 ICntrl=       500 IOpCl=  0 I1Cent=   200000004 NGrid=           0
         NMat0=    1 NMatS0=      1 NMatT0=    0 NMatD0=    1 NMtDS0=    0 NMtDT0=    0
 Petite list used in FoFCou.
 Keep R1 ints in memory in canonical form, NReq=396510994.
 Requested convergence on RMS density matrix=1.00D-08 within  32 cycles.
 Requested convergence on MAX density matrix=1.00D-06.
 Requested convergence on             energy=1.00D-06.
 No special actions if energy rises.
 SCF Done:  E(RwB97XD) =  -526.822614053     A.U. after   14 cycles
            NFock= 14  Conv=0.41D-08     -V/T= 2.0026
 QCSCF skips out because SCF is already converged.
 Calling FoFJK, ICntrl=      2127 FMM=F ISym2X=0 I1Cent= 0 IOpClX= 0 NMat=1 NMatS=1 NMatT=0.
 ***** Axes restored to original set *****
 -------------------------------------------------------------------
 Center     Atomic                   Forces (Hartrees/Bohr)
 Number     Number              X              Y              Z
 -------------------------------------------------------------------
      1        6          -0.004495872    0.000882094    0.007992850
      2        9           0.002934469    0.000035623   -0.005644004
      3        9           0.002613943   -0.001091931   -0.000982527
      4        6           0.002087410   -0.001786851    0.001380233
      5        8          -0.001412197    0.000616573   -0.001185688
      6        8          -0.002339933   -0.000223834   -0.000983873
      7        1           0.000161901    0.001402917   -0.000471319
      8        9           0.000450279    0.000165409   -0.000105673
 -------------------------------------------------------------------
 Cartesian Forces:  Max     0.007992850 RMS     0.002553762

 GradGradGradGradGradGradGradGradGradGradGradGradGradGradGradGradGradGrad
 Berny optimization.
 Using GEDIIS/GDIIS optimizer.
 FormGI is forming the generalized inverse of G from B-inverse, IUseBI=4.
 Internal  Forces:  Max     0.007199776 RMS     0.002337062
 Search for a local minimum.
 Step number  16 out of a maximum of   35
 All quantities printed in internal units (Hartrees-Bohrs-Radians)
 Mixed Optimization -- RFO/linear search
 Update second derivatives using D2CorX and points   13   14   16   15
 DE=  1.32D-04 DEPred=-2.48D-04 R=-5.32D-01
 Trust test=-5.32D-01 RLast= 8.21D-01 DXMaxT set to 1.50D-01
 ITU= -1  1  1  1  0 -1  0  0 -1  0  1  0  0  1 -1  0
 Use linear search instead of GDIIS.
     Eigenvalues ---    0.00107   0.02135   0.05416   0.09370   0.11536
     Eigenvalues ---    0.12615   0.16498   0.22282   0.25287   0.26968
     Eigenvalues ---    0.27760   0.50767   0.54327   0.55245   0.58467
     Eigenvalues ---    0.60564   0.67994   1.07852
 RFO step:  Lambda=-5.13790218D-04 EMin= 1.07032778D-03
 Quartic linear search produced a step of -0.61309.
 Iteration  1 RMS(Cart)=  0.08737255 RMS(Int)=  0.00303600
 Iteration  2 RMS(Cart)=  0.00386200 RMS(Int)=  0.00009471
 Iteration  3 RMS(Cart)=  0.00000595 RMS(Int)=  0.00009461
 Iteration  4 RMS(Cart)=  0.00000000 RMS(Int)=  0.00009461
 Variable       Old X    -DE/DX   Delta X   Delta X   Delta X     New X
                                 (Linear)    (Quad)   (Total)
    R1        2.53909  -0.00488  -0.00274  -0.01638  -0.01912   2.51997
    R2        2.48626   0.00248   0.00447   0.00662   0.01109   2.49735
    R3        2.92098   0.00162   0.00009  -0.00379  -0.00369   2.91728
    R4        2.51494   0.00034  -0.00165   0.00736   0.00571   2.52065
    R5        2.24858   0.00083   0.00034   0.00072   0.00105   2.24964
    R6        2.50843   0.00104  -0.00060   0.00287   0.00227   2.51070
    R7        1.82328  -0.00033   0.00020  -0.00345  -0.00325   1.82003
    A1        1.90396  -0.00350  -0.00013  -0.01045  -0.01071   1.89325
    A2        1.88928   0.00720  -0.00110   0.03833   0.03726   1.92654
    A3        1.89403  -0.00255   0.00118  -0.00012   0.00125   1.89528
    A4        1.92617   0.00156  -0.00524   0.00485  -0.00055   1.92562
    A5        1.90636  -0.00158  -0.00097  -0.00170  -0.00284   1.90352
    A6        1.94334  -0.00120   0.00625  -0.03053  -0.02428   1.91906
    A7        2.15029   0.00068  -0.00740   0.02456   0.01710   2.16739
    A8        1.91912   0.00150   0.00766  -0.02408  -0.01648   1.90263
    A9        2.21286  -0.00209  -0.00010   0.00021   0.00004   2.21291
   A10        1.87835   0.00147  -0.00213   0.01144   0.00931   1.88766
    D1       -2.13628  -0.00089   0.20601  -0.07920   0.12664  -2.00964
    D2        0.96206   0.00128   0.21006  -0.06293   0.14704   1.10910
    D3       -0.05377   0.00016   0.20214  -0.06566   0.13643   0.08266
    D4        3.04457   0.00233   0.20620  -0.04938   0.15683  -3.08179
    D5        2.06639  -0.00159   0.20150  -0.08508   0.11653   2.18293
    D6       -1.11845   0.00058   0.20555  -0.06880   0.13693  -0.98152
    D7       -3.06419  -0.00222  -0.00796  -0.06029  -0.06816  -3.13235
    D8        0.03221   0.00013  -0.00391  -0.04257  -0.04658  -0.01437
         Item               Value     Threshold  Converged?
 Maximum Force            0.007200     0.000450     NO 
 RMS     Force            0.002337     0.000300     NO 
 Maximum Displacement     0.160657     0.001800     NO 
 RMS     Displacement     0.087588     0.001200     NO 
 Predicted change in Energy=-3.492508D-04
 GradGradGradGradGradGradGradGradGradGradGradGradGradGradGradGradGradGrad

                          Input orientation:                          
 ---------------------------------------------------------------------
 Center     Atomic      Atomic             Coordinates (Angstroms)
 Number     Number       Type             X           Y           Z
 ---------------------------------------------------------------------
      1          6           0        0.593031    0.010943   -0.015100
      2          9           0        0.940551   -0.106296    1.266981
      3          9           0        1.209819   -0.933078   -0.704203
      4          6           0       -0.936861   -0.123325   -0.171926
      5          8           0       -1.473923   -1.009702   -0.757664
      6          8           0       -1.527317    0.879797    0.468623
      7          1           0       -2.480098    0.779425    0.369984
      8          9           0        0.992883    1.204403   -0.456668
 ---------------------------------------------------------------------
                    Distance matrix (angstroms):
                    1          2          3          4          5
     1  C    0.000000
     2  F    1.333510   0.000000
     3  F    1.321539   2.154447   0.000000
     4  C    1.543760   2.365464   2.355261   0.000000
     5  O    2.421862   3.277959   2.685367   1.190457   0.000000
     6  O    2.341960   2.774911   3.486252   1.328606   2.253183
     7  H    3.191078   3.645537   4.207378   1.868208   2.341998
     8  F    1.333871   2.166019   2.162675   2.359630   3.328362
                    6          7          8
     6  O    0.000000
     7  H    0.963117   0.000000
     8  F    2.704245   3.595213   0.000000
 Stoichiometry    C2HF3O2
 Framework group  C1[X(C2HF3O2)]
 Deg. of freedom    18
 Full point group                 C1      NOp   1
 Largest Abelian subgroup         C1      NOp   1
 Largest concise Abelian subgroup C1      NOp   1
                         Standard orientation:                         
 ---------------------------------------------------------------------
 Center     Atomic      Atomic             Coordinates (Angstroms)
 Number     Number       Type             X           Y           Z
 ---------------------------------------------------------------------
      1          6           0        0.598163   -0.001076   -0.002145
      2          9           0        0.998698    0.585160    1.126636
      3          9           0        1.184332   -1.182129   -0.091506
      4          6           0       -0.937129   -0.162416   -0.008761
      5          8           0       -1.499409   -1.211698   -0.002865
      6          8           0       -1.498931    1.041464    0.006919
      7          1           0       -2.455138    0.926372    0.011048
      8          9           0        0.980932    0.754353   -1.032691
 ---------------------------------------------------------------------
 Rotational constants (GHZ):           3.8773450           2.5141672           2.0859257
 Standard basis: 6-311+G(2d,2p) (5D, 7F)
 There are   212 symmetry adapted cartesian basis functions of A   symmetry.
 There are   198 symmetry adapted basis functions of A   symmetry.
   198 basis functions,   305 primitive gaussians,   212 cartesian basis functions
    28 alpha electrons       28 beta electrons
       nuclear repulsion energy       338.1299889577 Hartrees.
 NAtoms=    8 NActive=    8 NUniq=    8 SFac= 1.00D+00 NAtFMM=   60 NAOKFM=F Big=F
 Integral buffers will be    131072 words long.
 Raffenetti 2 integral format.
 Two-electron integral symmetry is turned on.
 Nuclear repulsion after empirical dispersion term =      338.1282026364 Hartrees.
 One-electron integrals computed using PRISM.
 NBasis=   198 RedAO= T EigKep=  1.02D-04  NBF=   198
 NBsUse=   198 1.00D-06 EigRej= -1.00D+00 NBFU=   198
 Lowest energy guess from the checkpoint file:  "tfa.chk"
 B after Tr=     0.000000   -0.000000    0.000000
         Rot=    0.997984    0.063126   -0.006019    0.002628 Ang=   7.28 deg.
 B after Tr=    -0.000000   -0.000000    0.000000
         Rot=    0.998694   -0.049441   -0.012666    0.002355 Ang=  -5.86 deg.
 Keep R1 ints in memory in canonical form, NReq=396510994.
 Requested convergence on RMS density matrix=1.00D-08 within  32 cycles.
 Requested convergence on MAX density matrix=1.00D-06.
 Requested convergence on             energy=1.00D-06.
 No special actions if energy rises.
 SCF Done:  E(RwB97XD) =  -526.822948258     A.U. after   11 cycles
            NFock= 11  Conv=0.49D-08     -V/T= 2.0026
 QCSCF skips out because SCF is already converged.
 Calling FoFJK, ICntrl=      2127 FMM=F ISym2X=0 I1Cent= 0 IOpClX= 0 NMat=1 NMatS=1 NMatT=0.
 ***** Axes restored to original set *****
 -------------------------------------------------------------------
 Center     Atomic                   Forces (Hartrees/Bohr)
 Number     Number              X              Y              Z
 -------------------------------------------------------------------
      1        6           0.000706733   -0.001513569   -0.002202896
      2        9          -0.000331740    0.000906364    0.000132907
      3        9           0.000603029    0.000685740   -0.000652658
      4        6          -0.000853652   -0.000799521    0.003570252
      5        8           0.000982032    0.001658082   -0.000278892
      6        8          -0.001449357    0.000108061   -0.001023179
      7        1          -0.001231988   -0.000105732    0.000119251
      8        9           0.001574944   -0.000939425    0.000335214
 -------------------------------------------------------------------
 Cartesian Forces:  Max     0.003570252 RMS     0.001223655

 GradGradGradGradGradGradGradGradGradGradGradGradGradGradGradGradGradGrad
 Berny optimization.
 Using GEDIIS/GDIIS optimizer.
 FormGI is forming the generalized inverse of G from B-inverse, IUseBI=4.
 Internal  Forces:  Max     0.004451741 RMS     0.001504205
 Search for a local minimum.
 Step number  17 out of a maximum of   35
 All quantities printed in internal units (Hartrees-Bohrs-Radians)
 Mixed Optimization -- RFO/linear search
 Update second derivatives using D2CorX and points   16   15   17
 DE= -2.02D-04 DEPred=-3.49D-04 R= 5.79D-01
 TightC=F SS=  1.41D+00  RLast= 4.96D-01 DXNew= 2.5227D-01 1.4872D+00
 Trust test= 5.79D-01 RLast= 4.96D-01 DXMaxT set to 2.52D-01
 ITU=  1 -1  1  1  1  0 -1  0  0 -1  0  1  0  0  1 -1  0
 Use linear search instead of GDIIS.
     Eigenvalues ---    0.00104   0.02423   0.04771   0.10158   0.11241
     Eigenvalues ---    0.16108   0.21480   0.22801   0.25772   0.26301
     Eigenvalues ---    0.28395   0.46568   0.53090   0.54908   0.58246
     Eigenvalues ---    0.60669   0.63951   1.08634
 RFO step:  Lambda=-1.36687723D-04 EMin= 1.03756319D-03
 Quartic linear search produced a step of -0.24793.
 Iteration  1 RMS(Cart)=  0.01421277 RMS(Int)=  0.00010319
 Iteration  2 RMS(Cart)=  0.00010798 RMS(Int)=  0.00003784
 Iteration  3 RMS(Cart)=  0.00000001 RMS(Int)=  0.00003784
 Variable       Old X    -DE/DX   Delta X   Delta X   Delta X     New X
                                 (Linear)    (Quad)   (Total)
    R1        2.51997  -0.00004   0.00363  -0.00060   0.00303   2.52300
    R2        2.49735   0.00013  -0.00094   0.00020  -0.00074   2.49660
    R3        2.91728   0.00221   0.00095   0.00390   0.00485   2.92214
    R4        2.52065  -0.00048  -0.00208   0.00036  -0.00172   2.51893
    R5        2.24964  -0.00154  -0.00013  -0.00071  -0.00083   2.24881
    R6        2.51070   0.00076  -0.00080   0.00076  -0.00004   2.51066
    R7        1.82003   0.00122   0.00089   0.00096   0.00185   1.82188
    A1        1.89325   0.00053   0.00260   0.00250   0.00519   1.89844
    A2        1.92654  -0.00097  -0.00968   0.00498  -0.00469   1.92185
    A3        1.89528  -0.00126   0.00017  -0.00294  -0.00284   1.89244
    A4        1.92562   0.00073  -0.00198   0.00091  -0.00101   1.92461
    A5        1.90352  -0.00195   0.00031  -0.00513  -0.00479   1.89873
    A6        1.91906   0.00284   0.00855  -0.00046   0.00806   1.92712
    A7        2.16739  -0.00253  -0.00723  -0.00196  -0.00922   2.15817
    A8        1.90263   0.00445   0.00718   0.00639   0.01355   1.91618
    A9        2.21291  -0.00190  -0.00005  -0.00404  -0.00412   2.20879
   A10        1.88766   0.00028  -0.00317   0.00226  -0.00091   1.88675
    D1       -2.00964  -0.00082   0.05191  -0.07996  -0.02797  -2.03761
    D2        1.10910   0.00003   0.04849  -0.06294  -0.01440   1.09470
    D3        0.08266  -0.00031   0.04792  -0.07308  -0.02517   0.05749
    D4       -3.08179   0.00054   0.04450  -0.05606  -0.01160  -3.09339
    D5        2.18293  -0.00045   0.05259  -0.07917  -0.02660   2.15633
    D6       -0.98152   0.00040   0.04917  -0.06215  -0.01303  -0.99455
    D7       -3.13235  -0.00027   0.01368  -0.01227   0.00137  -3.13098
    D8       -0.01437   0.00060   0.00997   0.00535   0.01536   0.00099
         Item               Value     Threshold  Converged?
 Maximum Force            0.004452     0.000450     NO 
 RMS     Force            0.001504     0.000300     NO 
 Maximum Displacement     0.031290     0.001800     NO 
 RMS     Displacement     0.014208     0.001200     NO 
 Predicted change in Energy=-9.401647D-05
 GradGradGradGradGradGradGradGradGradGradGradGradGradGradGradGradGradGrad

                          Input orientation:                          
 ---------------------------------------------------------------------
 Center     Atomic      Atomic             Coordinates (Angstroms)
 Number     Number       Type             X           Y           Z
 ---------------------------------------------------------------------
      1          6           0        0.596237    0.011377   -0.016264
      2          9           0        0.941805   -0.096064    1.268872
      3          9           0        1.205457   -0.939931   -0.701310
      4          6           0       -0.937265   -0.117967   -0.167162
      5          8           0       -1.469009   -0.996727   -0.768137
      6          8           0       -1.538058    0.877389    0.475837
      7          1           0       -2.490523    0.767937    0.374288
      8          9           0        1.009441    1.196154   -0.466096
 ---------------------------------------------------------------------
                    Distance matrix (angstroms):
                    1          2          3          4          5
     1  C    0.000000
     2  F    1.335116   0.000000
     3  F    1.321145   2.159454   0.000000
     4  C    1.546328   2.365074   2.356310   0.000000
     5  O    2.418021   3.282167   2.675903   1.190017   0.000000
     6  O    2.355283   2.779611   3.495025   1.328583   2.250455
     7  H    3.202031   3.650706   4.211175   1.868315   2.337234
     8  F    1.332960   2.164374   2.157917   2.367687   3.323051
                    6          7          8
     6  O    0.000000
     7  H    0.964097   0.000000
     8  F    2.734703   3.624827   0.000000
 Stoichiometry    C2HF3O2
 Framework group  C1[X(C2HF3O2)]
 Deg. of freedom    18
 Full point group                 C1      NOp   1
 Largest Abelian subgroup         C1      NOp   1
 Largest concise Abelian subgroup C1      NOp   1
                         Standard orientation:                         
 ---------------------------------------------------------------------
 Center     Atomic      Atomic             Coordinates (Angstroms)
 Number     Number       Type             X           Y           Z
 ---------------------------------------------------------------------
      1          6           0        0.599911    0.000535   -0.001380
      2          9           0        0.994656    0.615790    1.115836
      3          9           0        1.183707   -1.182971   -0.063977
      4          6           0       -0.938073   -0.159847   -0.005112
      5          8           0       -1.491274   -1.213455   -0.000692
      6          8           0       -1.515121    1.036873   -0.002173
      7          1           0       -2.470630    0.908688    0.005133
      8          9           0        0.993944    0.729384   -1.045555
 ---------------------------------------------------------------------
 Rotational constants (GHZ):           3.8811302           2.5044205           2.0796995
 Standard basis: 6-311+G(2d,2p) (5D, 7F)
 There are   212 symmetry adapted cartesian basis functions of A   symmetry.
 There are   198 symmetry adapted basis functions of A   symmetry.
   198 basis functions,   305 primitive gaussians,   212 cartesian basis functions
    28 alpha electrons       28 beta electrons
       nuclear repulsion energy       337.8825659815 Hartrees.
 NAtoms=    8 NActive=    8 NUniq=    8 SFac= 1.00D+00 NAtFMM=   60 NAOKFM=F Big=F
 Integral buffers will be    131072 words long.
 Raffenetti 2 integral format.
 Two-electron integral symmetry is turned on.
 Nuclear repulsion after empirical dispersion term =      337.8807798674 Hartrees.
 One-electron integrals computed using PRISM.
 NBasis=   198 RedAO= T EigKep=  1.03D-04  NBF=   198
 NBsUse=   198 1.00D-06 EigRej= -1.00D+00 NBFU=   198
 Initial guess from the checkpoint file:  "tfa.chk"
 B after Tr=    -0.000000    0.000000    0.000000
         Rot=    0.999961    0.008580    0.001610   -0.001271 Ang=   1.01 deg.
 ExpMin= 4.38D-02 ExpMax= 1.14D+04 ExpMxC= 1.72D+03 IAcc=3 IRadAn=         5 AccDes= 0.00D+00
 Harris functional with IExCor= 4639 and IRadAn=       5 diagonalized for initial guess.
 HarFok:  IExCor= 4639 AccDes= 0.00D+00 IRadAn=         5 IDoV= 1 UseB2=F ITyADJ=14
 ICtDFT=  3500011 ScaDFX=  1.000000  1.000000  1.000000  1.000000
 FoFCou: FMM=F IPFlag=           0 FMFlag=      100000 FMFlg1=           0
         NFxFlg=           0 DoJE=T BraDBF=F KetDBF=T FulRan=T
         wScrn=  0.000000 ICntrl=       500 IOpCl=  0 I1Cent=   200000004 NGrid=           0
         NMat0=    1 NMatS0=      1 NMatT0=    0 NMatD0=    1 NMtDS0=    0 NMtDT0=    0
 Petite list used in FoFCou.
 Keep R1 ints in memory in canonical form, NReq=396510994.
 Requested convergence on RMS density matrix=1.00D-08 within  32 cycles.
 Requested convergence on MAX density matrix=1.00D-06.
 Requested convergence on             energy=1.00D-06.
 No special actions if energy rises.
 SCF Done:  E(RwB97XD) =  -526.823062976     A.U. after   10 cycles
            NFock= 10  Conv=0.99D-08     -V/T= 2.0026
 QCSCF skips out because SCF is already converged.
 Calling FoFJK, ICntrl=      2127 FMM=F ISym2X=0 I1Cent= 0 IOpClX= 0 NMat=1 NMatS=1 NMatT=0.
 ***** Axes restored to original set *****
 -------------------------------------------------------------------
 Center     Atomic                   Forces (Hartrees/Bohr)
 Number     Number              X              Y              Z
 -------------------------------------------------------------------
      1        6          -0.000201044   -0.000649068   -0.000209328
      2        9          -0.000005521    0.000174629   -0.000906154
      3        9           0.000294868    0.000129703    0.000280627
      4        6          -0.000247335    0.000234682    0.001156044
      5        8           0.000237750    0.000186962   -0.000248452
      6        8          -0.000395775   -0.000036901   -0.000186378
      7        1          -0.000151655   -0.000043276   -0.000040765
      8        9           0.000468713    0.000003268    0.000154406
 -------------------------------------------------------------------
 Cartesian Forces:  Max     0.001156044 RMS     0.000387750

 GradGradGradGradGradGradGradGradGradGradGradGradGradGradGradGradGradGrad
 Berny optimization.
 Using GEDIIS/GDIIS optimizer.
 FormGI is forming the generalized inverse of G from B-inverse, IUseBI=4.
 Internal  Forces:  Max     0.001159379 RMS     0.000437586
 Search for a local minimum.
 Step number  18 out of a maximum of   35
 All quantities printed in internal units (Hartrees-Bohrs-Radians)
 Mixed Optimization -- En-DIIS/RFO-DIIS
 Update second derivatives using D2CorX and points   16   15   17   18
 DE= -1.15D-04 DEPred=-9.40D-05 R= 1.22D+00
 TightC=F SS=  1.41D+00  RLast= 5.78D-02 DXNew= 4.2426D-01 1.7352D-01
 Trust test= 1.22D+00 RLast= 5.78D-02 DXMaxT set to 2.52D-01
 ITU=  1  1 -1  1  1  1  0 -1  0  0 -1  0  1  0  0  1 -1  0
 Use linear search instead of GDIIS.
     Eigenvalues ---    0.00091   0.02454   0.04839   0.10527   0.11242
     Eigenvalues ---    0.16026   0.21403   0.22052   0.25022   0.26088
     Eigenvalues ---    0.27930   0.42926   0.52433   0.55329   0.57994
     Eigenvalues ---    0.60809   0.63531   1.08638
 RFO step:  Lambda=-2.15878079D-05 EMin= 9.11876207D-04
 Quartic linear search produced a step of  0.29406.
 Iteration  1 RMS(Cart)=  0.02656919 RMS(Int)=  0.00035059
 Iteration  2 RMS(Cart)=  0.00036621 RMS(Int)=  0.00000873
 Iteration  3 RMS(Cart)=  0.00000007 RMS(Int)=  0.00000873
 Variable       Old X    -DE/DX   Delta X   Delta X   Delta X     New X
                                 (Linear)    (Quad)   (Total)
    R1        2.52300  -0.00089   0.00089  -0.00255  -0.00165   2.52135
    R2        2.49660  -0.00010  -0.00022  -0.00060  -0.00082   2.49578
    R3        2.92214   0.00046   0.00143  -0.00021   0.00121   2.92335
    R4        2.51893   0.00010  -0.00051   0.00143   0.00093   2.51986
    R5        2.24881  -0.00012  -0.00024   0.00021  -0.00003   2.24877
    R6        2.51066   0.00008  -0.00001  -0.00000  -0.00001   2.51064
    R7        1.82188   0.00016   0.00054  -0.00039   0.00015   1.82203
    A1        1.89844  -0.00043   0.00153  -0.00335  -0.00183   1.89661
    A2        1.92185   0.00012  -0.00138   0.00437   0.00299   1.92484
    A3        1.89244  -0.00052  -0.00083  -0.00119  -0.00202   1.89042
    A4        1.92461   0.00053  -0.00030   0.00196   0.00166   1.92627
    A5        1.89873  -0.00045  -0.00141   0.00078  -0.00062   1.89810
    A6        1.92712   0.00070   0.00237  -0.00269  -0.00031   1.92681
    A7        2.15817  -0.00080  -0.00271   0.00001  -0.00273   2.15545
    A8        1.91618   0.00116   0.00398  -0.00013   0.00383   1.92001
    A9        2.20879  -0.00036  -0.00121   0.00018  -0.00106   2.20773
   A10        1.88675  -0.00006  -0.00027  -0.00060  -0.00087   1.88588
    D1       -2.03761  -0.00016  -0.00822  -0.04944  -0.05767  -2.09528
    D2        1.09470   0.00006  -0.00423  -0.04391  -0.04815   1.04654
    D3        0.05749  -0.00028  -0.00740  -0.04957  -0.05697   0.00053
    D4       -3.09339  -0.00006  -0.00341  -0.04404  -0.04745  -3.14084
    D5        2.15633  -0.00004  -0.00782  -0.04906  -0.05687   2.09946
    D6       -0.99455   0.00018  -0.00383  -0.04353  -0.04736  -1.04191
    D7       -3.13098  -0.00012   0.00040  -0.00872  -0.00832  -3.13930
    D8        0.00099   0.00011   0.00452  -0.00299   0.00154   0.00252
         Item               Value     Threshold  Converged?
 Maximum Force            0.001159     0.000450     NO 
 RMS     Force            0.000438     0.000300     NO 
 Maximum Displacement     0.064372     0.001800     NO 
 RMS     Displacement     0.026559     0.001200     NO 
 Predicted change in Energy=-1.577133D-05
 GradGradGradGradGradGradGradGradGradGradGradGradGradGradGradGradGradGrad

                          Input orientation:                          
 ---------------------------------------------------------------------
 Center     Atomic      Atomic             Coordinates (Angstroms)
 Number     Number       Type             X           Y           Z
 ---------------------------------------------------------------------
      1          6           0        0.596501    0.010791   -0.016222
      2          9           0        0.940988   -0.071356    1.270160
      3          9           0        1.204692   -0.956017   -0.679291
      4          6           0       -0.937804   -0.113746   -0.169567
      5          8           0       -1.467150   -0.971456   -0.802201
      6          8           0       -1.542197    0.862320    0.499103
      7          1           0       -2.493947    0.756838    0.386481
      8          9           0        1.017003    1.184793   -0.488436
 ---------------------------------------------------------------------
                    Distance matrix (angstroms):
                    1          2          3          4          5
     1  C    0.000000
     2  F    1.334241   0.000000
     3  F    1.320710   2.156971   0.000000
     4  C    1.546970   2.367377   2.357865   0.000000
     5  O    2.416862   3.302118   2.674712   1.189999   0.000000
     6  O    2.358959   2.762695   3.498622   1.328576   2.249835
     7  H    3.204625   3.642194   4.213036   1.867803   2.335440
     8  F    1.333450   2.162487   2.157480   2.368365   3.304371
                    6          7          8
     6  O    0.000000
     7  H    0.964178   0.000000
     8  F    2.762014   3.643541   0.000000
 Stoichiometry    C2HF3O2
 Framework group  C1[X(C2HF3O2)]
 Deg. of freedom    18
 Full point group                 C1      NOp   1
 Largest Abelian subgroup         C1      NOp   1
 Largest concise Abelian subgroup C1      NOp   1
                         Standard orientation:                         
 ---------------------------------------------------------------------
 Center     Atomic      Atomic             Coordinates (Angstroms)
 Number     Number       Type             X           Y           Z
 ---------------------------------------------------------------------
      1          6           0        0.599688    0.000661   -0.000650
      2          9           0        0.995201    0.671452    1.082774
      3          9           0        1.184855   -1.183337   -0.001805
      4          6           0       -0.938996   -0.159236   -0.000422
      5          8           0       -1.489679   -1.214151   -0.000674
      6          8           0       -1.520181    1.035477   -0.000197
      7          1           0       -2.475232    0.903148    0.002040
      8          9           0        0.996605    0.676074   -1.079707
 ---------------------------------------------------------------------
 Rotational constants (GHZ):           3.8858051           2.5006892           2.0770944
 Standard basis: 6-311+G(2d,2p) (5D, 7F)
 There are   212 symmetry adapted cartesian basis functions of A   symmetry.
 There are   198 symmetry adapted basis functions of A   symmetry.
   198 basis functions,   305 primitive gaussians,   212 cartesian basis functions
    28 alpha electrons       28 beta electrons
       nuclear repulsion energy       337.8369448573 Hartrees.
 NAtoms=    8 NActive=    8 NUniq=    8 SFac= 1.00D+00 NAtFMM=   60 NAOKFM=F Big=F
 Integral buffers will be    131072 words long.
 Raffenetti 2 integral format.
 Two-electron integral symmetry is turned on.
 Nuclear repulsion after empirical dispersion term =      337.8351590496 Hartrees.
 One-electron integrals computed using PRISM.
 NBasis=   198 RedAO= T EigKep=  1.03D-04  NBF=   198
 NBsUse=   198 1.00D-06 EigRej= -1.00D+00 NBFU=   198
 Initial guess from the checkpoint file:  "tfa.chk"
 B after Tr=     0.000000   -0.000000   -0.000000
         Rot=    0.999859    0.016791    0.000201   -0.000433 Ang=   1.92 deg.
 ExpMin= 4.38D-02 ExpMax= 1.14D+04 ExpMxC= 1.72D+03 IAcc=3 IRadAn=         5 AccDes= 0.00D+00
 Harris functional with IExCor= 4639 and IRadAn=       5 diagonalized for initial guess.
 HarFok:  IExCor= 4639 AccDes= 0.00D+00 IRadAn=         5 IDoV= 1 UseB2=F ITyADJ=14
 ICtDFT=  3500011 ScaDFX=  1.000000  1.000000  1.000000  1.000000
 FoFCou: FMM=F IPFlag=           0 FMFlag=      100000 FMFlg1=           0
         NFxFlg=           0 DoJE=T BraDBF=F KetDBF=T FulRan=T
         wScrn=  0.000000 ICntrl=       500 IOpCl=  0 I1Cent=   200000004 NGrid=           0
         NMat0=    1 NMatS0=      1 NMatT0=    0 NMatD0=    1 NMtDS0=    0 NMtDT0=    0
 Petite list used in FoFCou.
 Keep R1 ints in memory in canonical form, NReq=396510994.
 Requested convergence on RMS density matrix=1.00D-08 within  32 cycles.
 Requested convergence on MAX density matrix=1.00D-06.
 Requested convergence on             energy=1.00D-06.
 No special actions if energy rises.
 SCF Done:  E(RwB97XD) =  -526.823078791     A.U. after   11 cycles
            NFock= 11  Conv=0.82D-08     -V/T= 2.0026
 QCSCF skips out because SCF is already converged.
 Calling FoFJK, ICntrl=      2127 FMM=F ISym2X=0 I1Cent= 0 IOpClX= 0 NMat=1 NMatS=1 NMatT=0.
 ***** Axes restored to original set *****
 -------------------------------------------------------------------
 Center     Atomic                   Forces (Hartrees/Bohr)
 Number     Number              X              Y              Z
 -------------------------------------------------------------------
      1        6           0.000182043   -0.000237076    0.000502362
      2        9          -0.000144671    0.000068354   -0.000096445
      3        9          -0.000027698   -0.000119973   -0.000278679
      4        6          -0.000025700    0.000478551    0.000115934
      5        8           0.000078290   -0.000161698   -0.000045428
      6        8           0.000089070   -0.000134023    0.000001086
      7        1          -0.000072651   -0.000003135   -0.000056981
      8        9          -0.000078683    0.000109001   -0.000141849
 -------------------------------------------------------------------
 Cartesian Forces:  Max     0.000502362 RMS     0.000184788

 GradGradGradGradGradGradGradGradGradGradGradGradGradGradGradGradGradGrad
 Berny optimization.
 Using GEDIIS/GDIIS optimizer.
 FormGI is forming the generalized inverse of G from B-inverse, IUseBI=4.
 Internal  Forces:  Max     0.000269994 RMS     0.000137592
 Search for a local minimum.
 Step number  19 out of a maximum of   35
 All quantities printed in internal units (Hartrees-Bohrs-Radians)
 Mixed Optimization -- En-DIIS/RFO-DIIS
 Swapping is turned off.
 Update second derivatives using D2CorX and points   16   17   18   19
 DE= -1.58D-05 DEPred=-1.58D-05 R= 1.00D+00
 TightC=F SS=  1.41D+00  RLast= 1.29D-01 DXNew= 4.2426D-01 3.8815D-01
 Trust test= 1.00D+00 RLast= 1.29D-01 DXMaxT set to 3.88D-01
 ITU=  1  1  1 -1  1  1  1  0 -1  0  0 -1  0  1  0  0  1 -1  0
     Eigenvalues ---    0.00089   0.02416   0.04888   0.10881   0.11229
     Eigenvalues ---    0.15806   0.19350   0.21832   0.24193   0.26011
     Eigenvalues ---    0.27615   0.44711   0.52032   0.55370   0.58158
     Eigenvalues ---    0.60824   0.65302   1.08894
 En-DIIS/RFO-DIIS/Sim-DIIS IScMMF=       -3 using points:    19   18
 RFO step:  Lambda=-1.71225584D-06.
 DidBck=F Rises=F RFO-DIIS coefs:    1.00276   -0.00276
 Iteration  1 RMS(Cart)=  0.00094744 RMS(Int)=  0.00000089
 Iteration  2 RMS(Cart)=  0.00000095 RMS(Int)=  0.00000021
 Variable       Old X    -DE/DX   Delta X   Delta X   Delta X     New X
                                 (Linear)    (Quad)   (Total)
    R1        2.52135  -0.00013  -0.00000  -0.00044  -0.00044   2.52091
    R2        2.49578   0.00021  -0.00000   0.00045   0.00044   2.49622
    R3        2.92335  -0.00008   0.00000  -0.00003  -0.00003   2.92332
    R4        2.51986   0.00012   0.00000   0.00016   0.00016   2.52002
    R5        2.24877   0.00011  -0.00000   0.00008   0.00008   2.24885
    R6        2.51064  -0.00014  -0.00000  -0.00020  -0.00020   2.51045
    R7        1.82203   0.00008   0.00000   0.00019   0.00019   1.82223
    A1        1.89661   0.00026  -0.00001   0.00124   0.00124   1.89785
    A2        1.92484  -0.00006   0.00001   0.00041   0.00042   1.92525
    A3        1.89042   0.00015  -0.00001   0.00021   0.00020   1.89063
    A4        1.92627  -0.00020   0.00000  -0.00045  -0.00044   1.92583
    A5        1.89810   0.00008  -0.00000  -0.00054  -0.00054   1.89756
    A6        1.92681  -0.00022  -0.00000  -0.00084  -0.00085   1.92596
    A7        2.15545  -0.00027  -0.00001  -0.00093  -0.00094   2.15451
    A8        1.92001   0.00022   0.00001   0.00102   0.00104   1.92105
    A9        2.20773   0.00005  -0.00000  -0.00009  -0.00009   2.20763
   A10        1.88588  -0.00004  -0.00000  -0.00001  -0.00001   1.88586
    D1       -2.09528  -0.00003  -0.00016  -0.00042  -0.00058  -2.09586
    D2        1.04654  -0.00006  -0.00013  -0.00050  -0.00064   1.04591
    D3        0.00053   0.00012  -0.00016   0.00110   0.00095   0.00147
    D4       -3.14084   0.00010  -0.00013   0.00102   0.00089  -3.13995
    D5        2.09946  -0.00004  -0.00016  -0.00041  -0.00056   2.09890
    D6       -1.04191  -0.00007  -0.00013  -0.00049  -0.00062  -1.04252
    D7       -3.13930  -0.00002  -0.00002  -0.00167  -0.00169  -3.14099
    D8        0.00252  -0.00005   0.00000  -0.00175  -0.00174   0.00078
         Item               Value     Threshold  Converged?
 Maximum Force            0.000270     0.000450     YES
 RMS     Force            0.000138     0.000300     YES
 Maximum Displacement     0.002271     0.001800     NO 
 RMS     Displacement     0.000947     0.001200     YES
 Predicted change in Energy=-8.559927D-07
 GradGradGradGradGradGradGradGradGradGradGradGradGradGradGradGradGradGrad

                          Input orientation:                          
 ---------------------------------------------------------------------
 Center     Atomic      Atomic             Coordinates (Angstroms)
 Number     Number       Type             X           Y           Z
 ---------------------------------------------------------------------
      1          6           0        0.596733    0.010489   -0.015656
      2          9           0        0.941723   -0.071300    1.270374
      3          9           0        1.204120   -0.956094   -0.680255
      4          6           0       -0.937619   -0.113419   -0.168882
      5          8           0       -1.466372   -0.971230   -0.801953
      6          8           0       -1.542751    0.862118    0.499684
      7          1           0       -2.494443    0.757101    0.385279
      8          9           0        1.016694    1.184503   -0.488563
 ---------------------------------------------------------------------
                    Distance matrix (angstroms):
                    1          2          3          4          5
     1  C    0.000000
     2  F    1.334008   0.000000
     3  F    1.320944   2.157931   0.000000
     4  C    1.546955   2.367521   2.357678   0.000000
     5  O    2.416286   3.302020   2.673306   1.190041   0.000000
     6  O    2.359712   2.763664   3.499064   1.328472   2.249724
     7  H    3.205238   3.643745   4.213048   1.867780   2.335290
     8  F    1.333535   2.162526   2.157320   2.367728   3.303183
                    6          7          8
     6  O    0.000000
     7  H    0.964280   0.000000
     8  F    2.762485   3.643399   0.000000
 Stoichiometry    C2HF3O2
 Framework group  C1[X(C2HF3O2)]
 Deg. of freedom    18
 Full point group                 C1      NOp   1
 Largest Abelian subgroup         C1      NOp   1
 Largest concise Abelian subgroup C1      NOp   1
                         Standard orientation:                         
 ---------------------------------------------------------------------
 Center     Atomic      Atomic             Coordinates (Angstroms)
 Number     Number       Type             X           Y           Z
 ---------------------------------------------------------------------
      1          6           0        0.599896    0.001028   -0.000111
      2          9           0        0.995537    0.672952    1.082278
      3          9           0        1.184807   -1.183357   -0.001676
      4          6           0       -0.938751   -0.159080   -0.000039
      5          8           0       -1.488315   -1.214626    0.000214
      6          8           0       -1.521292    1.034856   -0.000514
      7          1           0       -2.476290    0.901381    0.000095
      8          9           0        0.995909    0.675414   -1.080247
 ---------------------------------------------------------------------
 Rotational constants (GHZ):           3.8852601           2.5009673           2.0771593
 Standard basis: 6-311+G(2d,2p) (5D, 7F)
 There are   212 symmetry adapted cartesian basis functions of A   symmetry.
 There are   198 symmetry adapted basis functions of A   symmetry.
   198 basis functions,   305 primitive gaussians,   212 cartesian basis functions
    28 alpha electrons       28 beta electrons
       nuclear repulsion energy       337.8343023280 Hartrees.
 NAtoms=    8 NActive=    8 NUniq=    8 SFac= 1.00D+00 NAtFMM=   60 NAOKFM=F Big=F
 Integral buffers will be    131072 words long.
 Raffenetti 2 integral format.
 Two-electron integral symmetry is turned on.
 Nuclear repulsion after empirical dispersion term =      337.8325166797 Hartrees.
 One-electron integrals computed using PRISM.
 NBasis=   198 RedAO= T EigKep=  1.03D-04  NBF=   198
 NBsUse=   198 1.00D-06 EigRej= -1.00D+00 NBFU=   198
 Initial guess from the checkpoint file:  "tfa.chk"
 B after Tr=    -0.000000   -0.000000    0.000000
         Rot=    1.000000    0.000333   -0.000099   -0.000207 Ang=   0.05 deg.
 Keep R1 ints in memory in canonical form, NReq=396510994.
 Requested convergence on RMS density matrix=1.00D-08 within  32 cycles.
 Requested convergence on MAX density matrix=1.00D-06.
 Requested convergence on             energy=1.00D-06.
 No special actions if energy rises.
 SCF Done:  E(RwB97XD) =  -526.823079725     A.U. after    8 cycles
            NFock=  8  Conv=0.64D-08     -V/T= 2.0026
 QCSCF skips out because SCF is already converged.
 Calling FoFJK, ICntrl=      2127 FMM=F ISym2X=0 I1Cent= 0 IOpClX= 0 NMat=1 NMatS=1 NMatT=0.
 ***** Axes restored to original set *****
 -------------------------------------------------------------------
 Center     Atomic                   Forces (Hartrees/Bohr)
 Number     Number              X              Y              Z
 -------------------------------------------------------------------
      1        6           0.000017296   -0.000084968    0.000157728
      2        9          -0.000032586   -0.000048366   -0.000115943
      3        9          -0.000051086   -0.000032584    0.000039851
      4        6          -0.000035634    0.000205437    0.000074985
      5        8           0.000004587   -0.000120719   -0.000060086
      6        8           0.000064334   -0.000049815    0.000001873
      7        1           0.000032672   -0.000020131   -0.000025852
      8        9           0.000000417    0.000151147   -0.000072555
 -------------------------------------------------------------------
 Cartesian Forces:  Max     0.000205437 RMS     0.000081311

 GradGradGradGradGradGradGradGradGradGradGradGradGradGradGradGradGradGrad
 Berny optimization.
 Using GEDIIS/GDIIS optimizer.
 FormGI is forming the generalized inverse of G from B-inverse, IUseBI=4.
 Internal  Forces:  Max     0.000158988 RMS     0.000066149
 Search for a local minimum.
 Step number  20 out of a maximum of   35
 All quantities printed in internal units (Hartrees-Bohrs-Radians)
 Mixed Optimization -- En-DIIS/RFO-DIIS
 Swapping is turned off.
 Update second derivatives using D2CorX and points   16   17   18   19   20
 DE= -9.34D-07 DEPred=-8.56D-07 R= 1.09D+00
 Trust test= 1.09D+00 RLast= 3.80D-03 DXMaxT set to 3.88D-01
 ITU=  0  1  1  1 -1  1  1  1  0 -1  0  0 -1  0  1  0  0  1 -1  0
     Eigenvalues ---    0.00088   0.02328   0.04909   0.10713   0.12371
     Eigenvalues ---    0.15259   0.18868   0.21964   0.23332   0.26555
     Eigenvalues ---    0.28546   0.44080   0.49038   0.55098   0.59763
     Eigenvalues ---    0.60974   0.62587   1.08524
 En-DIIS/RFO-DIIS/Sim-DIIS IScMMF=       -3 using points:    20   19   18
 RFO step:  Lambda=-2.83458723D-07.
 DidBck=F Rises=F RFO-DIIS coefs:    1.22541   -0.20778   -0.01762
 Iteration  1 RMS(Cart)=  0.00056135 RMS(Int)=  0.00000029
 Iteration  2 RMS(Cart)=  0.00000024 RMS(Int)=  0.00000011
 Variable       Old X    -DE/DX   Delta X   Delta X   Delta X     New X
                                 (Linear)    (Quad)   (Total)
    R1        2.52091  -0.00012  -0.00013  -0.00019  -0.00032   2.52059
    R2        2.49622  -0.00002   0.00009  -0.00008   0.00001   2.49623
    R3        2.92332  -0.00007   0.00001  -0.00015  -0.00013   2.92319
    R4        2.52002   0.00016   0.00005   0.00026   0.00032   2.52033
    R5        2.24885   0.00012   0.00002   0.00011   0.00012   2.24898
    R6        2.51045  -0.00011  -0.00004  -0.00015  -0.00019   2.51026
    R7        1.82223  -0.00003   0.00005  -0.00006  -0.00001   1.82221
    A1        1.89785  -0.00001   0.00025  -0.00041  -0.00016   1.89769
    A2        1.92525   0.00001   0.00015   0.00013   0.00027   1.92553
    A3        1.89063   0.00006   0.00001   0.00025   0.00026   1.89089
    A4        1.92583  -0.00008  -0.00007  -0.00018  -0.00025   1.92558
    A5        1.89756   0.00008  -0.00013   0.00024   0.00011   1.89767
    A6        1.92596  -0.00006  -0.00020  -0.00004  -0.00023   1.92573
    A7        2.15451  -0.00007  -0.00026  -0.00011  -0.00037   2.15414
    A8        1.92105   0.00000   0.00030  -0.00004   0.00026   1.92130
    A9        2.20763   0.00007  -0.00004   0.00015   0.00011   2.20774
   A10        1.88586  -0.00007  -0.00002  -0.00025  -0.00027   1.88560
    D1       -2.09586   0.00004  -0.00115   0.00042  -0.00073  -2.09659
    D2        1.04591   0.00003  -0.00099   0.00018  -0.00082   1.04509
    D3        0.00147  -0.00002  -0.00079  -0.00012  -0.00091   0.00056
    D4       -3.13995  -0.00003  -0.00064  -0.00036  -0.00100  -3.14094
    D5        2.09890  -0.00000  -0.00113   0.00004  -0.00109   2.09781
    D6       -1.04252  -0.00002  -0.00097  -0.00020  -0.00117  -1.04369
    D7       -3.14099  -0.00000  -0.00053  -0.00015  -0.00068   3.14152
    D8        0.00078  -0.00002  -0.00037  -0.00040  -0.00076   0.00002
         Item               Value     Threshold  Converged?
 Maximum Force            0.000159     0.000450     YES
 RMS     Force            0.000066     0.000300     YES
 Maximum Displacement     0.001193     0.001800     YES
 RMS     Displacement     0.000561     0.001200     YES
 Predicted change in Energy=-1.417261D-07
 Optimization completed.
    -- Stationary point found.
                           ----------------------------
                           !   Optimized Parameters   !
                           ! (Angstroms and Degrees)  !
 --------------------------                            --------------------------
 ! Name  Definition              Value          Derivative Info.                !
 --------------------------------------------------------------------------------
 ! R1    R(1,2)                  1.334          -DE/DX =   -0.0001              !
 ! R2    R(1,3)                  1.3209         -DE/DX =    0.0                 !
 ! R3    R(1,4)                  1.547          -DE/DX =   -0.0001              !
 ! R4    R(1,8)                  1.3335         -DE/DX =    0.0002              !
 ! R5    R(4,5)                  1.19           -DE/DX =    0.0001              !
 ! R6    R(4,6)                  1.3285         -DE/DX =   -0.0001              !
 ! R7    R(6,7)                  0.9643         -DE/DX =    0.0                 !
 ! A1    A(2,1,3)              108.7387         -DE/DX =    0.0                 !
 ! A2    A(2,1,4)              110.3089         -DE/DX =    0.0                 !
 ! A3    A(2,1,8)              108.3249         -DE/DX =    0.0001              !
 ! A4    A(3,1,4)              110.3419         -DE/DX =   -0.0001              !
 ! A5    A(3,1,8)              108.7221         -DE/DX =    0.0001              !
 ! A6    A(4,1,8)              110.3496         -DE/DX =   -0.0001              !
 ! A7    A(1,4,5)              123.4442         -DE/DX =   -0.0001              !
 ! A8    A(1,4,6)              110.0678         -DE/DX =    0.0                 !
 ! A9    A(5,4,6)              126.488          -DE/DX =    0.0001              !
 ! A10   A(4,6,7)              108.0521         -DE/DX =   -0.0001              !
 ! D1    D(2,1,4,5)           -120.0838         -DE/DX =    0.0                 !
 ! D2    D(2,1,4,6)             59.9261         -DE/DX =    0.0                 !
 ! D3    D(3,1,4,5)              0.0843         -DE/DX =    0.0                 !
 ! D4    D(3,1,4,6)           -179.9058         -DE/DX =    0.0                 !
 ! D5    D(8,1,4,5)            120.2579         -DE/DX =    0.0                 !
 ! D6    D(8,1,4,6)            -59.7322         -DE/DX =    0.0                 !
 ! D7    D(1,4,6,7)            180.0344         -DE/DX =    0.0                 !
 ! D8    D(5,4,6,7)              0.0447         -DE/DX =    0.0                 !
 --------------------------------------------------------------------------------
 GradGradGradGradGradGradGradGradGradGradGradGradGradGradGradGradGradGrad

                          Input orientation:                          
 ---------------------------------------------------------------------
 Center     Atomic      Atomic             Coordinates (Angstroms)
 Number     Number       Type             X           Y           Z
 ---------------------------------------------------------------------
      1          6           0        0.596733    0.010489   -0.015656
      2          9           0        0.941723   -0.071300    1.270374
      3          9           0        1.204120   -0.956094   -0.680255
      4          6           0       -0.937619   -0.113419   -0.168882
      5          8           0       -1.466372   -0.971230   -0.801953
      6          8           0       -1.542751    0.862118    0.499684
      7          1           0       -2.494443    0.757101    0.385279
      8          9           0        1.016694    1.184503   -0.488563
 ---------------------------------------------------------------------
                    Distance matrix (angstroms):
                    1          2          3          4          5
     1  C    0.000000
     2  F    1.334008   0.000000
     3  F    1.320944   2.157931   0.000000
     4  C    1.546955   2.367521   2.357678   0.000000
     5  O    2.416286   3.302020   2.673306   1.190041   0.000000
     6  O    2.359712   2.763664   3.499064   1.328472   2.249724
     7  H    3.205238   3.643745   4.213048   1.867780   2.335290
     8  F    1.333535   2.162526   2.157320   2.367728   3.303183
                    6          7          8
     6  O    0.000000
     7  H    0.964280   0.000000
     8  F    2.762485   3.643399   0.000000
 Stoichiometry    C2HF3O2
 Framework group  C1[X(C2HF3O2)]
 Deg. of freedom    18
 Full point group                 C1      NOp   1
 Largest Abelian subgroup         C1      NOp   1
 Largest concise Abelian subgroup C1      NOp   1
                         Standard orientation:                         
 ---------------------------------------------------------------------
 Center     Atomic      Atomic             Coordinates (Angstroms)
 Number     Number       Type             X           Y           Z
 ---------------------------------------------------------------------
      1          6           0        0.599896    0.001028   -0.000111
      2          9           0        0.995537    0.672952    1.082278
      3          9           0        1.184807   -1.183357   -0.001676
      4          6           0       -0.938751   -0.159080   -0.000039
      5          8           0       -1.488315   -1.214626    0.000214
      6          8           0       -1.521292    1.034856   -0.000514
      7          1           0       -2.476290    0.901381    0.000095
      8          9           0        0.995909    0.675414   -1.080247
 ---------------------------------------------------------------------
 Rotational constants (GHZ):           3.8852601           2.5009673           2.0771593

 **********************************************************************

            Population analysis using the SCF density.

 **********************************************************************

 Orbital symmetries:
       Occupied  (A) (A) (A) (A) (A) (A) (A) (A) (A) (A) (A) (A)
                 (A) (A) (A) (A) (A) (A) (A) (A) (A) (A) (A) (A)
                 (A) (A) (A) (A)
       Virtual   (A) (A) (A) (A) (A) (A) (A) (A) (A) (A) (A) (A)
                 (A) (A) (A) (A) (A) (A) (A) (A) (A) (A) (A) (A)
                 (A) (A) (A) (A) (A) (A) (A) (A) (A) (A) (A) (A)
                 (A) (A) (A) (A) (A) (A) (A) (A) (A) (A) (A) (A)
                 (A) (A) (A) (A) (A) (A) (A) (A) (A) (A) (A) (A)
                 (A) (A) (A) (A) (A) (A) (A) (A) (A) (A) (A) (A)
                 (A) (A) (A) (A) (A) (A) (A) (A) (A) (A) (A) (A)
                 (A) (A) (A) (A) (A) (A) (A) (A) (A) (A) (A) (A)
                 (A) (A) (A) (A) (A) (A) (A) (A) (A) (A) (A) (A)
                 (A) (A) (A) (A) (A) (A) (A) (A) (A) (A) (A) (A)
                 (A) (A) (A) (A) (A) (A) (A) (A) (A) (A) (A) (A)
                 (A) (A) (A) (A) (A) (A) (A) (A) (A) (A) (A) (A)
                 (A) (A) (A) (A) (A) (A) (A) (A) (A) (A) (A) (A)
                 (A) (A) (A) (A) (A) (A) (A) (A) (A) (A) (A) (A)
                 (A) (A)
 The electronic state is 1-A.
 Alpha  occ. eigenvalues --  -24.86751 -24.86740 -24.86671 -19.34442 -19.28776
 Alpha  occ. eigenvalues --  -10.57042 -10.46974  -1.45681  -1.36448  -1.36283
 Alpha  occ. eigenvalues --   -1.26819  -1.17938  -0.88265  -0.78666  -0.72482
 Alpha  occ. eigenvalues --   -0.72094  -0.70084  -0.62252  -0.60021  -0.59135
 Alpha  occ. eigenvalues --   -0.57995  -0.57400  -0.55037  -0.54427  -0.52750
 Alpha  occ. eigenvalues --   -0.51233  -0.45788  -0.41418
 Alpha virt. eigenvalues --    0.02412   0.05049   0.09029   0.10243   0.10546
 Alpha virt. eigenvalues --    0.12794   0.13356   0.13432   0.18014   0.18864
 Alpha virt. eigenvalues --    0.22027   0.22466   0.24167   0.26260   0.27388
 Alpha virt. eigenvalues --    0.28154   0.29250   0.31355   0.32212   0.33082
 Alpha virt. eigenvalues --    0.34186   0.34592   0.35285   0.36776   0.36978
 Alpha virt. eigenvalues --    0.38561   0.40179   0.40882   0.42147   0.42188
 Alpha virt. eigenvalues --    0.44419   0.46068   0.48100   0.49148   0.53598
 Alpha virt. eigenvalues --    0.55879   0.58196   0.64916   0.66787   0.67193
 Alpha virt. eigenvalues --    0.69519   0.74729   0.75503   0.76826   0.84231
 Alpha virt. eigenvalues --    0.85930   0.90741   0.93596   0.98843   1.03143
 Alpha virt. eigenvalues --    1.07083   1.09411   1.12372   1.14386   1.14737
 Alpha virt. eigenvalues --    1.20926   1.21108   1.24119   1.24962   1.27172
 Alpha virt. eigenvalues --    1.35271   1.37603   1.40264   1.42174   1.42396
 Alpha virt. eigenvalues --    1.43570   1.46528   1.48382   1.50702   1.53512
 Alpha virt. eigenvalues --    1.55361   1.57278   1.60859   1.63108   1.65920
 Alpha virt. eigenvalues --    1.77914   1.79452   1.80157   1.95509   1.96648
 Alpha virt. eigenvalues --    2.00247   2.04666   2.06019   2.06845   2.10232
 Alpha virt. eigenvalues --    2.10236   2.14279   2.18959   2.22252   2.26883
 Alpha virt. eigenvalues --    2.29546   2.38983   2.44413   2.49319   2.55549
 Alpha virt. eigenvalues --    2.62143   2.66804   2.67208   2.72316   2.73712
 Alpha virt. eigenvalues --    2.82073   2.85464   2.91905   3.14350   3.21604
 Alpha virt. eigenvalues --    3.29257   3.38284   3.42740   3.47238   3.51329
 Alpha virt. eigenvalues --    3.53181   3.54467   3.54891   3.60395   3.61702
 Alpha virt. eigenvalues --    3.79815   3.85522   3.94451   4.08392   4.24325
 Alpha virt. eigenvalues --    4.27524   4.31099   4.34701   5.06054   5.12084
 Alpha virt. eigenvalues --    5.28581   5.57720   5.97694   6.30261   6.39227
 Alpha virt. eigenvalues --    6.43297   6.44586   6.45141   6.46513   6.50923
 Alpha virt. eigenvalues --    6.54409   6.80414   6.85599   6.88460   6.90824
 Alpha virt. eigenvalues --    6.92945   7.03029   7.14298   7.17494   7.24535
 Alpha virt. eigenvalues --    7.27774   7.43282   7.52124   9.08223   9.10229
 Alpha virt. eigenvalues --    9.11676   9.21617   9.22445   9.23695   9.25459
 Alpha virt. eigenvalues --    9.33315   9.37323   9.50587   9.67915   9.70755
 Alpha virt. eigenvalues --    9.76606   9.86142   9.91195  24.01341  24.18750
 Alpha virt. eigenvalues --   50.04163  50.11921  66.93079  66.95648  66.99220
          Condensed to atoms (all electrons):
               1          2          3          4          5          6
     1  C    4.361095   0.212691   0.273043   0.264031  -0.018244  -0.135784
     2  F    0.212691   9.098903   0.002076  -0.055395  -0.004662   0.017757
     3  F    0.273043   0.002076   9.086066  -0.079815   0.008380   0.004094
     4  C    0.264031  -0.055395  -0.079815   4.680893   0.404566   0.378937
     5  O   -0.018244  -0.004662   0.008380   0.404566   8.072832  -0.088044
     6  O   -0.135784   0.017757   0.004094   0.378937  -0.088044   7.899744
     7  H    0.005902  -0.000333  -0.000398  -0.023018   0.022077   0.265597
     8  F    0.212637   0.002098   0.002010  -0.055246  -0.004643   0.017739
               7          8
     1  C    0.005902   0.212637
     2  F   -0.000333   0.002098
     3  F   -0.000398   0.002010
     4  C   -0.023018  -0.055246
     5  O    0.022077  -0.004643
     6  O    0.265597   0.017739
     7  H    0.446290  -0.000324
     8  F   -0.000324   9.098723
 Mulliken charges:
               1
     1  C    0.824629
     2  F   -0.273134
     3  F   -0.295456
     4  C    0.485048
     5  O   -0.392262
     6  O   -0.360039
     7  H    0.284208
     8  F   -0.272993
 Sum of Mulliken charges =  -0.00000
 Mulliken charges with hydrogens summed into heavy atoms:
               1
     1  C    0.824629
     2  F   -0.273134
     3  F   -0.295456
     4  C    0.485048
     5  O   -0.392262
     6  O   -0.075832
     8  F   -0.272993
 Electronic spatial extent (au):  <R**2>=            594.3005
 Charge=             -0.0000 electrons
 Dipole moment (field-independent basis, Debye):
    X=             -1.7957    Y=              1.3806    Z=             -0.0015  Tot=              2.2650
 Quadrupole moment (field-independent basis, Debye-Ang):
   XX=            -32.1303   YY=            -41.1341   ZZ=            -37.0348
   XY=             -4.2796   XZ=             -0.0030   YZ=              0.0007
 Traceless Quadrupole moment (field-independent basis, Debye-Ang):
   XX=              4.6361   YY=             -4.3677   ZZ=             -0.2684
   XY=             -4.2796   XZ=             -0.0030   YZ=              0.0007
 Octapole moment (field-independent basis, Debye-Ang**2):
  XXX=             -9.0807  YYY=              4.3929  ZZZ=             -0.0073  XYY=              6.1160
  XXY=             12.2405  XXZ=              0.0022  XZZ=              1.9710  YZZ=             -0.8886
  YYZ=              0.0023  XYZ=             -0.0048
 Hexadecapole moment (field-independent basis, Debye-Ang**3):
 XXXX=           -270.9742 YYYY=           -189.2232 ZZZZ=            -95.7790 XXXY=            -33.1754
 XXXZ=             -0.0121 YYYX=             -7.1419 YYYZ=              0.0036 ZZZX=             -0.0087
 ZZZY=              0.0015 XXYY=            -87.6168 XXZZ=            -71.9957 YYZZ=            -46.7252
 XXYZ=              0.0052 YYXZ=             -0.0016 ZZXY=             -0.8158
 N-N= 3.378325166797D+02 E-N=-1.924542912990D+03  KE= 5.254421264797D+02
 1\1\GINC-CCLEARCH4\FOpt\RwB97XD\6-311+G(2d,2p)\C2H1F3O2\RAPPE\07-Jan-2
 025\0\\# opt wb97xd/6-311+g(2d,2p) geom=connectivity freq integral=gri
 d=superfinegrid scf=(xqc,tight)\\Title Card Required\\0,1\C,0.59673341
 49,0.0104889603,-0.0156557366\F,0.9417226128,-0.0712996016,1.270373526
 6\F,1.2041196442,-0.9560943731,-0.6802546911\C,-0.9376190423,-0.113419
 2285,-0.1688824831\O,-1.4663718628,-0.9712300062,-0.8019534665\O,-1.54
 27506421,0.862118276,0.4996835307\H,-2.4944434255,0.7571011445,0.38527
 90303\F,1.0166943008,1.1845028285,-0.4885627103\\Version=EM64M-G16RevA
 .03\State=1-A\HF=-526.8230797\RMSD=6.383e-09\RMSF=8.131e-05\Dipole=-0.
 7163933,0.4458995,0.2864914\Quadrupole=3.5629828,-2.2009999,-1.3619829
 ,-2.5569701,-1.6643859,-1.5333611\PG=C01 [X(C2H1F3O2)]\\@


 THERE IS AN OLD, OLD RECIPE IN MAINE FOR STEWING COOT. PLACE THE
 BIRD IN A KETTLE OF WATER WITH A RED BUILDING BRICK FREE OF MORTAR AND
 BLEMISHES. PARBOIL THE COOT AND BRICK TOGETHER FOR THREE HOURS.
 POUR OFF THE WATER, REFILL THE KETTLE, AND AGAIN PARBOIL FOR THREE HOURS.
 ONCE AGAIN POUR OFF THE WATER, FOR THE LAST TIME ADD FRESH WATER,
 AND LET THE COOT AND BRICK SIMMER TOGETHER OVERNIGHT. IN THE MORNING,
 THROW AWAY THE COOT AND EAT THE BRICK.
 Job cpu time:       0 days  2 hours  1 minutes  2.0 seconds.
 Elapsed time:       0 days  0 hours 16 minutes 23.4 seconds.
 File lengths (MBytes):  RWF=     20 Int=      0 D2E=      0 Chk=      5 Scr=      1
 Normal termination of Gaussian 16 at Tue Jan  7 12:37:11 2025.
 Link1:  Proceeding to internal job step number  2.
 ----------------------------------------------------------------------
 #N Geom=AllCheck Guess=TCheck SCRF=Check GenChk RwB97XD/6-311+G(2d,2p)
  Freq
 ----------------------------------------------------------------------
 1/10=4,29=7,30=1,38=1,40=1/1,3;
 2/12=2,40=1/2;
 3/5=4,6=6,7=212,11=2,14=-4,25=1,30=1,70=2,71=2,74=-58,75=-7,116=1,140=1/1,2,3;
 4/5=101/1;
 5/5=2,8=3,13=1,32=2,38=6,98=1/2,8;
 8/6=4,10=90,11=11/1;
 11/6=1,8=1,9=11,15=111,16=1/1,2,10;
 10/6=1/2;
 6/7=2,8=2,9=2,10=2,28=1/1;
 7/8=1,10=1,25=1/1,2,3,16;
 1/10=4,30=1/3;
 99//99;
 Structure from the checkpoint file:  "tfa.chk"
 -------------------
 Title Card Required
 -------------------
 Charge =  0 Multiplicity = 1
 Redundant internal coordinates found in file.  (old form).
 C,0,0.5967334149,0.0104889603,-0.0156557366
 F,0,0.9417226128,-0.0712996016,1.2703735266
 F,0,1.2041196442,-0.9560943731,-0.6802546911
 C,0,-0.9376190423,-0.1134192285,-0.1688824831
 O,0,-1.4663718628,-0.9712300062,-0.8019534665
 O,0,-1.5427506421,0.862118276,0.4996835307
 H,0,-2.4944434255,0.7571011445,0.3852790303
 F,0,1.0166943008,1.1845028285,-0.4885627103
 Recover connectivity data from disk.

 GradGradGradGradGradGradGradGradGradGradGradGradGradGradGradGradGradGrad
 Berny optimization.
 Initialization pass.
                           ----------------------------
                           !    Initial Parameters    !
                           ! (Angstroms and Degrees)  !
 --------------------------                            --------------------------
 ! Name  Definition              Value          Derivative Info.                !
 --------------------------------------------------------------------------------
 ! R1    R(1,2)                  1.334          calculate D2E/DX2 analytically  !
 ! R2    R(1,3)                  1.3209         calculate D2E/DX2 analytically  !
 ! R3    R(1,4)                  1.547          calculate D2E/DX2 analytically  !
 ! R4    R(1,8)                  1.3335         calculate D2E/DX2 analytically  !
 ! R5    R(4,5)                  1.19           calculate D2E/DX2 analytically  !
 ! R6    R(4,6)                  1.3285         calculate D2E/DX2 analytically  !
 ! R7    R(6,7)                  0.9643         calculate D2E/DX2 analytically  !
 ! A1    A(2,1,3)              108.7387         calculate D2E/DX2 analytically  !
 ! A2    A(2,1,4)              110.3089         calculate D2E/DX2 analytically  !
 ! A3    A(2,1,8)              108.3249         calculate D2E/DX2 analytically  !
 ! A4    A(3,1,4)              110.3419         calculate D2E/DX2 analytically  !
 ! A5    A(3,1,8)              108.7221         calculate D2E/DX2 analytically  !
 ! A6    A(4,1,8)              110.3496         calculate D2E/DX2 analytically  !
 ! A7    A(1,4,5)              123.4442         calculate D2E/DX2 analytically  !
 ! A8    A(1,4,6)              110.0678         calculate D2E/DX2 analytically  !
 ! A9    A(5,4,6)              126.488          calculate D2E/DX2 analytically  !
 ! A10   A(4,6,7)              108.0521         calculate D2E/DX2 analytically  !
 ! D1    D(2,1,4,5)           -120.0838         calculate D2E/DX2 analytically  !
 ! D2    D(2,1,4,6)             59.9261         calculate D2E/DX2 analytically  !
 ! D3    D(3,1,4,5)              0.0843         calculate D2E/DX2 analytically  !
 ! D4    D(3,1,4,6)           -179.9058         calculate D2E/DX2 analytically  !
 ! D5    D(8,1,4,5)            120.2579         calculate D2E/DX2 analytically  !
 ! D6    D(8,1,4,6)            -59.7322         calculate D2E/DX2 analytically  !
 ! D7    D(1,4,6,7)           -179.9656         calculate D2E/DX2 analytically  !
 ! D8    D(5,4,6,7)              0.0447         calculate D2E/DX2 analytically  !
 --------------------------------------------------------------------------------
 Trust Radius=3.00D-01 FncErr=1.00D-07 GrdErr=1.00D-07 EigMax=2.50D+02 EigMin=1.00D-04
 Number of steps in this run=      2 maximum allowed number of steps=      2.
 GradGradGradGradGradGradGradGradGradGradGradGradGradGradGradGradGradGrad

                          Input orientation:                          
 ---------------------------------------------------------------------
 Center     Atomic      Atomic             Coordinates (Angstroms)
 Number     Number       Type             X           Y           Z
 ---------------------------------------------------------------------
      1          6           0        0.596733    0.010489   -0.015656
      2          9           0        0.941723   -0.071300    1.270374
      3          9           0        1.204120   -0.956094   -0.680255
      4          6           0       -0.937619   -0.113419   -0.168882
      5          8           0       -1.466372   -0.971230   -0.801953
      6          8           0       -1.542751    0.862118    0.499684
      7          1           0       -2.494443    0.757101    0.385279
      8          9           0        1.016694    1.184503   -0.488563
 ---------------------------------------------------------------------
                    Distance matrix (angstroms):
                    1          2          3          4          5
     1  C    0.000000
     2  F    1.334008   0.000000
     3  F    1.320944   2.157931   0.000000
     4  C    1.546955   2.367521   2.357678   0.000000
     5  O    2.416286   3.302020   2.673306   1.190041   0.000000
     6  O    2.359712   2.763664   3.499064   1.328472   2.249724
     7  H    3.205238   3.643745   4.213048   1.867780   2.335290
     8  F    1.333535   2.162526   2.157320   2.367728   3.303183
                    6          7          8
     6  O    0.000000
     7  H    0.964280   0.000000
     8  F    2.762485   3.643399   0.000000
 Stoichiometry    C2HF3O2
 Framework group  C1[X(C2HF3O2)]
 Deg. of freedom    18
 Full point group                 C1      NOp   1
 Largest Abelian subgroup         C1      NOp   1
 Largest concise Abelian subgroup C1      NOp   1
                         Standard orientation:                         
 ---------------------------------------------------------------------
 Center     Atomic      Atomic             Coordinates (Angstroms)
 Number     Number       Type             X           Y           Z
 ---------------------------------------------------------------------
      1          6           0        0.599896    0.001028   -0.000111
      2          9           0        0.995537    0.672952    1.082278
      3          9           0        1.184807   -1.183357   -0.001676
      4          6           0       -0.938751   -0.159080   -0.000039
      5          8           0       -1.488315   -1.214626    0.000214
      6          8           0       -1.521292    1.034856   -0.000514
      7          1           0       -2.476290    0.901381    0.000095
      8          9           0        0.995909    0.675414   -1.080247
 ---------------------------------------------------------------------
 Rotational constants (GHZ):           3.8852601           2.5009673           2.0771593
 Standard basis: 6-311+G(2d,2p) (5D, 7F)
 There are   212 symmetry adapted cartesian basis functions of A   symmetry.
 There are   198 symmetry adapted basis functions of A   symmetry.
   198 basis functions,   305 primitive gaussians,   212 cartesian basis functions
    28 alpha electrons       28 beta electrons
       nuclear repulsion energy       337.8343023280 Hartrees.
 NAtoms=    8 NActive=    8 NUniq=    8 SFac= 1.00D+00 NAtFMM=   60 NAOKFM=F Big=F
 Integral buffers will be    131072 words long.
 Raffenetti 2 integral format.
 Two-electron integral symmetry is turned on.
 Nuclear repulsion after empirical dispersion term =      337.8325166797 Hartrees.
 One-electron integrals computed using PRISM.
 NBasis=   198 RedAO= T EigKep=  1.03D-04  NBF=   198
 NBsUse=   198 1.00D-06 EigRej= -1.00D+00 NBFU=   198
 Initial guess from the checkpoint file:  "tfa.chk"
 B after Tr=     0.000000    0.000000    0.000000
         Rot=    1.000000    0.000000   -0.000000   -0.000000 Ang=   0.00 deg.
 Keep R1 ints in memory in canonical form, NReq=396510994.
 Requested convergence on RMS density matrix=1.00D-08 within  32 cycles.
 Requested convergence on MAX density matrix=1.00D-06.
 Requested convergence on             energy=1.00D-06.
 No special actions if energy rises.
 SCF Done:  E(RwB97XD) =  -526.823079725     A.U. after    1 cycles
            NFock=  1  Conv=0.24D-08     -V/T= 2.0026
 QCSCF skips out because SCF is already converged.
 DoSCS=F DFT=T ScalE2(SS,OS)=  1.000000  1.000000
 Range of M.O.s used for correlation:     1   198
 NBasis=   198 NAE=    28 NBE=    28 NFC=     0 NFV=     0
 NROrb=    198 NOA=    28 NOB=    28 NVA=   170 NVB=   170

 **** Warning!!: The largest alpha MO coefficient is  0.35539455D+02

 Symmetrizing basis deriv contribution to polar:
 IMax=3 JMax=2 DiffMx= 0.00D+00
 G2DrvN: will do     9 centers at a time, making    1 passes.
 Calling FoFCou, ICntrl=  3107 FMM=F I1Cent=   0 AccDes= 0.00D+00.
 End of G2Drv F.D. properties file   721 does not exist.
 End of G2Drv F.D. properties file   722 does not exist.
 End of G2Drv F.D. properties file   788 does not exist.
          IDoAtm=11111111
          Differentiating once with respect to electric field.
                with respect to dipole field.
          Differentiating once with respect to nuclear coordinates.
 Keep R1 ints in memory in canonical form, NReq=396468801.
          There are    27 degrees of freedom in the 1st order CPHF.  IDoFFX=6 NUNeed=     3.
     24 vectors produced by pass  0 Test12= 1.76D-14 3.70D-09 XBig12= 1.46D+01 2.28D+00.
 AX will form    24 AO Fock derivatives at one time.
     24 vectors produced by pass  1 Test12= 1.76D-14 3.70D-09 XBig12= 2.86D+00 2.46D-01.
     24 vectors produced by pass  2 Test12= 1.76D-14 3.70D-09 XBig12= 9.78D-02 5.94D-02.
     24 vectors produced by pass  3 Test12= 1.76D-14 3.70D-09 XBig12= 2.20D-03 1.05D-02.
     24 vectors produced by pass  4 Test12= 1.76D-14 3.70D-09 XBig12= 2.42D-05 1.37D-03.
     24 vectors produced by pass  5 Test12= 1.76D-14 3.70D-09 XBig12= 1.92D-07 9.87D-05.
     24 vectors produced by pass  6 Test12= 1.76D-14 3.70D-09 XBig12= 1.28D-09 6.63D-06.
     11 vectors produced by pass  7 Test12= 1.76D-14 3.70D-09 XBig12= 7.59D-12 3.70D-07.
      3 vectors produced by pass  8 Test12= 1.76D-14 3.70D-09 XBig12= 4.77D-14 3.01D-08.
 InvSVY:  IOpt=1 It=  1 EMax= 1.78D-15
 Solved reduced A of dimension   182 with    27 vectors.
 Isotropic polarizability for W=    0.000000       33.58 Bohr**3.
 End of Minotr F.D. properties file   721 does not exist.
 End of Minotr F.D. properties file   722 does not exist.
 End of Minotr F.D. properties file   788 does not exist.

 **********************************************************************

            Population analysis using the SCF density.

 **********************************************************************

 Orbital symmetries:
       Occupied  (A) (A) (A) (A) (A) (A) (A) (A) (A) (A) (A) (A)
                 (A) (A) (A) (A) (A) (A) (A) (A) (A) (A) (A) (A)
                 (A) (A) (A) (A)
       Virtual   (A) (A) (A) (A) (A) (A) (A) (A) (A) (A) (A) (A)
                 (A) (A) (A) (A) (A) (A) (A) (A) (A) (A) (A) (A)
                 (A) (A) (A) (A) (A) (A) (A) (A) (A) (A) (A) (A)
                 (A) (A) (A) (A) (A) (A) (A) (A) (A) (A) (A) (A)
                 (A) (A) (A) (A) (A) (A) (A) (A) (A) (A) (A) (A)
                 (A) (A) (A) (A) (A) (A) (A) (A) (A) (A) (A) (A)
                 (A) (A) (A) (A) (A) (A) (A) (A) (A) (A) (A) (A)
                 (A) (A) (A) (A) (A) (A) (A) (A) (A) (A) (A) (A)
                 (A) (A) (A) (A) (A) (A) (A) (A) (A) (A) (A) (A)
                 (A) (A) (A) (A) (A) (A) (A) (A) (A) (A) (A) (A)
                 (A) (A) (A) (A) (A) (A) (A) (A) (A) (A) (A) (A)
                 (A) (A) (A) (A) (A) (A) (A) (A) (A) (A) (A) (A)
                 (A) (A) (A) (A) (A) (A) (A) (A) (A) (A) (A) (A)
                 (A) (A) (A) (A) (A) (A) (A) (A) (A) (A) (A) (A)
                 (A) (A)
 The electronic state is 1-A.
 Alpha  occ. eigenvalues --  -24.86751 -24.86740 -24.86671 -19.34442 -19.28776
 Alpha  occ. eigenvalues --  -10.57042 -10.46974  -1.45681  -1.36448  -1.36283
 Alpha  occ. eigenvalues --   -1.26819  -1.17938  -0.88265  -0.78666  -0.72482
 Alpha  occ. eigenvalues --   -0.72094  -0.70084  -0.62252  -0.60021  -0.59135
 Alpha  occ. eigenvalues --   -0.57995  -0.57400  -0.55037  -0.54427  -0.52750
 Alpha  occ. eigenvalues --   -0.51233  -0.45788  -0.41418
 Alpha virt. eigenvalues --    0.02412   0.05049   0.09029   0.10243   0.10546
 Alpha virt. eigenvalues --    0.12794   0.13356   0.13432   0.18014   0.18864
 Alpha virt. eigenvalues --    0.22027   0.22466   0.24167   0.26260   0.27388
 Alpha virt. eigenvalues --    0.28154   0.29250   0.31355   0.32212   0.33082
 Alpha virt. eigenvalues --    0.34186   0.34592   0.35285   0.36776   0.36978
 Alpha virt. eigenvalues --    0.38561   0.40179   0.40882   0.42147   0.42188
 Alpha virt. eigenvalues --    0.44419   0.46068   0.48100   0.49148   0.53598
 Alpha virt. eigenvalues --    0.55879   0.58196   0.64916   0.66787   0.67193
 Alpha virt. eigenvalues --    0.69519   0.74729   0.75503   0.76826   0.84231
 Alpha virt. eigenvalues --    0.85930   0.90741   0.93596   0.98843   1.03143
 Alpha virt. eigenvalues --    1.07083   1.09411   1.12372   1.14386   1.14737
 Alpha virt. eigenvalues --    1.20926   1.21108   1.24119   1.24962   1.27172
 Alpha virt. eigenvalues --    1.35271   1.37603   1.40264   1.42174   1.42396
 Alpha virt. eigenvalues --    1.43570   1.46528   1.48382   1.50702   1.53512
 Alpha virt. eigenvalues --    1.55361   1.57278   1.60859   1.63108   1.65920
 Alpha virt. eigenvalues --    1.77914   1.79452   1.80157   1.95509   1.96648
 Alpha virt. eigenvalues --    2.00247   2.04666   2.06019   2.06845   2.10232
 Alpha virt. eigenvalues --    2.10236   2.14279   2.18959   2.22252   2.26883
 Alpha virt. eigenvalues --    2.29546   2.38983   2.44413   2.49319   2.55549
 Alpha virt. eigenvalues --    2.62143   2.66804   2.67208   2.72316   2.73712
 Alpha virt. eigenvalues --    2.82073   2.85464   2.91905   3.14350   3.21604
 Alpha virt. eigenvalues --    3.29257   3.38284   3.42740   3.47238   3.51329
 Alpha virt. eigenvalues --    3.53181   3.54467   3.54891   3.60395   3.61702
 Alpha virt. eigenvalues --    3.79815   3.85522   3.94451   4.08392   4.24325
 Alpha virt. eigenvalues --    4.27524   4.31099   4.34701   5.06054   5.12084
 Alpha virt. eigenvalues --    5.28581   5.57720   5.97694   6.30261   6.39227
 Alpha virt. eigenvalues --    6.43297   6.44586   6.45141   6.46513   6.50923
 Alpha virt. eigenvalues --    6.54409   6.80414   6.85599   6.88460   6.90824
 Alpha virt. eigenvalues --    6.92945   7.03029   7.14298   7.17494   7.24535
 Alpha virt. eigenvalues --    7.27774   7.43282   7.52124   9.08223   9.10229
 Alpha virt. eigenvalues --    9.11676   9.21617   9.22445   9.23695   9.25459
 Alpha virt. eigenvalues --    9.33315   9.37323   9.50587   9.67915   9.70755
 Alpha virt. eigenvalues --    9.76606   9.86142   9.91195  24.01341  24.18750
 Alpha virt. eigenvalues --   50.04163  50.11921  66.93079  66.95648  66.99220
          Condensed to atoms (all electrons):
               1          2          3          4          5          6
     1  C    4.361095   0.212691   0.273043   0.264031  -0.018244  -0.135784
     2  F    0.212691   9.098903   0.002076  -0.055395  -0.004662   0.017757
     3  F    0.273043   0.002076   9.086066  -0.079815   0.008380   0.004094
     4  C    0.264031  -0.055395  -0.079815   4.680894   0.404566   0.378937
     5  O   -0.018244  -0.004662   0.008380   0.404566   8.072832  -0.088044
     6  O   -0.135784   0.017757   0.004094   0.378937  -0.088044   7.899743
     7  H    0.005902  -0.000333  -0.000398  -0.023018   0.022077   0.265597
     8  F    0.212637   0.002098   0.002010  -0.055246  -0.004643   0.017739
               7          8
     1  C    0.005902   0.212637
     2  F   -0.000333   0.002098
     3  F   -0.000398   0.002010
     4  C   -0.023018  -0.055246
     5  O    0.022077  -0.004643
     6  O    0.265597   0.017739
     7  H    0.446290  -0.000324
     8  F   -0.000324   9.098723
 Mulliken charges:
               1
     1  C    0.824629
     2  F   -0.273134
     3  F   -0.295456
     4  C    0.485047
     5  O   -0.392261
     6  O   -0.360039
     7  H    0.284207
     8  F   -0.272993
 Sum of Mulliken charges =  -0.00000
 Mulliken charges with hydrogens summed into heavy atoms:
               1
     1  C    0.824629
     2  F   -0.273134
     3  F   -0.295456
     4  C    0.485047
     5  O   -0.392261
     6  O   -0.075831
     8  F   -0.272993
 APT charges:
               1
     1  C    1.600003
     2  F   -0.538084
     3  F   -0.513843
     4  C    1.048481
     5  O   -0.685651
     6  O   -0.689407
     7  H    0.316439
     8  F   -0.537937
 Sum of APT charges =  -0.00000
 APT charges with hydrogens summed into heavy atoms:
               1
     1  C    1.600003
     2  F   -0.538084
     3  F   -0.513843
     4  C    1.048481
     5  O   -0.685651
     6  O   -0.372969
     8  F   -0.537937
 Electronic spatial extent (au):  <R**2>=            594.3005
 Charge=             -0.0000 electrons
 Dipole moment (field-independent basis, Debye):
    X=             -1.7957    Y=              1.3806    Z=             -0.0015  Tot=              2.2650
 Quadrupole moment (field-independent basis, Debye-Ang):
   XX=            -32.1303   YY=            -41.1341   ZZ=            -37.0348
   XY=             -4.2796   XZ=             -0.0030   YZ=              0.0007
 Traceless Quadrupole moment (field-independent basis, Debye-Ang):
   XX=              4.6361   YY=             -4.3677   ZZ=             -0.2684
   XY=             -4.2796   XZ=             -0.0030   YZ=              0.0007
 Octapole moment (field-independent basis, Debye-Ang**2):
  XXX=             -9.0807  YYY=              4.3929  ZZZ=             -0.0073  XYY=              6.1160
  XXY=             12.2405  XXZ=              0.0022  XZZ=              1.9710  YZZ=             -0.8886
  YYZ=              0.0023  XYZ=             -0.0048
 Hexadecapole moment (field-independent basis, Debye-Ang**3):
 XXXX=           -270.9742 YYYY=           -189.2232 ZZZZ=            -95.7790 XXXY=            -33.1754
 XXXZ=             -0.0121 YYYX=             -7.1419 YYYZ=              0.0036 ZZZX=             -0.0087
 ZZZY=              0.0015 XXYY=            -87.6168 XXZZ=            -71.9957 YYZZ=            -46.7252
 XXYZ=              0.0052 YYXZ=             -0.0016 ZZXY=             -0.8158
 N-N= 3.378325166797D+02 E-N=-1.924542913034D+03  KE= 5.254421268206D+02
  Exact polarizability:  35.997   0.552  37.646  -0.000  -0.000  27.105
 Approx polarizability:  35.064   1.761  43.921  -0.001  -0.000  30.709
 Calling FoFJK, ICntrl=    100127 FMM=F ISym2X=0 I1Cent= 0 IOpClX= 0 NMat=1 NMatS=1 NMatT=0.
 Full mass-weighted force constant matrix:
 Low frequencies ---   -5.0322   -0.0014   -0.0009   -0.0008    1.6952    6.6036
 Low frequencies ---   37.7962  240.5357  245.9760
 Diagonal vibrational polarizability:
       10.4388577      11.9701819      49.5087918
 Harmonic frequencies (cm**-1), IR intensities (KM/Mole), Raman scattering
 activities (A**4/AMU), depolarization ratios for plane and unpolarized
 incident light, reduced masses (AMU), force constants (mDyne/A),
 and normal coordinates:
                      1                      2                      3
                      A                      A                      A
 Frequencies --     37.7952               240.5357               245.9759
 Red. masses --     14.3509                11.6221                 9.4301
 Frc consts  --      0.0121                 0.3962                 0.3362
 IR Inten    --      1.8029                 1.4653                 0.0265
  Atom  AN      X      Y      Z        X      Y      Z        X      Y      Z
     1   6    -0.00   0.00  -0.02    -0.01  -0.14   0.00     0.00   0.00   0.21
     2   9    -0.01  -0.25   0.14    -0.26  -0.02   0.03     0.42  -0.01   0.06
     3   9    -0.00   0.00  -0.28     0.42   0.08   0.00    -0.00  -0.00   0.09
     4   6     0.00   0.00   0.02     0.01  -0.13   0.00    -0.00   0.00   0.09
     5   8     0.00   0.00   0.56    -0.32   0.05  -0.00     0.00  -0.00  -0.22
     6   8    -0.00  -0.00  -0.54     0.42   0.08  -0.00    -0.00  -0.00  -0.21
     7   1    -0.00  -0.00  -0.40     0.37   0.46  -0.01    -0.00  -0.00  -0.70
     8   9     0.01   0.24   0.15    -0.27  -0.02  -0.03    -0.41   0.01   0.06
                      4                      5                      6
                      A                      A                      A
 Frequencies --    391.6276               428.4779               509.1990
 Red. masses --     12.3663                15.3057                 4.9745
 Frc consts  --      1.1175                 1.6556                 0.7599
 IR Inten    --      1.8350                 0.0280                 3.8840
  Atom  AN      X      Y      Z        X      Y      Z        X      Y      Z
     1   6    -0.09   0.02   0.00     0.00  -0.00  -0.00    -0.00   0.00  -0.13
     2   9    -0.24   0.05   0.04    -0.16  -0.32   0.26     0.05  -0.20  -0.08
     3   9    -0.37  -0.10  -0.00     0.24   0.11   0.00    -0.00  -0.00   0.29
     4   6     0.22   0.00   0.00     0.07   0.33  -0.00    -0.00  -0.00  -0.18
     5   8     0.47  -0.12  -0.00     0.37   0.19   0.00    -0.00  -0.00   0.04
     6   8     0.41   0.08  -0.00    -0.31   0.20  -0.00     0.00  -0.00  -0.02
     7   1     0.37   0.38  -0.00    -0.26  -0.21   0.00     0.00   0.00   0.87
     8   9    -0.24   0.05  -0.04    -0.16  -0.32  -0.26    -0.05   0.21  -0.08
                      7                      8                      9
                      A                      A                      A
 Frequencies --    592.6480               595.2972               677.1361
 Red. masses --     14.4744                 1.4002                 5.0407
 Frc consts  --      2.9953                 0.2923                 1.3617
 IR Inten    --      7.5756                98.6687                75.4913
  Atom  AN      X      Y      Z        X      Y      Z        X      Y      Z
     1   6    -0.07   0.31  -0.00    -0.00   0.00   0.05    -0.17  -0.03   0.00
     2   9     0.14  -0.14   0.33     0.02   0.06   0.04     0.05  -0.06  -0.14
     3   9    -0.22   0.45   0.00    -0.00   0.00  -0.06     0.07   0.10  -0.00
     4   6    -0.10  -0.20   0.00    -0.00  -0.00  -0.03    -0.26  -0.01   0.00
     5   8    -0.17  -0.19   0.00    -0.00  -0.00  -0.02     0.13  -0.22  -0.00
     6   8     0.22  -0.12   0.00     0.00  -0.00  -0.08    -0.00   0.23  -0.00
     7   1     0.15   0.39  -0.03     0.00   0.00   0.99    -0.08   0.84  -0.00
     8   9     0.14  -0.14  -0.33    -0.02  -0.06   0.04     0.05  -0.06   0.14
                     10                     11                     12
                      A                      A                      A
 Frequencies --    802.3795               807.3684              1168.0008
 Red. masses --      9.4405                 8.8183                 6.4670
 Frc consts  --      3.5810                 3.3867                 5.1981
 IR Inten    --     43.9383                 4.3027               309.9647
  Atom  AN      X      Y      Z        X      Y      Z        X      Y      Z
     1   6    -0.00   0.00  -0.04    -0.19  -0.01   0.00     0.35   0.05   0.01
     2   9    -0.10  -0.10  -0.11    -0.02  -0.16  -0.27    -0.05  -0.05  -0.06
     3   9    -0.00   0.00   0.05    -0.08   0.33  -0.00    -0.09   0.09  -0.00
     4   6     0.00   0.00   0.75     0.22   0.06  -0.01     0.22  -0.21  -0.00
     5   8     0.00   0.00  -0.19     0.01   0.20   0.00    -0.11  -0.17   0.00
     6   8     0.00  -0.00  -0.19     0.08  -0.19   0.00    -0.10   0.34   0.00
     7   1     0.00  -0.01   0.55     0.15  -0.70  -0.00     0.03  -0.76   0.00
     8   9     0.10   0.10  -0.10    -0.02  -0.17   0.27    -0.05  -0.04   0.06
                     13                     14                     15
                      A                      A                      A
 Frequencies --   1190.6424              1224.9600              1276.6689
 Red. masses --     13.0392                 3.6897                 3.2945
 Frc consts  --     10.8909                 3.2620                 3.1637
 IR Inten    --    305.5150               322.9638                68.4470
  Atom  AN      X      Y      Z        X      Y      Z        X      Y      Z
     1   6    -0.00   0.01   0.90     0.19   0.37  -0.01    -0.25   0.30  -0.00
     2   9    -0.09  -0.12  -0.24    -0.05  -0.07  -0.07     0.02  -0.02   0.00
     3   9     0.00  -0.01  -0.06     0.02  -0.08   0.00     0.08  -0.13  -0.00
     4   6    -0.01   0.00  -0.12     0.00  -0.01   0.00    -0.01  -0.01   0.00
     5   8     0.00   0.00   0.03    -0.01   0.04  -0.00    -0.01  -0.05  -0.00
     6   8     0.00  -0.01   0.01    -0.03  -0.11  -0.00     0.06   0.08  -0.00
     7   1    -0.00   0.04   0.07    -0.14   0.87  -0.00     0.16  -0.89   0.00
     8   9     0.09   0.12  -0.24    -0.05  -0.07   0.07     0.02  -0.02  -0.00
                     16                     17                     18
                      A                      A                      A
 Frequencies --   1445.5025              1900.1424              3839.0956
 Red. masses --      4.2723                11.4393                 1.0645
 Frc consts  --      5.2595                24.3344                 9.2438
 IR Inten    --     43.3951               324.3454               108.6452
  Atom  AN      X      Y      Z        X      Y      Z        X      Y      Z
     1   6    -0.26  -0.01   0.00    -0.07  -0.01   0.00     0.00   0.00   0.00
     2   9     0.03   0.02   0.03    -0.00   0.00  -0.00     0.00  -0.00   0.00
     3   9     0.02  -0.02  -0.00     0.01  -0.01  -0.00     0.00  -0.00  -0.00
     4   6     0.36  -0.23  -0.00     0.39   0.67  -0.00    -0.00   0.00   0.00
     5   8    -0.03   0.06   0.00    -0.24  -0.44   0.00    -0.00  -0.00   0.00
     6   8    -0.13   0.06   0.00    -0.01  -0.07   0.00    -0.06  -0.01   0.00
     7   1    -0.20   0.82  -0.00    -0.06   0.37  -0.00     0.99   0.11  -0.00
     8   9     0.03   0.02  -0.03    -0.00   0.00   0.00     0.00  -0.00  -0.00

 -------------------
 - Thermochemistry -
 -------------------
 Temperature   298.150 Kelvin.  Pressure   1.00000 Atm.
 Atom     1 has atomic number  6 and mass  12.00000
 Atom     2 has atomic number  9 and mass  18.99840
 Atom     3 has atomic number  9 and mass  18.99840
 Atom     4 has atomic number  6 and mass  12.00000
 Atom     5 has atomic number  8 and mass  15.99491
 Atom     6 has atomic number  8 and mass  15.99491
 Atom     7 has atomic number  1 and mass   1.00783
 Atom     8 has atomic number  9 and mass  18.99840
 Molecular mass:   113.99286 amu.
 Principal axes and moments of inertia in atomic units:
                           1         2         3
     Eigenvalues --   464.50975 721.61728 868.85064
           X            0.99954  -0.03043   0.00000
           Y            0.03043   0.99954  -0.00001
           Z           -0.00000   0.00001   1.00000
 This molecule is an asymmetric top.
 Rotational symmetry number  1.
 Warning -- assumption of classical behavior for rotation
           may cause significant error
 Rotational temperatures (Kelvin)      0.18646     0.12003     0.09969
 Rotational constants (GHZ):           3.88526     2.50097     2.07716
 Zero-point vibrational energy     103916.3 (Joules/Mol)
                                   24.83660 (Kcal/Mol)
 Warning -- explicit consideration of   8 degrees of freedom as
           vibrations may cause significant error
 Vibrational temperatures:     54.38   346.08   353.90   563.46   616.48
          (Kelvin)            732.62   852.69   856.50   974.25  1154.45
                             1161.62  1680.49  1713.07  1762.44  1836.84
                             2079.76  2733.88  5523.60
 
 Zero-point correction=                           0.039580 (Hartree/Particle)
 Thermal correction to Energy=                    0.045756
 Thermal correction to Enthalpy=                  0.046701
 Thermal correction to Gibbs Free Energy=         0.008436
 Sum of electronic and zero-point Energies=           -526.783500
 Sum of electronic and thermal Energies=              -526.777323
 Sum of electronic and thermal Enthalpies=            -526.776379
 Sum of electronic and thermal Free Energies=         -526.814644
 
                     E (Thermal)             CV                S
                      KCal/Mol        Cal/Mol-Kelvin    Cal/Mol-Kelvin
 Total                   28.713             20.760             80.535
 Electronic               0.000              0.000              0.000
 Translational            0.889              2.981             40.108
 Rotational               0.889              2.981             27.168
 Vibrational             26.935             14.798             13.259
 Vibration     1          0.594              1.982              5.371
 Vibration     2          0.658              1.778              1.799
 Vibration     3          0.660              1.769              1.759
 Vibration     4          0.759              1.488              0.994
 Vibration     5          0.790              1.408              0.864
 Vibration     6          0.864              1.230              0.636
 Vibration     7          0.950              1.047              0.462
 Vibration     8          0.953              1.042              0.458
                       Q            Log10(Q)             Ln(Q)
 Total Bot       0.131753D-03         -3.880240         -8.934583
 Total V=0       0.211404D+15         14.325114         32.984793
 Vib (Bot)       0.142567D-16        -16.845980        -38.789301
 Vib (Bot)    1  0.547524D+01          0.738403          1.700237
 Vib (Bot)    2  0.814984D+00         -0.088851         -0.204587
 Vib (Bot)    3  0.794960D+00         -0.099655         -0.229463
 Vib (Bot)    4  0.457888D+00         -0.339241         -0.781131
 Vib (Bot)    5  0.407128D+00         -0.390269         -0.898628
 Vib (Bot)    6  0.320123D+00         -0.494683         -1.139051
 Vib (Bot)    7  0.253856D+00         -0.595412         -1.370987
 Vib (Bot)    8  0.252044D+00         -0.598523         -1.378151
 Vib (V=0)       0.228757D+02          1.359374          3.130075
 Vib (V=0)    1  0.599803D+01          0.778008          1.791430
 Vib (V=0)    2  0.145614D+01          0.163202          0.375787
 Vib (V=0)    3  0.143913D+01          0.158099          0.364037
 Vib (V=0)    4  0.117798D+01          0.071139          0.163804
 Vib (V=0)    5  0.114479D+01          0.058725          0.135220
 Vib (V=0)    6  0.109370D+01          0.038898          0.089566
 Vib (V=0)    7  0.106075D+01          0.025614          0.058978
 Vib (V=0)    8  0.105993D+01          0.025279          0.058207
 Electronic      0.100000D+01          0.000000          0.000000
 Translational   0.478377D+08          7.679770         17.683325
 Rotational      0.193183D+06          5.285969         12.171394
 ***** Axes restored to original set *****
 -------------------------------------------------------------------
 Center     Atomic                   Forces (Hartrees/Bohr)
 Number     Number              X              Y              Z
 -------------------------------------------------------------------
      1        6           0.000017326   -0.000085029    0.000157778
      2        9          -0.000032592   -0.000048354   -0.000116014
      3        9          -0.000051103   -0.000032543    0.000039880
      4        6          -0.000035607    0.000205499    0.000075036
      5        8           0.000004560   -0.000120785   -0.000060139
      6        8           0.000064329   -0.000049772    0.000001862
      7        1           0.000032683   -0.000020144   -0.000025858
      8        9           0.000000404    0.000151129   -0.000072544
 -------------------------------------------------------------------
 Cartesian Forces:  Max     0.000205499 RMS     0.000081334
 FormGI is forming the generalized inverse of G from B-inverse, IUseBI=4.

 GradGradGradGradGradGradGradGradGradGradGradGradGradGradGradGradGradGrad
 Berny optimization.
 Internal  Forces:  Max     0.000158966 RMS     0.000066161
 Search for a local minimum.
 Step number   1 out of a maximum of    2
 All quantities printed in internal units (Hartrees-Bohrs-Radians)
 Second derivative matrix not updated -- analytic derivatives used.
 ITU=  0
     Eigenvalues ---    0.00090   0.01791   0.04822   0.11623   0.13463
     Eigenvalues ---    0.15079   0.19023   0.21731   0.22420   0.24392
     Eigenvalues ---    0.28712   0.37163   0.38990   0.39175   0.45544
     Eigenvalues ---    0.53592   0.55417   0.95407
 Angle between quadratic step and forces=  75.30 degrees.
 Linear search not attempted -- first point.
 Iteration  1 RMS(Cart)=  0.00086247 RMS(Int)=  0.00000050
 Iteration  2 RMS(Cart)=  0.00000046 RMS(Int)=  0.00000002
 Variable       Old X    -DE/DX   Delta X   Delta X   Delta X     New X
                                 (Linear)    (Quad)   (Total)
    R1        2.52091  -0.00012   0.00000  -0.00041  -0.00041   2.52050
    R2        2.49622  -0.00002   0.00000  -0.00004  -0.00004   2.49618
    R3        2.92332  -0.00007   0.00000  -0.00019  -0.00019   2.92313
    R4        2.52002   0.00016   0.00000   0.00048   0.00048   2.52050
    R5        2.24885   0.00012   0.00000   0.00016   0.00016   2.24901
    R6        2.51045  -0.00011   0.00000  -0.00027  -0.00027   2.51017
    R7        1.82223  -0.00003   0.00000  -0.00002  -0.00002   1.82220
    A1        1.89785  -0.00001   0.00000  -0.00011  -0.00011   1.89773
    A2        1.92525   0.00001   0.00000   0.00034   0.00034   1.92559
    A3        1.89063   0.00006   0.00000   0.00023   0.00023   1.89086
    A4        1.92583  -0.00008   0.00000  -0.00024  -0.00024   1.92559
    A5        1.89756   0.00008   0.00000   0.00018   0.00018   1.89773
    A6        1.92596  -0.00006   0.00000  -0.00038  -0.00038   1.92559
    A7        2.15451  -0.00007   0.00000  -0.00038  -0.00038   2.15412
    A8        1.92105   0.00000   0.00000   0.00019   0.00019   1.92124
    A9        2.20763   0.00007   0.00000   0.00019   0.00019   2.20782
   A10        1.88586  -0.00007   0.00000  -0.00029  -0.00029   1.88557
    D1       -2.09586   0.00004   0.00000  -0.00141  -0.00141  -2.09727
    D2        1.04591   0.00003   0.00000  -0.00158  -0.00158   1.04432
    D3        0.00147  -0.00002   0.00000  -0.00149  -0.00149  -0.00002
    D4       -3.13995  -0.00003   0.00000  -0.00167  -0.00167   3.14157
    D5        2.09890  -0.00000   0.00000  -0.00167  -0.00167   2.09722
    D6       -1.04252  -0.00002   0.00000  -0.00184  -0.00184  -1.04437
    D7       -3.14099  -0.00000   0.00000  -0.00060  -0.00060   3.14159
    D8        0.00078  -0.00002   0.00000  -0.00078  -0.00078  -0.00000
         Item               Value     Threshold  Converged?
 Maximum Force            0.000159     0.000450     YES
 RMS     Force            0.000066     0.000300     YES
 Maximum Displacement     0.001877     0.001800     NO 
 RMS     Displacement     0.000862     0.001200     YES
 Predicted change in Energy=-1.776951D-07
                           ----------------------------
                           ! Non-Optimized Parameters !
                           ! (Angstroms and Degrees)  !
 --------------------------                            --------------------------
 ! Name  Definition              Value          Derivative Info.                !
 --------------------------------------------------------------------------------
 ! R1    R(1,2)                  1.3338         -DE/DX =   -0.0001              !
 ! R2    R(1,3)                  1.3209         -DE/DX =    0.0                 !
 ! R3    R(1,4)                  1.5469         -DE/DX =   -0.0001              !
 ! R4    R(1,8)                  1.3338         -DE/DX =    0.0002              !
 ! R5    R(4,5)                  1.1901         -DE/DX =    0.0001              !
 ! R6    R(4,6)                  1.3283         -DE/DX =   -0.0001              !
 ! R7    R(6,7)                  0.9643         -DE/DX =    0.0                 !
 ! A1    A(2,1,3)              108.7322         -DE/DX =    0.0                 !
 ! A2    A(2,1,4)              110.3281         -DE/DX =    0.0                 !
 ! A3    A(2,1,8)              108.3383         -DE/DX =    0.0001              !
 ! A4    A(3,1,4)              110.328          -DE/DX =   -0.0001              !
 ! A5    A(3,1,8)              108.7322         -DE/DX =    0.0001              !
 ! A6    A(4,1,8)              110.328          -DE/DX =   -0.0001              !
 ! A7    A(1,4,5)              123.4222         -DE/DX =   -0.0001              !
 ! A8    A(1,4,6)              110.0788         -DE/DX =    0.0                 !
 ! A9    A(5,4,6)              126.4989         -DE/DX =    0.0001              !
 ! A10   A(4,6,7)              108.0354         -DE/DX =   -0.0001              !
 ! D1    D(2,1,4,5)           -120.1647         -DE/DX =    0.0                 !
 ! D2    D(2,1,4,6)             59.8354         -DE/DX =    0.0                 !
 ! D3    D(3,1,4,5)             -0.0013         -DE/DX =    0.0                 !
 ! D4    D(3,1,4,6)            179.9988         -DE/DX =    0.0                 !
 ! D5    D(8,1,4,5)            120.162          -DE/DX =    0.0                 !
 ! D6    D(8,1,4,6)            -59.8379         -DE/DX =    0.0                 !
 ! D7    D(1,4,6,7)            179.9998         -DE/DX =    0.0                 !
 ! D8    D(5,4,6,7)             -0.0001         -DE/DX =    0.0                 !
 --------------------------------------------------------------------------------
 GradGradGradGradGradGradGradGradGradGradGradGradGradGradGradGradGradGrad


 ----------------------------------------------------------------------

 Electric dipole moment (input orientation):
 (Debye = 10**-18 statcoulomb cm , SI units = C m)
                  (au)            (Debye)         (10**-30 SI)
   Tot        0.891136D+00      0.226504D+01      0.755537D+01
   x         -0.716393D+00     -0.182089D+01     -0.607384D+01
   y          0.445899D+00      0.113336D+01      0.378049D+01
   z          0.286492D+00      0.728189D+00      0.242898D+01

 Dipole polarizability, Alpha (input orientation).
 (esu units = cm**3 , SI units = C**2 m**2 J**-1)
 Alpha(0;0):
               (au)            (10**-24 esu)      (10**-40 SI)
   iso        0.335825D+02      0.497642D+01      0.553701D+01
   aniso      0.986708D+01      0.146215D+01      0.162686D+01
   xx         0.359653D+02      0.532951D+01      0.592989D+01
   yx         0.245521D+00      0.363825D-01      0.404810D-01
   yy         0.340990D+02      0.505295D+01      0.562217D+01
   zx         0.550267D+00      0.815411D-01      0.907267D-01
   zy         0.499147D+01      0.739660D+00      0.822982D+00
   zz         0.306832D+02      0.454679D+01      0.505898D+01

 ----------------------------------------------------------------------

 Dipole orientation:
     6          0.55843150          0.37412360         -0.90613308
     9          2.79819027         -0.76873161         -0.72626740
     9         -0.42073991         -0.12858321         -3.14658744
     6         -1.22712970         -0.55337323          1.21455686
     8         -3.19284649         -1.57281761          0.82209715
     8         -0.23460404         -0.03940556          3.46246291
     1         -1.38772837         -0.63951740          4.73944185
     9          0.92082111          2.86109023         -0.72132226

 Electric dipole moment (dipole orientation):
 (Debye = 10**-18 statcoulomb cm , SI units = C m)
                  (au)            (Debye)         (10**-30 SI)
   Tot        0.891136D+00      0.226504D+01      0.755537D+01
   x          0.000000D+00      0.000000D+00      0.000000D+00
   y          0.000000D+00      0.000000D+00      0.000000D+00
   z          0.891136D+00      0.226504D+01      0.755537D+01

 Dipole polarizability, Alpha (dipole orientation).
 (esu units = cm**3 , SI units = C**2 m**2 J**-1)
 Alpha(0;0):
               (au)            (10**-24 esu)      (10**-40 SI)
   iso        0.335825D+02      0.497642D+01      0.553701D+01
   aniso      0.986708D+01      0.146215D+01      0.162686D+01
   xx         0.353500D+02      0.523834D+01      0.582844D+01
   yx         0.427488D+01      0.633472D+00      0.704832D+00
   yy         0.293215D+02      0.434499D+01      0.483446D+01
   zx         0.584343D+00      0.865907D-01      0.963452D-01
   zy         0.296346D+00      0.439139D-01      0.488608D-01
   zz         0.360761D+02      0.534592D+01      0.594814D+01

 ----------------------------------------------------------------------
 1\1\GINC-CCLEARCH4\Freq\RwB97XD\6-311+G(2d,2p)\C2H1F3O2\RAPPE\07-Jan-2
 025\0\\#N Geom=AllCheck Guess=TCheck SCRF=Check GenChk RwB97XD/6-311+G
 (2d,2p) Freq\\Title Card Required\\0,1\C,0.5967334149,0.0104889603,-0.
 0156557366\F,0.9417226128,-0.0712996016,1.2703735266\F,1.2041196442,-0
 .9560943731,-0.6802546911\C,-0.9376190423,-0.1134192285,-0.1688824831\
 O,-1.4663718628,-0.9712300062,-0.8019534665\O,-1.5427506421,0.86211827
 6,0.4996835307\H,-2.4944434255,0.7571011445,0.3852790303\F,1.016694300
 8,1.1845028285,-0.4885627103\\Version=EM64M-G16RevA.03\State=1-A\HF=-5
 26.8230797\RMSD=2.449e-09\RMSF=8.133e-05\ZeroPoint=0.0395796\Thermal=0
 .0457564\Dipole=-0.7163935,0.4458994,0.2864916\DipoleDeriv=1.3990398,-
 0.0162347,-0.0271709,-0.0728603,1.6850552,-0.0523645,-0.0673949,-0.050
 0025,1.715914,-0.4462238,-0.0011245,-0.2367599,0.0043856,-0.2790053,0.
 0400071,-0.1696175,0.0446245,-0.8890218,-0.5095356,0.2675886,0.181357,
 0.2118587,-0.6021184,-0.221815,0.1415583,-0.2194619,-0.4298758,1.06420
 41,-0.1236152,-0.0528416,-0.1163872,1.3064863,0.7538189,-0.0477335,0.7
 534964,0.7747531,-0.6875957,-0.2705352,-0.2081664,-0.0488904,-0.797214
 4,-0.3416242,-0.0503468,-0.3509779,-0.5721442,-0.6650864,0.4630767,0.3
 151053,0.2731018,-0.8391354,-0.3542037,0.1798761,-0.3460686,-0.5639997
 ,0.3154936,-0.0694143,-0.0509409,-0.0665304,0.3081274,-0.0340314,-0.04
 88777,-0.0342037,0.3256949,-0.470296,-0.2497413,0.0794174,-0.184678,-0
 .7821953,0.2102127,0.0625361,0.2025937,-0.3613204\Polar=35.9653494,0.2
 455214,34.0990301,0.5502668,4.99147,30.6832302\Quadrupole=3.5629825,-2
 .2009998,-1.3619827,-2.5569707,-1.6643859,-1.5333599\PG=C01 [X(C2H1F3O
 2)]\NImag=0\\0.60930856,-0.01168453,0.54141046,-0.00386609,0.03211907,
 0.51739435,-0.11757600,0.00690860,-0.07467571,0.09069685,0.00266007,-0
 .07291928,0.00567063,-0.00742205,0.07953135,-0.07944251,0.00910295,-0.
 24449104,0.08095693,-0.01763367,0.38224082,-0.15529473,0.07718487,0.05
 168406,0.01781899,-0.00169767,0.00845798,0.14777647,0.09170850,-0.1810
 1747,-0.07260798,0.00178907,0.00042681,-0.03392777,-0.11700492,0.27166
 065,0.06204504,-0.07323536,-0.12354674,0.02041471,-0.04363821,-0.06597
 550,-0.08074731,0.13096686,0.17124596,-0.19720303,-0.00533788,-0.00907
 423,0.00370159,-0.00007340,0.00183684,-0.01483624,0.00297480,0.0011399
 9,0.71048644,0.00404417,-0.05262815,0.01447378,0.00354335,0.00636542,-
 0.00091768,0.03625379,-0.01463429,-0.01504671,0.13077160,0.73178444,-0
 .00240749,0.01406822,-0.06275510,-0.04110446,-0.00258634,-0.03026267,0
 .02489617,-0.01644899,-0.00209384,0.11340139,0.36210991,0.49343409,-0.
 00031788,-0.02801825,-0.02074881,-0.01056235,0.00135718,-0.00948475,-0
 .00081231,-0.00109634,-0.00078356,-0.27862826,-0.22526735,-0.16895685,
 0.25626232,-0.00648523,-0.00940875,-0.02060936,-0.00605211,0.00108212,
 -0.00259374,-0.00047864,0.00582114,0.00473976,-0.23780207,-0.45127981,
 -0.27746223,0.25898529,0.51441546,-0.00543422,-0.02152790,0.00359199,0
 .00049794,0.00182019,0.00124531,-0.00034724,0.00471780,0.00249415,-0.1
 7788209,-0.27694472,-0.28035194,0.19395533,0.35591479,0.29142729,-0.01
 143624,0.03346641,0.02309149,-0.00461503,-0.00065787,-0.00466278,-0.01
 367978,0.00473923,0.00278622,-0.19132722,0.08396114,0.05444676,0.04165
 229,0.00024105,0.00065384,0.67756069,0.00028545,-0.00643333,-0.0088382
 9,0.00151875,0.00083924,0.00266077,0.00044677,0.00235899,0.00133845,0.
 06299760,-0.19941603,-0.09252441,0.00838463,-0.06062210,-0.06424849,-0
 .03715450,0.30102014,-0.00053582,-0.00742855,0.00067951,0.00223855,0.0
 0072958,0.00514611,-0.00027810,0.00151447,0.00157936,0.03954637,-0.091
 65814,-0.12917910,0.00645571,-0.06459789,-0.01554603,0.00019406,0.1840
 3110,0.17110503,-0.00040499,0.00310078,0.00198718,0.00077028,-0.000482
 58,-0.00014443,-0.00030889,0.00026028,0.00018325,-0.03348325,0.0060453
 4,0.00270623,0.00325576,-0.00726785,-0.00478356,-0.49339919,-0.0395649
 9,-0.04807949,0.52273233,0.00119971,-0.00233930,-0.00509904,-0.0008197
 7,0.00000454,-0.00016286,0.00165590,-0.00069140,-0.00023407,0.04649150
 ,0.00576325,0.00279040,-0.00643165,-0.00137454,0.00303086,-0.08035824,
 -0.04355553,-0.02329005,0.03817635,0.04138378,0.00063137,-0.00501494,0
 .00135981,0.00040745,0.00068987,0.00071470,0.00117150,-0.00028977,-0.0
 0042563,0.03146647,0.00110866,0.00668724,-0.00418976,0.00299300,-0.004
 05654,-0.07708693,-0.02159468,-0.03410976,0.04847229,0.02252731,0.0299
 8540,-0.12707568,-0.07562001,0.03160211,0.01976567,0.00631631,0.002482
 71,0.01933649,0.01662938,-0.00503833,0.00128997,-0.03935204,0.01701825
 ,-0.01084957,-0.00114043,-0.00665999,-0.00475552,0.00308629,0.00045871
 ,0.00083796,0.00008620,-0.00087239,0.10145068,-0.08172815,-0.21666419,
 0.05489120,0.00053416,-0.01533021,0.04347199,0.00363990,-0.08392445,-0
 .00489072,-0.00002214,-0.02595483,0.01005344,-0.00791352,0.00136647,-0
 .00276253,-0.00423722,0.00580862,0.00069948,-0.00026734,0.00080919,-0.
 00041945,0.08999431,0.33388940,0.02900972,0.05191651,-0.09223277,0.011
 26459,0.05494796,-0.04861774,-0.00483706,-0.01392462,0.01672224,-0.000
 43474,0.00687489,0.00452132,0.00375268,0.00161566,0.00119578,0.0005773
 5,-0.00082444,0.00032487,-0.00034147,0.00043745,-0.00015522,-0.0389910
 6,-0.10104341,0.11824152\\-0.00001733,0.00008503,-0.00015778,0.0000325
 9,0.00004835,0.00011601,0.00005110,0.00003254,-0.00003988,0.00003561,-
 0.00020550,-0.00007504,-0.00000456,0.00012079,0.00006014,-0.00006433,0
 .00004977,-0.00000186,-0.00003268,0.00002014,0.00002586,-0.00000040,-0
 .00015113,0.00007254\\\@


 THE PROBLEM WITH THE LADDER OF SUCCESS IS YOU CAN'T
 CLIMB IT WHILE YOU'RE TWIDDLING YOUR THUMBS.
 Job cpu time:       0 days  0 hours 42 minutes 21.9 seconds.
 Elapsed time:       0 days  0 hours  5 minutes 30.9 seconds.
 File lengths (MBytes):  RWF=     40 Int=      0 D2E=      0 Chk=      5 Scr=      1
 Normal termination of Gaussian 16 at Tue Jan  7 12:42:43 2025.
