 Entering Gaussian System, Link 0=/applications/g16/g16/g16
 Initial command:
 /applications/g16/g16/l1.exe "/scratch/g98/Gau-7488.inp" -scrdir="/scratch/g98/"
 Entering Link 1 = /applications/g16/g16/l1.exe PID=      7489.
  
 Copyright (c) 1988,1990,1992,1993,1995,1998,2003,2009,2016,
            Gaussian, Inc.  All Rights Reserved.
  
 This is part of the Gaussian(R) 16 program.  It is based on
 the Gaussian(R) 09 system (copyright 2009, Gaussian, Inc.),
 the Gaussian(R) 03 system (copyright 2003, Gaussian, Inc.),
 the Gaussian(R) 98 system (copyright 1998, Gaussian, Inc.),
 the Gaussian(R) 94 system (copyright 1995, Gaussian, Inc.),
 the Gaussian 92(TM) system (copyright 1992, Gaussian, Inc.),
 the Gaussian 90(TM) system (copyright 1990, Gaussian, Inc.),
 the Gaussian 88(TM) system (copyright 1988, Gaussian, Inc.),
 the Gaussian 86(TM) system (copyright 1986, Carnegie Mellon
 University), and the Gaussian 82(TM) system (copyright 1983,
 Carnegie Mellon University). Gaussian is a federally registered
 trademark of Gaussian, Inc.
  
 This software contains proprietary and confidential information,
 including trade secrets, belonging to Gaussian, Inc.
  
 This software is provided under written license and may be
 used, copied, transmitted, or stored only in accord with that
 written license.
  
 The following legend is applicable only to US Government
 contracts under FAR:
  
                    RESTRICTED RIGHTS LEGEND
  
 Use, reproduction and disclosure by the US Government is
 subject to restrictions as set forth in subparagraphs (a)
 and (c) of the Commercial Computer Software - Restricted
 Rights clause in FAR 52.227-19.
  
 Gaussian, Inc.
 340 Quinnipiac St., Bldg. 40, Wallingford CT 06492
  
  
 ---------------------------------------------------------------
 Warning -- This program may not be used in any manner that
 competes with the business of Gaussian, Inc. or will provide
 assistance to any competitor of Gaussian, Inc.  The licensee
 of this program is prohibited from giving any competitor of
 Gaussian, Inc. access to this program.  By using this program,
 the user acknowledges that Gaussian, Inc. is engaged in the
 business of creating and licensing software in the field of
 computational chemistry and represents and warrants to the
 licensee that it is not a competitor of Gaussian, Inc. and that
 it will not use this program in any manner prohibited above.
 ---------------------------------------------------------------
  

 Cite this work as:
 Gaussian 16, Revision A.03,
 M. J. Frisch, G. W. Trucks, H. B. Schlegel, G. E. Scuseria, 
 M. A. Robb, J. R. Cheeseman, G. Scalmani, V. Barone, 
 G. A. Petersson, H. Nakatsuji, X. Li, M. Caricato, A. V. Marenich, 
 J. Bloino, B. G. Janesko, R. Gomperts, B. Mennucci, H. P. Hratchian, 
 J. V. Ortiz, A. F. Izmaylov, J. L. Sonnenberg, D. Williams-Young, 
 F. Ding, F. Lipparini, F. Egidi, J. Goings, B. Peng, A. Petrone, 
 T. Henderson, D. Ranasinghe, V. G. Zakrzewski, J. Gao, N. Rega, 
 G. Zheng, W. Liang, M. Hada, M. Ehara, K. Toyota, R. Fukuda, 
 J. Hasegawa, M. Ishida, T. Nakajima, Y. Honda, O. Kitao, H. Nakai, 
 T. Vreven, K. Throssell, J. A. Montgomery, Jr., J. E. Peralta, 
 F. Ogliaro, M. J. Bearpark, J. J. Heyd, E. N. Brothers, K. N. Kudin, 
 V. N. Staroverov, T. A. Keith, R. Kobayashi, J. Normand, 
 K. Raghavachari, A. P. Rendell, J. C. Burant, S. S. Iyengar, 
 J. Tomasi, M. Cossi, J. M. Millam, M. Klene, C. Adamo, R. Cammi, 
 J. W. Ochterski, R. L. Martin, K. Morokuma, O. Farkas, 
 J. B. Foresman, and D. J. Fox, Gaussian, Inc., Wallingford CT, 2016.
 
 ******************************************
 Gaussian 16:  EM64M-G16RevA.03 25-Dec-2016
                 6-Feb-2021 
 ******************************************
 %mem=24GB
 %nprocshared=8
 Will use up to    8 processors via shared memory.
 %chk=1_heptane.chk
 ----------------------------------------------
 # freq wb97xd/6-311+g(2d,2p) geom=connectivity
 ----------------------------------------------
 1/10=4,30=1,38=1,57=2/1,3;
 2/12=2,17=6,18=5,40=1/2;
 3/5=4,6=6,7=212,11=2,25=1,30=1,71=2,74=-58,140=1/1,2,3;
 4//1;
 5/5=2,38=5,98=1/2;
 8/6=4,10=90,11=11/1;
 11/6=1,8=1,9=11,15=111,16=1/1,2,10;
 10/6=1/2;
 6/7=2,8=2,9=2,10=2,28=1/1;
 7/8=1,10=1,25=1/1,2,3,16;
 1/10=4,30=1/3;
 99//99;
 -------------------
 Title Card Required
 -------------------
 Symbolic Z-matrix:
 Charge =  0 Multiplicity = 1
 C                     0.23738   0.4963    0.09601 
 F                     0.28087   1.03981   1.31902 
 F                     0.18096   1.47264  -0.8178 
 C                     1.54339  -0.32691  -0.1354 
 F                     1.43342  -1.50794   0.48582 
 F                     1.6879   -0.54165  -1.45414 
 C                     2.83386   0.38604   0.36993 
 F                     2.91199   0.2695    1.70611 
 F                     2.77083   1.68099   0.05028 
 C                     4.11106  -0.21391  -0.27413 
 O                     4.80286   0.39337  -1.02707 
 O                     4.3011   -1.4612    0.14164 
 H                     5.09834  -1.79955  -0.28291 
 C                    -1.05829  -0.3717   -0.00989 
 F                    -1.18897  -1.0809    1.1186 
 F                    -0.93836  -1.2164   -1.04293 
 C                    -2.34829   0.47981  -0.226 
 F                    -2.3904    0.88263  -1.50007 
 F                    -2.31777   1.55385   0.57492 
 C                    -3.67027  -0.28866   0.07084 
 F                    -3.68397  -1.4544   -0.56462 
 F                    -3.81304  -0.49968   1.37058 
 F                    -4.69157   0.44334  -0.35487 
 

 GradGradGradGradGradGradGradGradGradGradGradGradGradGradGradGradGradGrad
 Berny optimization.
 Initialization pass.
 Trust Radius=3.00D-01 FncErr=1.00D-07 GrdErr=1.00D-07 EigMax=2.50D+02 EigMin=1.00D-04
 Number of steps in this run=      2 maximum allowed number of steps=      2.
 GradGradGradGradGradGradGradGradGradGradGradGradGradGradGradGradGradGrad

                          Input orientation:                          
 ---------------------------------------------------------------------
 Center     Atomic      Atomic             Coordinates (Angstroms)
 Number     Number       Type             X           Y           Z
 ---------------------------------------------------------------------
      1          6           0        0.237378    0.496304    0.096005
      2          9           0        0.280869    1.039806    1.319017
      3          9           0        0.180958    1.472637   -0.817804
      4          6           0        1.543393   -0.326906   -0.135395
      5          9           0        1.433416   -1.507937    0.485816
      6          9           0        1.687897   -0.541651   -1.454143
      7          6           0        2.833855    0.386035    0.369930
      8          9           0        2.911993    0.269503    1.706112
      9          9           0        2.770832    1.680992    0.050282
     10          6           0        4.111059   -0.213905   -0.274134
     11          8           0        4.802856    0.393369   -1.027072
     12          8           0        4.301097   -1.461195    0.141639
     13          1           0        5.098340   -1.799547   -0.282907
     14          6           0       -1.058287   -0.371696   -0.009886
     15          9           0       -1.188965   -1.080900    1.118604
     16          9           0       -0.938363   -1.216396   -1.042925
     17          6           0       -2.348285    0.479814   -0.225996
     18          9           0       -2.390404    0.882628   -1.500069
     19          9           0       -2.317771    1.553851    0.574922
     20          6           0       -3.670269   -0.288656    0.070844
     21          9           0       -3.683966   -1.454396   -0.564621
     22          9           0       -3.813044   -0.499679    1.370583
     23          9           0       -4.691566    0.443344   -0.354867
 ---------------------------------------------------------------------
                    Distance matrix (angstroms):
                    1          2          3          4          5
     1  C    0.000000
     2  F    1.339046   0.000000
     3  F    1.338453   2.182505   0.000000
     4  C    1.561056   2.361606   2.358022   0.000000
     5  F    2.366314   2.917804   3.485957   1.338967   0.000000
     6  F    2.363115   3.488718   2.594831   1.343910   2.182180
     7  C    2.613214   2.801057   3.103108   1.558503   2.358345
     8  F    3.130088   2.768758   3.908483   2.370637   2.614308
     9  F    2.797135   2.867180   2.739422   2.360664   3.485346
    10  C    3.955604   4.333622   4.311113   2.573893   3.069497
    11  O    4.702711   5.135210   4.750848   3.455139   4.154145
    12  O    4.510842   4.878879   5.148150   2.994710   2.888639
    13  H    5.389198   5.816882   5.930763   3.850725   3.756014
    14  C    1.563133   2.356196   2.364323   2.605091   2.783047
    15  F    2.359605   2.588044   3.485243   3.099484   2.731238
    16  F    2.369150   3.486509   2.921379   2.788174   2.836791
    17  C    2.605688   3.100501   2.780828   3.975445   4.331177
    18  F    3.098699   3.886856   2.724977   4.335904   4.927488
    19  F    2.806520   2.751518   2.861805   4.353204   4.842922
    20  C    3.985787   4.351349   4.327100   5.217880   5.263692
    21  F    4.429288   5.048668   4.854818   5.364769   5.224355
    22  F    4.361473   4.374105   4.962975   5.566798   5.415232
    23  F    4.949806   5.280413   5.001524   6.286189   6.483028
                    6          7          8          9         10
     6  F    0.000000
     7  C    2.345435   0.000000
     8  F    3.484766   1.343528   0.000000
     9  F    2.894164   1.335313   2.180367   0.000000
    10  C    2.715060   1.551127   2.364914   2.343521   0.000000
    11  O    3.280186   2.414256   3.325808   2.635865   1.189235
    12  O    3.197014   2.370058   2.715235   3.496197   1.328425
    13  H    3.819060   3.214165   3.607946   4.200293   1.867903
    14  C    3.107457   3.983364   4.372517   4.345032   5.178500
    15  F    3.896941   4.346895   4.357363   4.944629   5.548122
    16  F    2.742558   4.335155   4.958865   4.831986   5.205064
    17  C    4.340795   5.217135   5.607834   5.265408   6.496667
    18  F    4.320095   5.571031   6.226631   5.447874   6.706290
    19  F    4.955160   5.286309   5.502688   5.117157   6.721288
    20  C    5.576696   6.545860   6.805279   6.735556   7.789330
    21  F    5.520984   6.836853   7.185731   7.202304   7.898457
    22  F    6.183946   6.779901   6.777193   7.060166   8.098035
    23  F    6.547990   7.560461   7.879845   7.575177   8.827497
                   11         12         13         14         15
    11  O    0.000000
    12  O    2.248790   0.000000
    13  H    2.334518   0.964530   0.000000
    14  C    5.997749   5.471103   6.325927   0.000000
    15  F    6.532941   5.589263   6.481581   1.339230   0.000000
    16  F    5.962650   5.377272   6.112240   1.339802   2.180222
    17  C    7.196389   6.936638   7.787872   1.560727   2.363853
    18  F    7.225378   7.277699   8.047163   2.359769   3.486595
    19  F    7.390293   7.286127   8.184122   2.374033   2.917483
    20  C    8.571139   8.057452   8.904855   2.614548   2.807547
    21  F    8.697945   8.016239   8.793599   2.893814   3.032783
    22  F    8.987770   8.262814   9.156225   3.083952   2.699463
    23  F    9.518320   9.205530  10.043804   3.739521   4.094222
                   16         17         18         19         20
    16  F    0.000000
    17  C    2.352101   0.000000
    18  F    2.592934   1.336898   0.000000
    19  F    3.492057   1.340133   2.182064   0.000000
    20  C    3.092651   1.557659   2.340455   2.340551   0.000000
    21  F    2.797098   2.374843   2.830203   3.494939   1.327762
    22  F    3.821321   2.377812   3.489315   2.661936   1.324476
    23  F    4.161093   2.347105   2.607643   2.780762   1.326688
                   21         22         23
    21  F    0.000000
    22  F    2.161749   0.000000
    23  F    2.158859   2.153665   0.000000
 Stoichiometry    C7HF13O2
 Framework group  C1[X(C7HF13O2)]
 Deg. of freedom    63
 Full point group                 C1      NOp   1
 Largest Abelian subgroup         C1      NOp   1
 Largest concise Abelian subgroup C1      NOp   1
                         Standard orientation:                         
 ---------------------------------------------------------------------
 Center     Atomic      Atomic             Coordinates (Angstroms)
 Number     Number       Type             X           Y           Z
 ---------------------------------------------------------------------
      1          6           0        0.237378    0.496304    0.096005
      2          9           0        0.280869    1.039806    1.319017
      3          9           0        0.180958    1.472637   -0.817804
      4          6           0        1.543393   -0.326906   -0.135395
      5          9           0        1.433416   -1.507937    0.485816
      6          9           0        1.687897   -0.541651   -1.454143
      7          6           0        2.833855    0.386035    0.369930
      8          9           0        2.911993    0.269503    1.706112
      9          9           0        2.770832    1.680992    0.050282
     10          6           0        4.111059   -0.213905   -0.274134
     11          8           0        4.802856    0.393369   -1.027072
     12          8           0        4.301097   -1.461195    0.141639
     13          1           0        5.098340   -1.799547   -0.282907
     14          6           0       -1.058287   -0.371696   -0.009886
     15          9           0       -1.188965   -1.080900    1.118604
     16          9           0       -0.938363   -1.216396   -1.042925
     17          6           0       -2.348285    0.479814   -0.225996
     18          9           0       -2.390404    0.882628   -1.500069
     19          9           0       -2.317771    1.553851    0.574922
     20          6           0       -3.670269   -0.288656    0.070844
     21          9           0       -3.683966   -1.454396   -0.564621
     22          9           0       -3.813044   -0.499679    1.370583
     23          9           0       -4.691566    0.443344   -0.354867
 ---------------------------------------------------------------------
 Rotational constants (GHZ):           0.7419127           0.1592698           0.1556962
 Standard basis: 6-311+G(2d,2p) (5D, 7F)
 There are   647 symmetry adapted cartesian basis functions of A   symmetry.
 There are   603 symmetry adapted basis functions of A   symmetry.
   603 basis functions,   935 primitive gaussians,   647 cartesian basis functions
    88 alpha electrons       88 beta electrons
       nuclear repulsion energy      2383.4685133940 Hartrees.
 NAtoms=   23 NActive=   23 NUniq=   23 SFac= 1.00D+00 NAtFMM=   60 NAOKFM=F Big=F
 Integral buffers will be    131072 words long.
 Raffenetti 2 integral format.
 Two-electron integral symmetry is turned on.
 Nuclear repulsion after empirical dispersion term =     2383.4518606626 Hartrees.
 One-electron integrals computed using PRISM.
 NBasis=   603 RedAO= T EigKep=  3.06D-06  NBF=   603
 NBsUse=   603 1.00D-06 EigRej= -1.00D+00 NBFU=   603
 ExpMin= 4.38D-02 ExpMax= 1.14D+04 ExpMxC= 1.72D+03 IAcc=3 IRadAn=         5 AccDes= 0.00D+00
 Harris functional with IExCor= 4639 and IRadAn=       5 diagonalized for initial guess.
 HarFok:  IExCor= 4639 AccDes= 0.00D+00 IRadAn=         5 IDoV= 1 UseB2=F ITyADJ=14
 ICtDFT=  3500011 ScaDFX=  1.000000  1.000000  1.000000  1.000000
 FoFCou: FMM=F IPFlag=           0 FMFlag=      100000 FMFlg1=           0
         NFxFlg=           0 DoJE=T BraDBF=F KetDBF=T FulRan=T
         wScrn=  0.000000 ICntrl=       500 IOpCl=  0 I1Cent=   200000004 NGrid=           0
         NMat0=    1 NMatS0=      1 NMatT0=    0 NMatD0=    1 NMtDS0=    0 NMtDT0=    0
 Petite list used in FoFCou.
 Requested convergence on RMS density matrix=1.00D-08 within 128 cycles.
 Requested convergence on MAX density matrix=1.00D-06.
 Requested convergence on             energy=1.00D-06.
 No special actions if energy rises.
 SCF Done:  E(RwB97XD) =  -1715.81413443     A.U. after   15 cycles
            NFock= 15  Conv=0.26D-08     -V/T= 2.0026
 DoSCS=F DFT=T ScalE2(SS,OS)=  1.000000  1.000000
 Range of M.O.s used for correlation:     1   603
 NBasis=   603 NAE=    88 NBE=    88 NFC=     0 NFV=     0
 NROrb=    603 NOA=    88 NOB=    88 NVA=   515 NVB=   515

 **** Warning!!: The largest alpha MO coefficient is  0.11695918D+03

 Symmetrizing basis deriv contribution to polar:
 IMax=3 JMax=2 DiffMx= 0.00D+00
 G2DrvN: will do    24 centers at a time, making    1 passes.
 Calling FoFCou, ICntrl=  3107 FMM=F I1Cent=   0 AccDes= 0.00D+00.
 End of G2Drv F.D. properties file   721 does not exist.
 End of G2Drv F.D. properties file   722 does not exist.
 End of G2Drv F.D. properties file   788 does not exist.
          IDoAtm=11111111111111111111111
          Differentiating once with respect to electric field.
                with respect to dipole field.
          Differentiating once with respect to nuclear coordinates.
 CalDSu exits because no D1Ps are significant.
          There are    72 degrees of freedom in the 1st order CPHF.  IDoFFX=6 NUNeed=     3.
     69 vectors produced by pass  0 Test12= 6.29D-14 1.39D-09 XBig12= 3.15D+01 1.60D+00.
 AX will form    69 AO Fock derivatives at one time.
     69 vectors produced by pass  1 Test12= 6.29D-14 1.39D-09 XBig12= 6.03D+00 4.61D-01.
     69 vectors produced by pass  2 Test12= 6.29D-14 1.39D-09 XBig12= 2.47D-01 6.83D-02.
     69 vectors produced by pass  3 Test12= 6.29D-14 1.39D-09 XBig12= 5.61D-03 9.90D-03.
     69 vectors produced by pass  4 Test12= 6.29D-14 1.39D-09 XBig12= 8.56D-05 1.10D-03.
     69 vectors produced by pass  5 Test12= 6.29D-14 1.39D-09 XBig12= 8.90D-07 1.22D-04.
     69 vectors produced by pass  6 Test12= 6.29D-14 1.39D-09 XBig12= 7.05D-09 6.95D-06.
     44 vectors produced by pass  7 Test12= 6.29D-14 1.39D-09 XBig12= 4.50D-11 4.49D-07.
      6 vectors produced by pass  8 Test12= 6.29D-14 1.39D-09 XBig12= 2.80D-13 3.43D-08.
      3 vectors produced by pass  9 Test12= 6.29D-14 1.39D-09 XBig12= 3.94D-15 6.68D-09.
      1 vectors produced by pass 10 Test12= 6.29D-14 1.39D-09 XBig12= 2.71D-16 1.92D-09.
 InvSVY:  IOpt=1 It=  1 EMax= 7.99D-15
 Solved reduced A of dimension   537 with    72 vectors.
 Isotropic polarizability for W=    0.000000       97.72 Bohr**3.
 End of Minotr F.D. properties file   721 does not exist.
 End of Minotr F.D. properties file   722 does not exist.
 End of Minotr F.D. properties file   788 does not exist.

 **********************************************************************

            Population analysis using the SCF density.

 **********************************************************************

 Orbital symmetries:
       Occupied  (A) (A) (A) (A) (A) (A) (A) (A) (A) (A) (A) (A)
                 (A) (A) (A) (A) (A) (A) (A) (A) (A) (A) (A) (A)
                 (A) (A) (A) (A) (A) (A) (A) (A) (A) (A) (A) (A)
                 (A) (A) (A) (A) (A) (A) (A) (A) (A) (A) (A) (A)
                 (A) (A) (A) (A) (A) (A) (A) (A) (A) (A) (A) (A)
                 (A) (A) (A) (A) (A) (A) (A) (A) (A) (A) (A) (A)
                 (A) (A) (A) (A) (A) (A) (A) (A) (A) (A) (A) (A)
                 (A) (A) (A) (A)
       Virtual   (A) (A) (A) (A) (A) (A) (A) (A) (A) (A) (A) (A)
                 (A) (A) (A) (A) (A) (A) (A) (A) (A) (A) (A) (A)
                 (A) (A) (A) (A) (A) (A) (A) (A) (A) (A) (A) (A)
                 (A) (A) (A) (A) (A) (A) (A) (A) (A) (A) (A) (A)
                 (A) (A) (A) (A) (A) (A) (A) (A) (A) (A) (A) (A)
                 (A) (A) (A) (A) (A) (A) (A) (A) (A) (A) (A) (A)
                 (A) (A) (A) (A) (A) (A) (A) (A) (A) (A) (A) (A)
                 (A) (A) (A) (A) (A) (A) (A) (A) (A) (A) (A) (A)
                 (A) (A) (A) (A) (A) (A) (A) (A) (A) (A) (A) (A)
                 (A) (A) (A) (A) (A) (A) (A) (A) (A) (A) (A) (A)
                 (A) (A) (A) (A) (A) (A) (A) (A) (A) (A) (A) (A)
                 (A) (A) (A) (A) (A) (A) (A) (A) (A) (A) (A) (A)
                 (A) (A) (A) (A) (A) (A) (A) (A) (A) (A) (A) (A)
                 (A) (A) (A) (A) (A) (A) (A) (A) (A) (A) (A) (A)
                 (A) (A) (A) (A) (A) (A) (A) (A) (A) (A) (A) (A)
                 (A) (A) (A) (A) (A) (A) (A) (A) (A) (A) (A) (A)
                 (A) (A) (A) (A) (A) (A) (A) (A) (A) (A) (A) (A)
                 (A) (A) (A) (A) (A) (A) (A) (A) (A) (A) (A) (A)
                 (A) (A) (A) (A) (A) (A) (A) (A) (A) (A) (A) (A)
                 (A) (A) (A) (A) (A) (A) (A) (A) (A) (A) (A) (A)
                 (A) (A) (A) (A) (A) (A) (A) (A) (A) (A) (A) (A)
                 (A) (A) (A) (A) (A) (A) (A) (A) (A) (A) (A) (A)
                 (A) (A) (A) (A) (A) (A) (A) (A) (A) (A) (A) (A)
                 (A) (A) (A) (A) (A) (A) (A) (A) (A) (A) (A) (A)
                 (A) (A) (A) (A) (A) (A) (A) (A) (A) (A) (A) (A)
                 (A) (A) (A) (A) (A) (A) (A) (A) (A) (A) (A) (A)
                 (A) (A) (A) (A) (A) (A) (A) (A) (A) (A) (A) (A)
                 (A) (A) (A) (A) (A) (A) (A) (A) (A) (A) (A) (A)
                 (A) (A) (A) (A) (A) (A) (A) (A) (A) (A) (A) (A)
                 (A) (A) (A) (A) (A) (A) (A) (A) (A) (A) (A) (A)
                 (A) (A) (A) (A) (A) (A) (A) (A) (A) (A) (A) (A)
                 (A) (A) (A) (A) (A) (A) (A) (A) (A) (A) (A) (A)
                 (A) (A) (A) (A) (A) (A) (A) (A) (A) (A) (A) (A)
                 (A) (A) (A) (A) (A) (A) (A) (A) (A) (A) (A) (A)
                 (A) (A) (A) (A) (A) (A) (A) (A) (A) (A) (A) (A)
                 (A) (A) (A) (A) (A) (A) (A) (A) (A) (A) (A) (A)
                 (A) (A) (A) (A) (A) (A) (A) (A) (A) (A) (A) (A)
                 (A) (A) (A) (A) (A) (A) (A) (A) (A) (A) (A) (A)
                 (A) (A) (A) (A) (A) (A) (A) (A) (A) (A) (A) (A)
                 (A) (A) (A) (A) (A) (A) (A) (A) (A) (A) (A) (A)
                 (A) (A) (A) (A) (A) (A) (A) (A) (A) (A) (A) (A)
                 (A) (A) (A) (A) (A) (A) (A) (A) (A) (A) (A) (A)
                 (A) (A) (A) (A) (A) (A) (A) (A) (A) (A) (A)
 The electronic state is 1-A.
 Alpha  occ. eigenvalues --  -24.88175 -24.88129 -24.88127 -24.88075 -24.88044
 Alpha  occ. eigenvalues --  -24.87964 -24.87959 -24.87918 -24.87911 -24.87899
 Alpha  occ. eigenvalues --  -24.87875 -24.86936 -24.86913 -19.34681 -19.28936
 Alpha  occ. eigenvalues --  -10.58511 -10.53232 -10.53102 -10.53026 -10.52759
 Alpha  occ. eigenvalues --  -10.51970 -10.47185  -1.47557  -1.45384  -1.43894
 Alpha  occ. eigenvalues --   -1.42788  -1.42648  -1.42011  -1.38558  -1.37981
 Alpha  occ. eigenvalues --   -1.37753  -1.37323  -1.36801  -1.36647  -1.35970
 Alpha  occ. eigenvalues --   -1.27049  -1.18133  -0.96122  -0.94168  -0.91110
 Alpha  occ. eigenvalues --   -0.86796  -0.82106  -0.79487  -0.77732  -0.75994
 Alpha  occ. eigenvalues --   -0.75490  -0.74442  -0.73721  -0.73489  -0.73180
 Alpha  occ. eigenvalues --   -0.71945  -0.71238  -0.70884  -0.70246  -0.69005
 Alpha  occ. eigenvalues --   -0.68358  -0.68076  -0.62524  -0.62055  -0.61741
 Alpha  occ. eigenvalues --   -0.61095  -0.60806  -0.60255  -0.60068  -0.59697
 Alpha  occ. eigenvalues --   -0.59014  -0.58813  -0.58550  -0.58289  -0.57638
 Alpha  occ. eigenvalues --   -0.57203  -0.56893  -0.56193  -0.55769  -0.55316
 Alpha  occ. eigenvalues --   -0.55131  -0.54864  -0.54413  -0.54144  -0.53916
 Alpha  occ. eigenvalues --   -0.53766  -0.53514  -0.52887  -0.51330  -0.48285
 Alpha  occ. eigenvalues --   -0.45966  -0.44555  -0.41148
 Alpha virt. eigenvalues --    0.01393   0.04966   0.06124   0.07116   0.07929
 Alpha virt. eigenvalues --    0.08971   0.09535   0.09859   0.10280   0.11368
 Alpha virt. eigenvalues --    0.11780   0.12036   0.12555   0.12686   0.13090
 Alpha virt. eigenvalues --    0.14003   0.14180   0.14759   0.15254   0.15716
 Alpha virt. eigenvalues --    0.16613   0.17094   0.18402   0.18787   0.19083
 Alpha virt. eigenvalues --    0.19195   0.19684   0.21280   0.21434   0.22231
 Alpha virt. eigenvalues --    0.22426   0.23167   0.23679   0.24300   0.24565
 Alpha virt. eigenvalues --    0.25707   0.26215   0.26775   0.27559   0.27912
 Alpha virt. eigenvalues --    0.28394   0.28881   0.29100   0.29478   0.30542
 Alpha virt. eigenvalues --    0.30724   0.30948   0.31330   0.31661   0.31992
 Alpha virt. eigenvalues --    0.32734   0.32994   0.33393   0.33864   0.33990
 Alpha virt. eigenvalues --    0.34281   0.34977   0.35535   0.35752   0.35893
 Alpha virt. eigenvalues --    0.36393   0.36831   0.37689   0.38247   0.38665
 Alpha virt. eigenvalues --    0.38814   0.39096   0.39528   0.40469   0.40719
 Alpha virt. eigenvalues --    0.41099   0.41653   0.42233   0.42524   0.43328
 Alpha virt. eigenvalues --    0.43469   0.43683   0.44513   0.44878   0.45251
 Alpha virt. eigenvalues --    0.45570   0.45707   0.46507   0.47089   0.47304
 Alpha virt. eigenvalues --    0.47820   0.49034   0.49453   0.49939   0.50561
 Alpha virt. eigenvalues --    0.51020   0.51504   0.51879   0.52328   0.52933
 Alpha virt. eigenvalues --    0.53240   0.53957   0.54236   0.55168   0.55760
 Alpha virt. eigenvalues --    0.56670   0.57027   0.57650   0.58205   0.59587
 Alpha virt. eigenvalues --    0.60072   0.61071   0.62117   0.64090   0.64873
 Alpha virt. eigenvalues --    0.65252   0.65894   0.67965   0.68344   0.68823
 Alpha virt. eigenvalues --    0.70184   0.70699   0.71491   0.72710   0.73423
 Alpha virt. eigenvalues --    0.74265   0.74981   0.75272   0.76618   0.79075
 Alpha virt. eigenvalues --    0.79485   0.79946   0.81099   0.81682   0.82908
 Alpha virt. eigenvalues --    0.83267   0.84803   0.85628   0.87230   0.89148
 Alpha virt. eigenvalues --    0.91524   0.92360   0.95072   0.95486   0.98872
 Alpha virt. eigenvalues --    1.01271   1.02019   1.03227   1.04363   1.06592
 Alpha virt. eigenvalues --    1.08261   1.09893   1.10517   1.11182   1.11945
 Alpha virt. eigenvalues --    1.13980   1.15233   1.15705   1.16005   1.17099
 Alpha virt. eigenvalues --    1.18580   1.19692   1.21304   1.21926   1.23008
 Alpha virt. eigenvalues --    1.23917   1.25704   1.26564   1.27014   1.29440
 Alpha virt. eigenvalues --    1.32465   1.33456   1.33661   1.34488   1.35863
 Alpha virt. eigenvalues --    1.37926   1.38408   1.38585   1.40215   1.41144
 Alpha virt. eigenvalues --    1.41331   1.41566   1.42371   1.43007   1.43835
 Alpha virt. eigenvalues --    1.44099   1.44448   1.44780   1.46024   1.46283
 Alpha virt. eigenvalues --    1.46688   1.47130   1.47809   1.48680   1.49239
 Alpha virt. eigenvalues --    1.49907   1.50101   1.50477   1.51661   1.51810
 Alpha virt. eigenvalues --    1.52262   1.53208   1.53397   1.54601   1.54826
 Alpha virt. eigenvalues --    1.55506   1.55789   1.56021   1.57199   1.57691
 Alpha virt. eigenvalues --    1.58313   1.58918   1.59912   1.60095   1.61326
 Alpha virt. eigenvalues --    1.61803   1.63042   1.63495   1.65877   1.66250
 Alpha virt. eigenvalues --    1.67009   1.68039   1.70527   1.71215   1.72077
 Alpha virt. eigenvalues --    1.73845   1.75389   1.76189   1.79879   1.81156
 Alpha virt. eigenvalues --    1.84451   1.84924   1.88914   1.92779   1.93872
 Alpha virt. eigenvalues --    1.98309   1.99090   2.02505   2.03155   2.04101
 Alpha virt. eigenvalues --    2.04432   2.05353   2.06071   2.06653   2.07870
 Alpha virt. eigenvalues --    2.08628   2.10210   2.11406   2.12012   2.13006
 Alpha virt. eigenvalues --    2.13093   2.13707   2.14668   2.15007   2.15942
 Alpha virt. eigenvalues --    2.17319   2.17491   2.18374   2.20052   2.20753
 Alpha virt. eigenvalues --    2.21599   2.23107   2.24981   2.25643   2.28350
 Alpha virt. eigenvalues --    2.29448   2.31083   2.32370   2.33319   2.34572
 Alpha virt. eigenvalues --    2.34748   2.35735   2.37059   2.38852   2.39785
 Alpha virt. eigenvalues --    2.40436   2.41538   2.41791   2.43775   2.44677
 Alpha virt. eigenvalues --    2.47276   2.48135   2.51013   2.52596   2.52775
 Alpha virt. eigenvalues --    2.55192   2.55989   2.59843   2.60168   2.60614
 Alpha virt. eigenvalues --    2.61307   2.63217   2.64046   2.64854   2.68568
 Alpha virt. eigenvalues --    2.68950   2.70883   2.71863   2.75000   2.76046
 Alpha virt. eigenvalues --    2.77363   2.78724   2.82667   2.83180   2.84877
 Alpha virt. eigenvalues --    2.85898   2.88459   2.89521   2.90800   2.91789
 Alpha virt. eigenvalues --    2.92437   2.97118   2.99021   3.01316   3.05640
 Alpha virt. eigenvalues --    3.09783   3.11877   3.14629   3.19691   3.21698
 Alpha virt. eigenvalues --    3.24523   3.25543   3.28050   3.35410   3.39743
 Alpha virt. eigenvalues --    3.41054   3.45509   3.47724   3.48165   3.49743
 Alpha virt. eigenvalues --    3.51467   3.51760   3.52300   3.52993   3.55531
 Alpha virt. eigenvalues --    3.56970   3.57422   3.59951   3.60961   3.61583
 Alpha virt. eigenvalues --    3.62426   3.66100   3.67454   3.68075   3.70161
 Alpha virt. eigenvalues --    3.70698   3.72883   3.74562   3.77108   3.77998
 Alpha virt. eigenvalues --    3.79055   3.79709   3.82312   3.83535   3.84157
 Alpha virt. eigenvalues --    3.85502   3.86072   3.90418   3.94177   3.96372
 Alpha virt. eigenvalues --    3.99357   4.08091   4.11240   4.12485   4.26199
 Alpha virt. eigenvalues --    4.31047   4.32433   4.35032   4.36657   4.37895
 Alpha virt. eigenvalues --    4.38940   4.39836   4.40592   4.42506   4.43427
 Alpha virt. eigenvalues --    4.45478   4.51771   4.52322   5.11488   5.15394
 Alpha virt. eigenvalues --    5.32527   5.62925   5.99216   6.31972   6.40992
 Alpha virt. eigenvalues --    6.42316   6.43472   6.44616   6.45180   6.46921
 Alpha virt. eigenvalues --    6.47737   6.48425   6.49064   6.51291   6.51343
 Alpha virt. eigenvalues --    6.51613   6.52184   6.52801   6.53263   6.54266
 Alpha virt. eigenvalues --    6.54704   6.55473   6.55901   6.57189   6.57402
 Alpha virt. eigenvalues --    6.58303   6.60088   6.61139   6.62239   6.66524
 Alpha virt. eigenvalues --    6.68924   6.69711   6.72994   6.76878   6.77622
 Alpha virt. eigenvalues --    6.78220   6.83134   6.87584   6.89083   6.90026
 Alpha virt. eigenvalues --    6.90566   6.92091   6.93871   6.94750   6.95962
 Alpha virt. eigenvalues --    7.02163   7.05061   7.15395   7.18369   7.24971
 Alpha virt. eigenvalues --    7.29103   7.44859   7.53004   9.08483   9.09268
 Alpha virt. eigenvalues --    9.10092   9.10575   9.11117   9.11899   9.12130
 Alpha virt. eigenvalues --    9.12515   9.14407   9.17428   9.18008   9.18771
 Alpha virt. eigenvalues --    9.19500   9.19790   9.20115   9.21355   9.21744
 Alpha virt. eigenvalues --    9.22245   9.23421   9.23922   9.24343   9.25681
 Alpha virt. eigenvalues --    9.25850   9.26519   9.27024   9.27918   9.27966
 Alpha virt. eigenvalues --    9.28224   9.29026   9.29383   9.29772   9.30536
 Alpha virt. eigenvalues --    9.34863   9.35426   9.39252   9.41412   9.43947
 Alpha virt. eigenvalues --    9.44418   9.45043   9.45666   9.46814   9.51211
 Alpha virt. eigenvalues --    9.54179   9.63570   9.65410   9.66356   9.66571
 Alpha virt. eigenvalues --    9.68361   9.68659   9.69333   9.73138   9.73916
 Alpha virt. eigenvalues --    9.75846   9.76969   9.78122   9.78415   9.79559
 Alpha virt. eigenvalues --    9.81770   9.82449   9.83514   9.85013   9.87300
 Alpha virt. eigenvalues --    9.89882   9.90361   9.92133  23.95243  23.96926
 Alpha virt. eigenvalues --   23.97975  24.00911  24.06064  24.07862  24.20881
 Alpha virt. eigenvalues --   50.06441  50.14334  66.93283  66.94397  66.95148
 Alpha virt. eigenvalues --   66.96060  66.96963  66.99148  67.00241  67.00830
 Alpha virt. eigenvalues --   67.01541  67.02184  67.03508  67.07243  67.08646
          Condensed to atoms (all electrons):
               1          2          3          4          5          6
     1  C   20.040283   0.398360   0.419710  -8.461603  -0.185958  -0.156753
     2  F    0.398360   9.077156  -0.001945  -0.145041   0.012366   0.000200
     3  F    0.419710  -0.001945   9.074092  -0.172202   0.000061   0.025455
     4  C   -8.461603  -0.145041  -0.172202  16.926264   0.401732   0.431365
     5  F   -0.185958   0.012366   0.000061   0.401732   9.076244   0.007247
     6  F   -0.156753   0.000200   0.025455   0.431365   0.007247   9.079177
     7  C    2.758178   0.014105  -0.026261  -4.749739  -0.132827  -0.187222
     8  F   -0.038968   0.014086  -0.001033  -0.075777   0.019997   0.000263
     9  F   -0.027433   0.017251   0.010866  -0.094694  -0.000028   0.009904
    10  C   -1.234032   0.024885  -0.012520   1.263857  -0.036648   0.052827
    11  O    0.013469   0.000100  -0.000350  -0.115044   0.000735   0.005682
    12  O    0.043408  -0.000216  -0.000068  -0.029008   0.006446   0.003228
    13  H   -0.006989   0.000004  -0.000010   0.009432  -0.000060  -0.000552
    14  C   -9.220953  -0.170825  -0.144954   2.008446   0.017427  -0.031871
    15  F   -0.161818   0.027349   0.000019  -0.010633   0.014899  -0.000478
    16  F   -0.183182   0.000059   0.011470   0.031720   0.015522   0.014224
    17  C    2.932153  -0.014176   0.008839  -1.517295   0.030610  -0.008263
    18  F    0.016425  -0.000979   0.013746  -0.015651   0.000197  -0.000711
    19  F    0.000702   0.010129   0.015594   0.061054  -0.000165  -0.000080
    20  C   -1.395414  -0.014289   0.024709  -0.162254   0.000651  -0.000519
    21  F    0.053324  -0.000099  -0.000083   0.010172  -0.000022  -0.000005
    22  F   -0.011614  -0.000613   0.000143   0.006970   0.000043  -0.000002
    23  F    0.024908   0.000014  -0.000122  -0.001300  -0.000003   0.000004
               7          8          9         10         11         12
     1  C    2.758178  -0.038968  -0.027433  -1.234032   0.013469   0.043408
     2  F    0.014105   0.014086   0.017251   0.024885   0.000100  -0.000216
     3  F   -0.026261  -0.001033   0.010866  -0.012520  -0.000350  -0.000068
     4  C   -4.749739  -0.075777  -0.094694   1.263857  -0.115044  -0.029008
     5  F   -0.132827   0.019997  -0.000028  -0.036648   0.000735   0.006446
     6  F   -0.187222   0.000263   0.009904   0.052827   0.005682   0.003228
     7  C   10.548987   0.325280   0.280981  -1.516059   0.081181  -0.118051
     8  F    0.325280   9.090904  -0.003277  -0.086588  -0.005091   0.012761
     9  F    0.280981  -0.003277   9.126078  -0.129880   0.000589   0.005129
    10  C   -1.516059  -0.086588  -0.129880   6.578986   0.434366   0.357275
    11  O    0.081181  -0.005091   0.000589   0.434366   8.029468  -0.094691
    12  O   -0.118051   0.012761   0.005129   0.357275  -0.094691   7.918742
    13  H   -0.057107  -0.001448  -0.000004   0.053488   0.013985   0.233514
    14  C   -1.668297  -0.003843   0.065876  -0.179058  -0.003207  -0.001485
    15  F   -0.010158  -0.000731  -0.000021   0.000661  -0.000008   0.000008
    16  F    0.043048   0.000124  -0.000193   0.003597   0.000014  -0.000022
    17  C    0.026675  -0.002347   0.002358  -0.079377   0.000166   0.000533
    18  F    0.000161  -0.000012   0.000055  -0.000200   0.000000  -0.000002
    19  F    0.003512   0.000026  -0.000053   0.000334  -0.000000  -0.000003
    20  C   -0.076528  -0.000154   0.000273  -0.009822  -0.000012  -0.000033
    21  F    0.000320  -0.000000  -0.000000   0.000015  -0.000000  -0.000000
    22  F    0.000503   0.000002   0.000000   0.000038   0.000000  -0.000000
    23  F    0.000135  -0.000000  -0.000000  -0.000002   0.000000  -0.000000
              13         14         15         16         17         18
     1  C   -0.006989  -9.220953  -0.161818  -0.183182   2.932153   0.016425
     2  F    0.000004  -0.170825   0.027349   0.000059  -0.014176  -0.000979
     3  F   -0.000010  -0.144954   0.000019   0.011470   0.008839   0.013746
     4  C    0.009432   2.008446  -0.010633   0.031720  -1.517295  -0.015651
     5  F   -0.000060   0.017427   0.014899   0.015522   0.030610   0.000197
     6  F   -0.000552  -0.031871  -0.000478   0.014224  -0.008263  -0.000711
     7  C   -0.057107  -1.668297  -0.010158   0.043048   0.026675   0.000161
     8  F   -0.001448  -0.003843  -0.000731   0.000124  -0.002347  -0.000012
     9  F   -0.000004   0.065876  -0.000021  -0.000193   0.002358   0.000055
    10  C    0.053488  -0.179058   0.000661   0.003597  -0.079377  -0.000200
    11  O    0.013985  -0.003207  -0.000008   0.000014   0.000166   0.000000
    12  O    0.233514  -0.001485   0.000008  -0.000022   0.000533  -0.000002
    13  H    0.468321  -0.001544  -0.000005  -0.000004  -0.000085  -0.000000
    14  C   -0.001544  17.844484   0.425318   0.344328  -5.018517  -0.102154
    15  F   -0.000005   0.425318   9.078677   0.004898  -0.195471   0.000577
    16  F   -0.000004   0.344328   0.004898   9.084888  -0.124812   0.021684
    17  C   -0.000085  -5.018517  -0.195471  -0.124812  10.868742   0.383474
    18  F   -0.000000  -0.102154   0.000577   0.021684   0.383474   9.069539
    19  F   -0.000000  -0.131537   0.011234  -0.000211   0.317144   0.002429
    20  C   -0.000003   1.554724   0.045667  -0.018662  -1.819267  -0.173942
    21  F   -0.000000  -0.024366   0.007651   0.007839  -0.094079   0.015602
    22  F   -0.000000   0.013083   0.006012  -0.002446  -0.069465  -0.000559
    23  F   -0.000000   0.035161   0.000334  -0.001139  -0.097179   0.023113
              19         20         21         22         23
     1  C    0.000702  -1.395414   0.053324  -0.011614   0.024908
     2  F    0.010129  -0.014289  -0.000099  -0.000613   0.000014
     3  F    0.015594   0.024709  -0.000083   0.000143  -0.000122
     4  C    0.061054  -0.162254   0.010172   0.006970  -0.001300
     5  F   -0.000165   0.000651  -0.000022   0.000043  -0.000003
     6  F   -0.000080  -0.000519  -0.000005  -0.000002   0.000004
     7  C    0.003512  -0.076528   0.000320   0.000503   0.000135
     8  F    0.000026  -0.000154  -0.000000   0.000002  -0.000000
     9  F   -0.000053   0.000273  -0.000000   0.000000  -0.000000
    10  C    0.000334  -0.009822   0.000015   0.000038  -0.000002
    11  O   -0.000000  -0.000012  -0.000000   0.000000   0.000000
    12  O   -0.000003  -0.000033  -0.000000  -0.000000  -0.000000
    13  H   -0.000000  -0.000003  -0.000000  -0.000000  -0.000000
    14  C   -0.131537   1.554724  -0.024366   0.013083   0.035161
    15  F    0.011234   0.045667   0.007651   0.006012   0.000334
    16  F   -0.000211  -0.018662   0.007839  -0.002446  -0.001139
    17  C    0.317144  -1.819267  -0.094079  -0.069465  -0.097179
    18  F    0.002429  -0.173942   0.015602  -0.000559   0.023113
    19  F    9.107249  -0.168531   0.001697   0.021215   0.019701
    20  C   -0.168531   6.391257   0.228786   0.272564   0.176791
    21  F    0.001697   0.228786   9.070501   0.004844   0.002903
    22  F    0.021215   0.272564   0.004844   9.034401  -0.007692
    23  F    0.019701   0.176791   0.002903  -0.007692   9.112160
 Mulliken charges:
               1
     1  C    0.383797
     2  F   -0.247879
     3  F   -0.245153
     4  C    0.399231
     5  F   -0.248463
     6  F   -0.243121
     7  C    0.459182
     8  F   -0.244175
     9  F   -0.263778
    10  C    0.513859
    11  O   -0.361352
    12  O   -0.337466
    13  H    0.289066
    14  C    0.393765
    15  F   -0.243978
    16  F   -0.252742
    17  C    0.469640
    18  F   -0.252793
    19  F   -0.271439
    20  C    1.144008
    21  F   -0.285000
    22  F   -0.267426
    23  F   -0.287785
 Sum of Mulliken charges =  -0.00000
 Mulliken charges with hydrogens summed into heavy atoms:
               1
     1  C    0.383797
     2  F   -0.247879
     3  F   -0.245153
     4  C    0.399231
     5  F   -0.248463
     6  F   -0.243121
     7  C    0.459182
     8  F   -0.244175
     9  F   -0.263778
    10  C    0.513859
    11  O   -0.361352
    12  O   -0.048400
    14  C    0.393765
    15  F   -0.243978
    16  F   -0.252742
    17  C    0.469640
    18  F   -0.252793
    19  F   -0.271439
    20  C    1.144008
    21  F   -0.285000
    22  F   -0.267426
    23  F   -0.287785
 APT charges:
               1
     1  C    0.905076
     2  F   -0.449268
     3  F   -0.446172
     4  C    0.884106
     5  F   -0.448475
     6  F   -0.463267
     7  C    0.939697
     8  F   -0.473304
     9  F   -0.452739
    10  C    1.073933
    11  O   -0.696028
    12  O   -0.680910
    13  H    0.318498
    14  C    0.900758
    15  F   -0.454697
    16  F   -0.450279
    17  C    0.910745
    18  F   -0.461406
    19  F   -0.462684
    20  C    1.560838
    21  F   -0.502762
    22  F   -0.501670
    23  F   -0.549994
 Sum of APT charges =   0.00000
 APT charges with hydrogens summed into heavy atoms:
               1
     1  C    0.905076
     2  F   -0.449268
     3  F   -0.446172
     4  C    0.884106
     5  F   -0.448475
     6  F   -0.463267
     7  C    0.939697
     8  F   -0.473304
     9  F   -0.452739
    10  C    1.073933
    11  O   -0.696028
    12  O   -0.362411
    14  C    0.900758
    15  F   -0.454697
    16  F   -0.450279
    17  C    0.910745
    18  F   -0.461406
    19  F   -0.462684
    20  C    1.560838
    21  F   -0.502762
    22  F   -0.501670
    23  F   -0.549994
 Electronic spatial extent (au):  <R**2>=           6442.0338
 Charge=             -0.0000 electrons
 Dipole moment (field-independent basis, Debye):
    X=              1.2363    Y=             -1.9993    Z=              0.1982  Tot=              2.3590
 Quadrupole moment (field-independent basis, Debye-Ang):
   XX=           -109.2300   YY=           -116.9777   ZZ=           -120.5339
   XY=            -11.2751   XZ=              1.6529   YZ=              2.4709
 Traceless Quadrupole moment (field-independent basis, Debye-Ang):
   XX=              6.3505   YY=             -1.3972   ZZ=             -4.9534
   XY=            -11.2751   XZ=              1.6529   YZ=              2.4709
 Octapole moment (field-independent basis, Debye-Ang**2):
  XXX=             29.8567  YYY=             -5.1118  ZZZ=              3.3342  XYY=              2.9395
  XXY=            -65.4964  XXZ=             14.3860  XZZ=            -18.8115  YZZ=             -0.4729
  YYZ=             -1.0515  XYZ=             11.6675
 Hexadecapole moment (field-independent basis, Debye-Ang**3):
 XXXX=          -5312.6118 YYYY=           -695.4076 ZZZZ=           -570.0691 XXXY=           -341.1787
 XXXZ=             84.0637 YYYX=            -30.2311 YYYZ=              5.8423 ZZZX=             16.2201
 ZZZY=              1.8508 XXYY=           -974.4838 XXZZ=          -1084.5997 YYZZ=           -212.9874
 XXYZ=             59.4696 YYXZ=             -9.1003 ZZXY=             -1.5811
 N-N= 2.383451860663D+03 E-N=-8.838992039103D+03  KE= 1.711341908164D+03
  Exact polarizability: 113.214  -1.687  91.251  -4.166  -2.870  88.691
 Approx polarizability: 100.510   0.098 108.315  -4.598  -5.672 111.776
 Calling FoFJK, ICntrl=    100127 FMM=F ISym2X=0 I1Cent= 0 IOpClX= 0 NMat=1 NMatS=1 NMatT=0.
 Full mass-weighted force constant matrix:
 Low frequencies ---   -5.0945    0.0006    0.0007    0.0012    1.6722    3.2791
 Low frequencies ---   29.4759   33.6175   44.9539
 Diagonal vibrational polarizability:
       42.5695017      27.5115123      58.9883725
 Harmonic frequencies (cm**-1), IR intensities (KM/Mole), Raman scattering
 activities (A**4/AMU), depolarization ratios for plane and unpolarized
 incident light, reduced masses (AMU), force constants (mDyne/A),
 and normal coordinates:
                      1                      2                      3
                      A                      A                      A
 Frequencies --     29.4604                33.6019                44.9535
 Red. masses --     16.1309                13.4513                15.6282
 Frc consts  --      0.0082                 0.0089                 0.0186
 IR Inten    --      0.5155                 0.3165                 0.9360
  Atom  AN      X      Y      Z        X      Y      Z        X      Y      Z
     1   6    -0.00  -0.02  -0.04    -0.01   0.02  -0.15     0.01  -0.01  -0.10
     2   9    -0.01  -0.04  -0.03    -0.04   0.04  -0.16     0.02   0.16  -0.18
     3   9    -0.01  -0.01  -0.02     0.00  -0.01  -0.17     0.03  -0.14  -0.24
     4   6    -0.00  -0.02  -0.04     0.01   0.02  -0.10     0.01  -0.06   0.03
     5   9    -0.03  -0.06  -0.15    -0.01  -0.01  -0.16    -0.02   0.01   0.14
     6   9     0.06   0.09  -0.06     0.10   0.08  -0.10     0.06  -0.20   0.05
     7   6    -0.03  -0.05   0.08    -0.03   0.00   0.02    -0.01   0.01  -0.01
     8   9    -0.05  -0.25   0.06    -0.18   0.07   0.03     0.01   0.03  -0.00
     9   9    -0.07  -0.01   0.27     0.04  -0.01  -0.06    -0.07  -0.00  -0.02
    10   6     0.01   0.09   0.02     0.04  -0.06   0.20     0.04   0.07   0.03
    11   8     0.08   0.28   0.24     0.11  -0.14   0.21     0.27   0.25   0.39
    12   8    -0.05  -0.02  -0.29     0.00  -0.02   0.35    -0.19  -0.09  -0.35
    13   1    -0.02   0.08  -0.31     0.05  -0.06   0.47    -0.13  -0.04  -0.29
    14   6    -0.00  -0.02  -0.05     0.00   0.01  -0.15    -0.00  -0.00   0.02
    15   9    -0.02  -0.00  -0.04     0.07  -0.09  -0.21     0.05   0.07   0.07
    16   9     0.02  -0.04  -0.03    -0.04   0.11  -0.24    -0.06  -0.07   0.07
    17   6     0.01  -0.02  -0.09    -0.03   0.01   0.01    -0.01  -0.01   0.04
    18   9    -0.05  -0.20  -0.15    -0.17   0.05   0.03    -0.01   0.04   0.05
    19   9     0.08   0.10  -0.25     0.04  -0.01   0.04    -0.01  -0.03   0.08
    20   6     0.02   0.05   0.10     0.02  -0.02   0.14    -0.02  -0.00  -0.00
    21   9     0.01  -0.09   0.36    -0.03  -0.01   0.11    -0.11   0.11  -0.20
    22   9     0.05   0.34   0.15     0.16  -0.04   0.15     0.05  -0.22  -0.03
    23   9     0.00  -0.05  -0.04    -0.04  -0.03   0.26    -0.01   0.12   0.18
                      4                      5                      6
                      A                      A                      A
 Frequencies --     47.7774                58.8285                66.2983
 Red. masses --     14.1739                17.0075                17.6663
 Frc consts  --      0.0191                 0.0347                 0.0458
 IR Inten    --      0.4508                 0.3392                 0.1317
  Atom  AN      X      Y      Z        X      Y      Z        X      Y      Z
     1   6    -0.00  -0.14  -0.02    -0.02  -0.06   0.09     0.03   0.05  -0.11
     2   9    -0.06  -0.14  -0.02    -0.09  -0.21   0.16     0.01   0.20  -0.17
     3   9     0.05  -0.15  -0.04     0.02   0.04   0.20     0.13  -0.07  -0.24
     4   6     0.03  -0.11   0.07     0.00  -0.02   0.09    -0.00  -0.06   0.07
     5   9     0.08  -0.06   0.18     0.07   0.05   0.23    -0.08   0.01   0.19
     6   9     0.06  -0.23   0.10    -0.06  -0.15   0.10     0.06  -0.23   0.10
     7   6    -0.02   0.02   0.04     0.02   0.08  -0.09    -0.00  -0.06   0.08
     8   9     0.03  -0.00   0.04     0.10   0.31  -0.07     0.05  -0.17   0.06
     9   9    -0.16   0.02   0.08    -0.00   0.02  -0.30    -0.03  -0.04   0.19
    10   6     0.01   0.17  -0.03     0.02  -0.01  -0.02    -0.04   0.01  -0.05
    11   8    -0.20   0.19  -0.19     0.22   0.02   0.19    -0.17   0.03  -0.15
    12   8     0.27   0.25   0.10    -0.21  -0.10  -0.18     0.07   0.02  -0.07
    13   1     0.27   0.33   0.03    -0.18  -0.13  -0.10     0.03   0.05  -0.18
    14   6    -0.02  -0.10  -0.09    -0.02  -0.04  -0.10    -0.01   0.11  -0.07
    15   9    -0.05  -0.18  -0.14    -0.08  -0.24  -0.23     0.02   0.05  -0.10
    16   9    -0.05  -0.04  -0.14     0.01   0.14  -0.24    -0.07   0.18  -0.14
    17   6     0.03  -0.01  -0.04     0.00   0.02  -0.01    -0.03   0.10   0.07
    18   9     0.00  -0.02  -0.04    -0.03   0.09   0.02    -0.08   0.30   0.14
    19   9     0.14   0.00  -0.06     0.05  -0.02   0.05    -0.07  -0.02   0.24
    20   6    -0.02   0.11   0.03     0.00   0.02   0.01     0.03  -0.05  -0.00
    21   9    -0.19   0.15  -0.04     0.07  -0.06   0.16     0.27  -0.14   0.14
    22   9     0.06   0.06   0.03    -0.05   0.18   0.03    -0.08   0.08   0.01
    23   9     0.02   0.25   0.15    -0.00  -0.07  -0.13    -0.03  -0.27  -0.21
                      7                      8                      9
                      A                      A                      A
 Frequencies --     80.7832               131.7304               144.1663
 Red. masses --     14.5688                12.2581                15.6491
 Frc consts  --      0.0560                 0.1253                 0.1916
 IR Inten    --      0.1729                 0.8964                 0.0260
  Atom  AN      X      Y      Z        X      Y      Z        X      Y      Z
     1   6    -0.00   0.11   0.05     0.02   0.00   0.05    -0.02  -0.04   0.01
     2   9    -0.08   0.09   0.06     0.10  -0.11   0.10     0.01  -0.05   0.02
     3   9     0.06   0.13   0.06     0.09   0.09   0.14    -0.03  -0.03   0.02
     4   6    -0.02   0.07   0.13    -0.04  -0.12  -0.04    -0.10  -0.07  -0.03
     5   9    -0.08   0.12   0.22    -0.07  -0.09   0.01    -0.12  -0.08  -0.05
     6   9    -0.02  -0.02   0.15    -0.14  -0.18  -0.04    -0.11  -0.05  -0.03
     7   6     0.03   0.01   0.09    -0.01  -0.12  -0.10    -0.20   0.01  -0.00
     8   9     0.12  -0.05   0.08    -0.01  -0.09  -0.10    -0.28   0.07   0.01
     9   9     0.10   0.02   0.15    -0.07  -0.13  -0.14    -0.31  -0.01  -0.06
    10   6    -0.09  -0.09  -0.07     0.13   0.03   0.02    -0.21   0.04   0.03
    11   8    -0.14  -0.14  -0.16     0.14   0.15   0.13    -0.22   0.02   0.01
    12   8    -0.17  -0.12  -0.13     0.31   0.08   0.08    -0.27   0.02   0.01
    13   1    -0.27  -0.20  -0.26     0.45   0.23   0.22    -0.30  -0.03  -0.02
    14   6     0.03   0.09  -0.08    -0.06   0.13   0.02     0.05  -0.02   0.02
    15   9     0.00   0.02  -0.12    -0.11   0.18   0.04     0.03   0.01   0.04
    16   9     0.12   0.14  -0.11    -0.09   0.10   0.04     0.05  -0.06   0.05
    17   6    -0.02   0.00  -0.12    -0.07   0.12  -0.05     0.16   0.07  -0.01
    18   9    -0.10  -0.15  -0.17    -0.10   0.05  -0.07     0.22   0.09   0.00
    19   9    -0.06   0.10  -0.26    -0.15   0.18  -0.13     0.24   0.05   0.01
    20   6     0.05  -0.06   0.03     0.02  -0.01  -0.00     0.22   0.04  -0.01
    21   9     0.01  -0.00  -0.09     0.14   0.01  -0.05     0.34   0.05  -0.04
    22   9     0.27  -0.19   0.03     0.11  -0.09  -0.00     0.31  -0.01  -0.01
    23   9    -0.05  -0.07   0.26    -0.11  -0.14   0.09     0.15  -0.05   0.04
                     10                     11                     12
                      A                      A                      A
 Frequencies --    187.4046               204.1439               205.8228
 Red. masses --     15.3055                17.2064                16.9261
 Frc consts  --      0.3167                 0.4225                 0.4225
 IR Inten    --      0.6219                 1.4073                 2.3773
  Atom  AN      X      Y      Z        X      Y      Z        X      Y      Z
     1   6     0.03  -0.17  -0.04     0.13   0.02   0.08     0.10   0.06  -0.15
     2   9     0.03  -0.26   0.00     0.31   0.10   0.04     0.20  -0.28   0.01
     3   9     0.11  -0.14  -0.01     0.26  -0.04   0.01     0.22   0.32   0.13
     4   6     0.13  -0.05   0.02     0.04  -0.15   0.04     0.03   0.00  -0.14
     5   9     0.25  -0.12  -0.11     0.04  -0.24  -0.15    -0.04   0.13   0.09
     6   9     0.36   0.10   0.01     0.15   0.02   0.02     0.12  -0.28  -0.08
     7   6     0.05   0.10   0.11    -0.07  -0.04   0.07    -0.05   0.07  -0.04
     8   9     0.11   0.19   0.11    -0.05   0.16   0.08    -0.20  -0.05  -0.05
     9   9     0.01   0.09   0.06    -0.27  -0.10  -0.13    -0.02   0.11   0.09
    10   6    -0.05   0.02   0.01    -0.10   0.01   0.04    -0.06   0.06   0.01
    11   8    -0.07  -0.08  -0.09    -0.18   0.03  -0.01    -0.03  -0.02  -0.02
    12   8    -0.19  -0.02  -0.04    -0.10  -0.02  -0.04    -0.19   0.06   0.05
    13   1    -0.31  -0.15  -0.18    -0.16  -0.04  -0.14    -0.23  -0.06   0.06
    14   6    -0.10   0.01  -0.02     0.08   0.12   0.10     0.06   0.06  -0.13
    15   9    -0.18   0.14   0.06     0.17  -0.06  -0.01     0.17   0.28   0.02
    16   9    -0.29  -0.12   0.07     0.19   0.33  -0.07     0.05  -0.13   0.02
    17   6    -0.07   0.13  -0.04    -0.03  -0.02   0.10    -0.01  -0.09  -0.09
    18   9    -0.11   0.14  -0.03    -0.03  -0.23   0.03    -0.06   0.09  -0.03
    19   9    -0.07   0.14  -0.06    -0.19   0.10  -0.07    -0.04  -0.21   0.09
    20   6    -0.02   0.03  -0.01    -0.07  -0.02   0.05    -0.04  -0.07  -0.04
    21   9     0.11   0.04  -0.04    -0.09  -0.00   0.01    -0.29  -0.13   0.08
    22   9     0.06  -0.02  -0.01    -0.25  -0.07   0.02     0.04   0.05  -0.01
    23   9    -0.15  -0.12   0.05     0.03   0.07  -0.04     0.01   0.03  -0.02
                     13                     14                     15
                      A                      A                      A
 Frequencies --    224.4761               237.8840               247.7331
 Red. masses --     16.5898                18.2478                14.8756
 Frc consts  --      0.4925                 0.6084                 0.5379
 IR Inten    --      1.1131                 0.0220                 0.4387
  Atom  AN      X      Y      Z        X      Y      Z        X      Y      Z
     1   6    -0.01   0.03   0.05    -0.01   0.05  -0.05    -0.00  -0.01   0.01
     2   9    -0.20   0.11   0.02     0.08  -0.05  -0.01     0.32   0.02  -0.01
     3   9     0.15  -0.01  -0.00    -0.12   0.12   0.03    -0.31  -0.07  -0.02
     4   6    -0.02  -0.05   0.13    -0.02   0.01   0.02    -0.01  -0.01  -0.04
     5   9    -0.14  -0.16  -0.11    -0.36   0.02  -0.02    -0.15   0.02  -0.02
     6   9     0.05   0.21   0.09     0.27   0.04   0.04     0.12  -0.04  -0.02
     7   6     0.00  -0.11   0.09     0.01  -0.07   0.07     0.01   0.04  -0.05
     8   9     0.11   0.17   0.11     0.15   0.10   0.07     0.38  -0.11  -0.09
     9   9    -0.08  -0.18  -0.18    -0.07  -0.11  -0.11    -0.28   0.06   0.09
    10   6     0.00  -0.07   0.03     0.00  -0.04   0.02    -0.00   0.07  -0.05
    11   8    -0.12   0.07   0.03    -0.07   0.04   0.02     0.19  -0.10  -0.01
    12   8     0.19  -0.08  -0.11     0.11  -0.04  -0.04    -0.20   0.11   0.20
    13   1     0.21   0.07  -0.20     0.13   0.05  -0.08    -0.17  -0.07   0.40
    14   6     0.01   0.01  -0.06     0.01  -0.01  -0.10    -0.01  -0.00   0.07
    15   9    -0.08   0.12   0.00    -0.19   0.15  -0.01    -0.18  -0.09  -0.02
    16   9     0.13  -0.09   0.03     0.25  -0.13   0.03     0.12   0.08  -0.00
    17   6     0.00  -0.05  -0.15     0.01  -0.03  -0.02    -0.01   0.00  -0.05
    18   9     0.13   0.24  -0.05    -0.40  -0.01  -0.00     0.11   0.08  -0.02
    19   9    -0.14  -0.22   0.10     0.45  -0.07   0.02    -0.13  -0.04   0.02
    20   6     0.00  -0.05  -0.10    -0.02   0.01   0.07     0.00  -0.01  -0.05
    21   9    -0.29  -0.14   0.08     0.14   0.06  -0.04    -0.10  -0.04   0.01
    22   9     0.32   0.14  -0.03    -0.24  -0.10   0.02     0.16   0.07  -0.02
    23   9    -0.03  -0.02   0.03     0.01   0.01   0.00    -0.04  -0.03   0.02
                     16                     17                     18
                      A                      A                      A
 Frequencies --    256.4693               261.4260               292.6978
 Red. masses --     16.9212                16.3697                18.2987
 Frc consts  --      0.6558                 0.6592                 0.9237
 IR Inten    --      0.5462                 0.2909                 4.1820
  Atom  AN      X      Y      Z        X      Y      Z        X      Y      Z
     1   6    -0.04   0.03  -0.11    -0.01   0.04  -0.07     0.01  -0.04   0.02
     2   9     0.04  -0.13  -0.03    -0.33  -0.05  -0.01    -0.04  -0.04   0.01
     3   9    -0.30   0.15   0.05     0.26   0.11   0.01    -0.02  -0.08  -0.03
     4   6     0.00   0.05  -0.04    -0.04  -0.02   0.07     0.01  -0.00  -0.01
     5   9    -0.36   0.12   0.04    -0.16  -0.06  -0.06     0.03  -0.01  -0.01
     6   9     0.38  -0.07   0.02    -0.08   0.10   0.03    -0.02   0.01  -0.01
     7   6     0.02  -0.05   0.08     0.00  -0.01  -0.03     0.01   0.02  -0.01
     8   9    -0.04   0.11   0.09     0.43  -0.04  -0.05    -0.04   0.00  -0.01
     9   9     0.11  -0.08  -0.09    -0.30  -0.01   0.03     0.04   0.03   0.02
    10   6     0.01  -0.06   0.04    -0.00   0.04  -0.05     0.01   0.01  -0.01
    11   8    -0.12   0.06   0.01     0.15  -0.06   0.01     0.02  -0.01  -0.02
    12   8     0.17  -0.08  -0.11    -0.12   0.08   0.15    -0.01   0.01  -0.00
    13   1     0.16   0.05  -0.24    -0.06  -0.03   0.34    -0.03  -0.01  -0.01
    14   6    -0.02  -0.02   0.05     0.01   0.01  -0.08    -0.01   0.07  -0.03
    15   9     0.20  -0.10   0.01     0.32   0.09   0.01    -0.36   0.14  -0.02
    16   9    -0.34   0.05  -0.05    -0.30  -0.07  -0.05    -0.08   0.07  -0.03
    17   6     0.02   0.01   0.09     0.03  -0.02   0.06     0.06  -0.02  -0.00
    18   9     0.26  -0.12   0.03     0.00  -0.11   0.02    -0.22  -0.03   0.01
    19   9    -0.21   0.09  -0.02     0.05   0.02  -0.02    -0.25  -0.03   0.02
    20   6     0.05  -0.00  -0.00     0.03  -0.02   0.04     0.25  -0.13   0.06
    21   9     0.03  -0.00   0.01     0.06  -0.00   0.01     0.03  -0.16   0.13
    22   9     0.05  -0.00   0.01    -0.09  -0.07   0.01     0.06  -0.17   0.03
    23   9     0.09   0.04  -0.03     0.12   0.05  -0.04     0.65   0.32  -0.10
                     19                     20                     21
                      A                      A                      A
 Frequencies --    310.9937               318.0943               344.3150
 Red. masses --     18.5393                18.1350                18.0980
 Frc consts  --      1.0564                 1.0811                 1.2641
 IR Inten    --      0.0696                 0.1786                 0.2168
  Atom  AN      X      Y      Z        X      Y      Z        X      Y      Z
     1   6     0.08   0.00   0.01     0.01  -0.00   0.02    -0.02   0.08   0.04
     2   9     0.35   0.06  -0.03     0.37   0.02  -0.00    -0.07   0.20  -0.00
     3   9     0.35  -0.03  -0.04    -0.27  -0.02   0.02    -0.15   0.14   0.11
     4   6    -0.07   0.04   0.00    -0.03  -0.00   0.06     0.09   0.02   0.03
     5   9    -0.31   0.04  -0.03     0.20  -0.04   0.05     0.33   0.04   0.10
     6   9    -0.22   0.10  -0.02    -0.31   0.08   0.03     0.20   0.05   0.04
     7   6     0.02   0.06   0.03    -0.01  -0.04   0.11    -0.02  -0.05  -0.02
     8   9     0.06   0.13   0.03     0.16   0.10   0.12    -0.14  -0.13  -0.02
     9   9     0.24   0.08   0.05    -0.01  -0.07   0.02    -0.32  -0.08  -0.06
    10   6    -0.04   0.06   0.02    -0.08  -0.08   0.10     0.06  -0.06  -0.02
    11   8    -0.06   0.09   0.02    -0.19   0.06   0.12     0.10  -0.12  -0.04
    12   8    -0.05   0.06   0.03     0.06  -0.10  -0.00     0.09  -0.08  -0.06
    13   1    -0.05   0.03   0.04     0.08   0.04  -0.08     0.08  -0.03  -0.12
    14   6    -0.08  -0.02   0.01     0.01   0.01  -0.03    -0.04   0.09  -0.00
    15   9    -0.33  -0.08  -0.06     0.32   0.04   0.02    -0.15   0.16   0.03
    16   9    -0.32   0.02  -0.05    -0.28   0.01  -0.06    -0.23   0.18  -0.09
    17   6     0.06  -0.04   0.00    -0.01  -0.01  -0.06     0.08   0.02  -0.02
    18   9     0.26  -0.09  -0.02    -0.35   0.04  -0.04     0.22   0.03  -0.02
    19   9     0.26  -0.04  -0.01     0.16  -0.05  -0.02     0.36   0.04  -0.06
    20   6    -0.03  -0.08   0.01     0.04  -0.02  -0.10    -0.02  -0.10   0.01
    21   9    -0.12  -0.11   0.05    -0.11  -0.05  -0.06    -0.22  -0.17   0.10
    22   9    -0.06  -0.13   0.01     0.20   0.06  -0.08    -0.07  -0.20  -0.01
    23   9    -0.03  -0.09   0.02     0.08  -0.00  -0.16     0.01  -0.08  -0.02
                     22                     23                     24
                      A                      A                      A
 Frequencies --    361.7470               368.9358               375.6741
 Red. masses --     17.3583                16.0525                17.3117
 Frc consts  --      1.3383                 1.2873                 1.4395
 IR Inten    --      0.7445                 0.5222                 1.6409
  Atom  AN      X      Y      Z        X      Y      Z        X      Y      Z
     1   6    -0.07  -0.05  -0.11     0.03   0.03  -0.08     0.07  -0.07  -0.01
     2   9    -0.10  -0.25  -0.04     0.15  -0.01  -0.07     0.14  -0.22   0.05
     3   9    -0.21  -0.06  -0.12     0.15   0.10  -0.02     0.05  -0.21  -0.14
     4   6    -0.05  -0.02  -0.05     0.00   0.11   0.00    -0.00   0.08   0.04
     5   9     0.12  -0.04  -0.06     0.21   0.25   0.26    -0.18   0.19   0.21
     6   9    -0.15  -0.10  -0.06     0.08   0.28  -0.02    -0.11   0.30   0.01
     7   6    -0.03  -0.02   0.02    -0.10  -0.08  -0.07     0.01   0.01   0.02
     8   9     0.27   0.04   0.02     0.10  -0.28  -0.10    -0.17   0.03   0.03
     9   9     0.19  -0.02  -0.00    -0.09  -0.14  -0.24    -0.21   0.01   0.05
    10   6    -0.17  -0.05   0.08    -0.20  -0.10   0.05     0.13  -0.02  -0.03
    11   8    -0.27   0.16   0.17    -0.27   0.14   0.19     0.18  -0.15  -0.09
    12   8    -0.05  -0.03   0.08    -0.03  -0.06   0.09     0.14  -0.05  -0.09
    13   1     0.03   0.07   0.16     0.14   0.11   0.26     0.10  -0.01  -0.21
    14   6     0.04   0.07  -0.09    -0.02  -0.05  -0.07     0.09  -0.05  -0.02
    15   9     0.06   0.26   0.01    -0.11  -0.09  -0.11     0.17  -0.09  -0.04
    16   9     0.22   0.10  -0.09    -0.03  -0.19   0.03     0.10  -0.15   0.05
    17   6     0.05   0.06  -0.04    -0.02  -0.02  -0.01     0.02   0.09  -0.03
    18   9     0.30   0.17  -0.01     0.05  -0.05  -0.02    -0.01   0.32   0.04
    19   9     0.02   0.11  -0.11    -0.17  -0.06   0.04    -0.06   0.24  -0.21
    20   6    -0.03  -0.05   0.07     0.01   0.04   0.03    -0.01  -0.04   0.03
    21   9    -0.05  -0.10   0.16     0.16   0.07  -0.01    -0.10  -0.09   0.11
    22   9    -0.24  -0.20   0.04    -0.06   0.04   0.03    -0.12  -0.16   0.00
    23   9     0.00   0.01   0.10    -0.00   0.05   0.08     0.04   0.01   0.00
                     25                     26                     27
                      A                      A                      A
 Frequencies --    378.4162               384.8023               435.0089
 Red. masses --     15.0589                18.1503                15.1316
 Frc consts  --      1.2705                 1.5835                 1.6871
 IR Inten    --      1.6664                 0.1934                 1.9767
  Atom  AN      X      Y      Z        X      Y      Z        X      Y      Z
     1   6     0.01   0.07  -0.12    -0.02  -0.08  -0.04     0.03  -0.03   0.10
     2   9     0.11   0.06  -0.14     0.00  -0.34   0.06     0.13   0.12   0.04
     3   9    -0.05   0.24   0.04    -0.01  -0.24  -0.20    -0.16  -0.08   0.10
     4   6     0.02  -0.01  -0.05    -0.03   0.05   0.02     0.03  -0.09   0.19
     5   9     0.12  -0.02  -0.06    -0.04   0.13   0.16    -0.06  -0.20   0.04
     6   9    -0.22  -0.10  -0.07    -0.06   0.22  -0.00    -0.01   0.11   0.19
     7   6     0.04   0.01   0.12    -0.02   0.01   0.00     0.06  -0.02   0.04
     8   9     0.04   0.27   0.15    -0.07   0.02   0.00    -0.14  -0.13   0.06
     9   9    -0.24   0.02   0.23    -0.10   0.02   0.04     0.14  -0.08  -0.15
    10   6     0.11  -0.09   0.07     0.05  -0.04  -0.02     0.10   0.18  -0.07
    11   8     0.07  -0.17  -0.03     0.09  -0.09  -0.03     0.15   0.04  -0.15
    12   8     0.20  -0.16  -0.11     0.11  -0.05  -0.05    -0.18   0.20   0.03
    13   1     0.11  -0.04  -0.39     0.13   0.04  -0.09    -0.33  -0.15   0.04
    14   6    -0.01  -0.03  -0.13    -0.01   0.10  -0.01     0.03  -0.02  -0.14
    15   9    -0.12   0.02  -0.13    -0.03   0.35   0.13     0.14   0.17  -0.04
    16   9     0.00  -0.18  -0.03     0.02   0.32  -0.18    -0.11  -0.09  -0.14
    17   6    -0.01  -0.04  -0.04     0.00  -0.08   0.03     0.01  -0.05  -0.18
    18   9     0.15  -0.05  -0.06     0.08  -0.34  -0.05     0.07   0.10  -0.18
    19   9    -0.17  -0.12   0.05     0.03  -0.23   0.22    -0.07  -0.21  -0.03
    20   6    -0.00   0.04   0.05    -0.01   0.04  -0.02    -0.01   0.01   0.00
    21   9     0.20   0.07   0.02     0.07   0.10  -0.11     0.19  -0.02   0.07
    22   9    -0.15   0.03   0.05     0.05   0.16   0.00    -0.20   0.02  -0.01
    23   9    -0.02   0.07   0.15    -0.09  -0.03   0.03    -0.03   0.11   0.21
                     28                     29                     30
                      A                      A                      A
 Frequencies --    485.7669               520.3547               535.2986
 Red. masses --      7.9938                 4.8384                15.8879
 Frc consts  --      1.1114                 0.7719                 2.6823
 IR Inten    --      9.6411                13.1560                17.0470
  Atom  AN      X      Y      Z        X      Y      Z        X      Y      Z
     1   6     0.06   0.02  -0.11     0.06   0.02   0.05    -0.08   0.05  -0.06
     2   9    -0.02  -0.08  -0.10    -0.06   0.01   0.08     0.00  -0.09  -0.02
     3   9    -0.06   0.11  -0.05     0.03  -0.06  -0.02     0.03   0.08  -0.10
     4   6     0.09  -0.03   0.02     0.10   0.07  -0.10    -0.04  -0.00  -0.01
     5   9     0.03  -0.02   0.04    -0.02   0.16  -0.06     0.04   0.00   0.01
     6   9    -0.12   0.04  -0.00    -0.03  -0.09  -0.12    -0.01   0.00  -0.00
     7   6     0.12  -0.06   0.13     0.10   0.01   0.05     0.01  -0.02   0.06
     8   9    -0.01  -0.07   0.19     0.04  -0.05   0.08     0.01  -0.03   0.09
     9   9     0.01  -0.16  -0.13    -0.06  -0.04  -0.07     0.01  -0.06  -0.05
    10   6     0.15   0.15   0.07     0.10   0.05   0.15     0.05   0.06   0.02
    11   8     0.05   0.05  -0.11    -0.06   0.03  -0.01     0.05  -0.01  -0.04
    12   8    -0.12   0.12   0.03    -0.01  -0.01   0.04    -0.02   0.05   0.00
    13   1    -0.54  -0.35  -0.37    -0.50  -0.35  -0.61    -0.21  -0.10  -0.23
    14   6     0.05   0.01  -0.06     0.04  -0.01   0.08    -0.13   0.05   0.08
    15   9    -0.08   0.04  -0.08    -0.01  -0.06   0.07     0.03  -0.12   0.00
    16   9     0.06  -0.07  -0.00    -0.05   0.08   0.03     0.04   0.07   0.15
    17   6     0.04   0.05   0.12     0.02  -0.03  -0.05    -0.15   0.10  -0.05
    18   9     0.02  -0.11   0.11    -0.04   0.06  -0.04    -0.01  -0.09  -0.16
    19   9    -0.02   0.14   0.06     0.02  -0.07  -0.05     0.05  -0.03   0.17
    20   6     0.02   0.00   0.05     0.01  -0.03  -0.04    -0.15   0.21  -0.12
    21   9    -0.12   0.08  -0.06     0.04  -0.07  -0.02     0.14  -0.03   0.42
    22   9     0.06  -0.00   0.07    -0.06   0.07  -0.05     0.19  -0.33  -0.24
    23   9     0.01  -0.11  -0.11    -0.00   0.03   0.11    -0.23   0.30  -0.16
                     31                     32                     33
                      A                      A                      A
 Frequencies --    556.6141               571.1909               581.6367
 Red. masses --      9.4557                14.6055                 4.0753
 Frc consts  --      1.7260                 2.8076                 0.8123
 IR Inten    --      6.0459                20.8188                68.6585
  Atom  AN      X      Y      Z        X      Y      Z        X      Y      Z
     1   6     0.07   0.02   0.14    -0.09   0.21  -0.07     0.07   0.06   0.06
     2   9     0.03   0.09   0.20     0.05  -0.19   0.12    -0.03   0.01   0.14
     3   9    -0.03  -0.17   0.02    -0.01   0.16  -0.33    -0.03  -0.05  -0.06
     4   6     0.05   0.10   0.03    -0.10   0.13   0.17     0.06   0.02  -0.04
     5   9    -0.05   0.06  -0.15     0.08  -0.07  -0.21     0.01   0.07  -0.01
     6   9     0.01  -0.10   0.08    -0.03  -0.08   0.34     0.01  -0.03  -0.07
     7   6     0.03   0.12  -0.03    -0.08   0.13   0.08     0.04  -0.10  -0.00
     8   9     0.01  -0.10  -0.08    -0.01  -0.16   0.08    -0.02   0.08   0.03
     9   9    -0.06   0.18  -0.08    -0.00   0.14  -0.17    -0.01  -0.14   0.07
    10   6    -0.00  -0.03   0.13    -0.08   0.01   0.00     0.02  -0.02  -0.09
    11   8    -0.08  -0.03   0.07     0.06  -0.12   0.02     0.00   0.07  -0.04
    12   8     0.09  -0.08   0.02     0.07   0.03  -0.07    -0.09  -0.00  -0.01
    13   1    -0.27  -0.14  -0.62     0.22   0.34  -0.03     0.39   0.11   0.80
    14   6     0.07   0.03  -0.14    -0.05   0.16   0.04     0.06   0.09  -0.02
    15   9     0.04   0.13  -0.18    -0.01  -0.11  -0.15     0.01   0.00  -0.13
    16   9    -0.02  -0.17  -0.06    -0.03   0.04   0.25    -0.04  -0.03   0.10
    17   6     0.03   0.08  -0.00    -0.01   0.01  -0.00     0.05   0.07  -0.02
    18   9     0.03  -0.08  -0.06     0.01  -0.00  -0.01    -0.00  -0.04  -0.08
    19   9    -0.05   0.04   0.12     0.06   0.00   0.01     0.01   0.02   0.09
    20   6    -0.00   0.08   0.08     0.04  -0.10  -0.04     0.03  -0.00  -0.01
    21   9    -0.06   0.15   0.07    -0.01  -0.12  -0.11    -0.03  -0.01   0.00
    22   9     0.03  -0.13   0.08    -0.07   0.13  -0.03    -0.04   0.01  -0.02
    23   9    -0.04  -0.06  -0.14     0.08  -0.02   0.13     0.00  -0.03   0.03
                     34                     35                     36
                      A                      A                      A
 Frequencies --    601.5156               611.8047               640.1435
 Red. masses --      5.0087                 5.9862                 8.0713
 Frc consts  --      1.0678                 1.3202                 1.9487
 IR Inten    --     21.8111                27.3243                20.2012
  Atom  AN      X      Y      Z        X      Y      Z        X      Y      Z
     1   6    -0.03   0.03   0.01    -0.05   0.05  -0.01    -0.02   0.16   0.04
     2   9     0.02  -0.00   0.04    -0.01  -0.04   0.02     0.04  -0.01   0.19
     3   9     0.04  -0.00  -0.03    -0.01   0.05  -0.07    -0.01   0.06  -0.18
     4   6    -0.01   0.09  -0.01    -0.05  -0.07  -0.01    -0.00   0.06   0.05
     5   9     0.03   0.11  -0.10     0.01  -0.08   0.08     0.05   0.02  -0.06
     6   9    -0.02  -0.07   0.02     0.03   0.05  -0.03     0.02  -0.02   0.12
     7   6    -0.01   0.01   0.09    -0.02  -0.05  -0.06     0.03  -0.12  -0.09
     8   9     0.01  -0.04   0.15    -0.00   0.06  -0.10    -0.04   0.10  -0.14
     9   9    -0.02  -0.04  -0.06     0.03  -0.04   0.07    -0.01  -0.13   0.12
    10   6    -0.02   0.02  -0.03     0.02  -0.00  -0.01     0.06  -0.06  -0.10
    11   8     0.03  -0.04  -0.03     0.01   0.04   0.01     0.00   0.13  -0.01
    12   8    -0.04   0.02  -0.07     0.02   0.02   0.07    -0.02  -0.03   0.11
    13   1     0.48   0.35   0.64    -0.48  -0.35  -0.59    -0.44  -0.55  -0.26
    14   6    -0.04  -0.08   0.02    -0.06   0.09   0.05    -0.03  -0.05  -0.04
    15   9    -0.01  -0.01   0.11     0.03  -0.08  -0.03    -0.04   0.05   0.00
    16   9    -0.00   0.02  -0.08    -0.03   0.09   0.15    -0.01  -0.07  -0.10
    17   6    -0.04  -0.09  -0.04    -0.03  -0.01  -0.11    -0.06  -0.15   0.08
    18   9     0.01   0.08   0.01     0.02   0.08  -0.17     0.02   0.00   0.25
    19   9    -0.02  -0.12  -0.12     0.01  -0.14  -0.03    -0.00  -0.03  -0.16
    20   6    -0.03   0.04   0.09     0.02   0.01   0.12    -0.08  -0.00  -0.02
    21   9     0.01   0.15   0.01    -0.03   0.16  -0.03     0.07  -0.03   0.00
    22   9     0.03  -0.08   0.15    -0.03  -0.06   0.20     0.07   0.00  -0.02
    23   9     0.00  -0.02  -0.12     0.08  -0.09  -0.09    -0.07   0.10  -0.04
                     37                     38                     39
                      A                      A                      A
 Frequencies --    663.7018               689.6184               719.9114
 Red. masses --      7.6167                 8.6562                 9.7248
 Frc consts  --      1.9768                 2.4255                 2.9695
 IR Inten    --    184.1181                31.7277                21.3048
  Atom  AN      X      Y      Z        X      Y      Z        X      Y      Z
     1   6     0.17  -0.01  -0.07     0.06   0.05   0.01    -0.13  -0.16  -0.02
     2   9    -0.03  -0.08  -0.12    -0.04   0.01   0.08     0.02  -0.02  -0.22
     3   9    -0.03   0.10  -0.03    -0.05   0.02  -0.05     0.03  -0.15   0.22
     4   6     0.18   0.04   0.10     0.10  -0.16  -0.05    -0.06   0.10   0.03
     5   9    -0.04  -0.05  -0.05    -0.06  -0.18   0.16     0.00   0.15  -0.12
     6   9    -0.07   0.02   0.19    -0.00   0.05  -0.18    -0.01  -0.03   0.12
     7   6     0.18   0.03  -0.06     0.12   0.10   0.02     0.04   0.01   0.01
     8   9    -0.06  -0.01  -0.12     0.01  -0.07   0.02    -0.02  -0.01   0.04
     9   9    -0.07   0.10   0.01    -0.01   0.19  -0.07    -0.04   0.01  -0.01
    10   6     0.17  -0.08   0.02     0.13   0.04   0.18     0.17  -0.07  -0.10
    11   8    -0.10   0.16  -0.04    -0.09   0.00  -0.04     0.01   0.17  -0.08
    12   8    -0.05  -0.20   0.05    -0.04  -0.12  -0.06    -0.02  -0.14   0.08
    13   1     0.19  -0.34   0.62     0.41   0.16   0.56    -0.08  -0.57   0.31
    14   6     0.14  -0.07   0.07     0.02   0.12  -0.01    -0.17   0.12  -0.03
    15   9    -0.05  -0.08   0.15    -0.00   0.05  -0.17     0.07   0.06  -0.18
    16   9    -0.02   0.05  -0.03    -0.04   0.04   0.13     0.03   0.06   0.17
    17   6     0.11   0.03  -0.04    -0.04  -0.13   0.04    -0.16  -0.01   0.01
    18   9    -0.05   0.02  -0.10     0.03   0.01   0.18     0.05  -0.00   0.02
    19   9    -0.03  -0.02   0.03     0.02  -0.11  -0.16     0.05  -0.01  -0.02
    20   6     0.06   0.05  -0.00    -0.08  -0.01   0.01    -0.12  -0.08   0.03
    21   9    -0.03   0.07   0.06     0.06  -0.00  -0.01     0.05  -0.11  -0.10
    22   9    -0.03  -0.03  -0.04     0.05  -0.01   0.04     0.04   0.02   0.14
    23   9    -0.02  -0.05   0.00    -0.07   0.08  -0.05     0.00   0.10  -0.05
                     40                     41                     42
                      A                      A                      A
 Frequencies --    739.0170               774.6324               800.1541
 Red. masses --     11.5730                 8.9809                11.2189
 Frc consts  --      3.7240                 3.1751                 4.2320
 IR Inten    --     28.6895                 9.8602                25.8818
  Atom  AN      X      Y      Z        X      Y      Z        X      Y      Z
     1   6     0.21  -0.09  -0.03     0.16  -0.01  -0.01    -0.25  -0.02   0.01
     2   9    -0.05  -0.05  -0.18    -0.03  -0.02  -0.04     0.05   0.00  -0.01
     3   9    -0.04  -0.08   0.13    -0.03   0.01   0.01     0.04  -0.03   0.03
     4   6     0.10   0.06   0.04     0.16   0.02   0.03    -0.14   0.02  -0.02
     5   9    -0.01   0.09  -0.08    -0.02   0.03  -0.04     0.03   0.06  -0.04
     6   9    -0.04  -0.01   0.12    -0.03   0.01   0.10     0.03   0.00   0.09
     7   6    -0.04  -0.04  -0.02     0.08  -0.05  -0.06     0.02  -0.05  -0.06
     8   9    -0.01   0.03  -0.06    -0.00   0.04  -0.20     0.03   0.03  -0.20
     9   9     0.02  -0.11   0.04     0.01  -0.14   0.07     0.01  -0.13   0.06
    10   6    -0.21   0.00  -0.06    -0.04   0.14   0.28     0.28   0.22   0.48
    11   8     0.03  -0.11   0.09    -0.07  -0.17   0.04    -0.09  -0.08  -0.10
    12   8     0.03   0.15  -0.02    -0.04   0.13  -0.12    -0.09  -0.01  -0.12
    13   1    -0.09   0.35  -0.42     0.19   0.64  -0.11     0.25   0.28   0.29
    14   6     0.25   0.12   0.03     0.08  -0.00   0.01    -0.23   0.00  -0.03
    15   9    -0.04   0.05  -0.18    -0.02  -0.02   0.03     0.04   0.02  -0.03
    16   9    -0.07   0.12   0.20    -0.01   0.01  -0.00     0.04  -0.01   0.01
    17   6     0.19  -0.13   0.03    -0.04   0.04  -0.01    -0.09  -0.01   0.01
    18   9    -0.04  -0.00   0.19     0.01   0.02  -0.09     0.01  -0.02   0.06
    19   9    -0.04  -0.18  -0.18     0.02   0.05   0.06     0.00  -0.02  -0.03
    20   6     0.09   0.09  -0.03    -0.16  -0.10   0.04     0.11   0.06  -0.02
    21   9    -0.01   0.15   0.13     0.07  -0.18  -0.14    -0.05   0.14   0.10
    22   9    -0.01  -0.03  -0.15     0.05   0.00   0.23    -0.04   0.01  -0.19
    23   9    -0.08  -0.05   0.01    -0.09   0.17  -0.09     0.13  -0.15   0.09
                     43                     44                     45
                      A                      A                      A
 Frequencies --    939.2493              1082.7910              1146.5267
 Red. masses --     11.3619                12.3390                12.9880
 Frc consts  --      5.9056                 8.5235                10.0592
 IR Inten    --      6.6616                57.2179                27.8171
  Atom  AN      X      Y      Z        X      Y      Z        X      Y      Z
     1   6     0.08  -0.02  -0.01    -0.48  -0.05   0.06    -0.13   0.39   0.08
     2   9    -0.00   0.00   0.01     0.06  -0.00  -0.01     0.01  -0.09  -0.14
     3   9    -0.02   0.00  -0.01     0.06   0.03  -0.03     0.03  -0.13   0.09
     4   6     0.43  -0.00   0.07     0.03   0.14   0.08    -0.22   0.31   0.05
     5   9    -0.06  -0.01  -0.00    -0.02  -0.06   0.02     0.02  -0.15   0.06
     6   9    -0.06   0.00  -0.02     0.01  -0.02  -0.07     0.04  -0.04  -0.09
     7   6     0.39   0.03   0.00     0.49   0.07   0.00     0.23  -0.06  -0.04
     8   9    -0.06   0.00  -0.02    -0.05  -0.00  -0.03    -0.02   0.00   0.01
     9   9    -0.05  -0.01   0.00    -0.06  -0.04   0.01    -0.04   0.02  -0.00
    10   6    -0.22  -0.11  -0.15    -0.06  -0.11  -0.05     0.05  -0.12   0.01
    11   8    -0.04  -0.04   0.12    -0.05  -0.03   0.08    -0.05  -0.04   0.06
    12   8     0.01   0.10   0.01    -0.02   0.11  -0.02    -0.01   0.14  -0.05
    13   1     0.01   0.32  -0.16     0.01   0.19  -0.04    -0.05  -0.14   0.11
    14   6    -0.36   0.02  -0.05    -0.13  -0.15  -0.02     0.31  -0.02   0.07
    15   9     0.04   0.00   0.01     0.03   0.04  -0.04    -0.04   0.02  -0.03
    16   9     0.05  -0.01  -0.00     0.01   0.05   0.05    -0.05  -0.01  -0.01
    17   6    -0.43   0.00   0.01     0.44   0.06  -0.07    -0.09  -0.39   0.07
    18   9     0.06  -0.01   0.01    -0.05  -0.02   0.05     0.00   0.07  -0.13
    19   9     0.05   0.00  -0.00    -0.06  -0.01  -0.01     0.02   0.15   0.08
    20   6    -0.08  -0.01   0.01     0.25   0.12  -0.03    -0.24  -0.17   0.04
    21   9    -0.01   0.08   0.04    -0.02  -0.10  -0.04     0.04   0.11   0.05
    22   9     0.01   0.02  -0.11    -0.04  -0.03   0.10     0.04   0.03  -0.08
    23   9     0.18  -0.10   0.06    -0.15   0.06  -0.04     0.06  -0.02   0.02
                     46                     47                     48
                      A                      A                      A
 Frequencies --   1162.5248              1175.0904              1190.9313
 Red. masses --     11.1978                12.8703                 4.5548
 Frc consts  --      8.9163                10.4708                 3.8062
 IR Inten    --     33.9263               194.9267               115.1086
  Atom  AN      X      Y      Z        X      Y      Z        X      Y      Z
     1   6     0.06   0.16   0.14     0.02   0.28  -0.02     0.02  -0.01  -0.26
     2   9    -0.02  -0.05  -0.09     0.01  -0.06  -0.08     0.00   0.04   0.09
     3   9    -0.01  -0.05   0.02    -0.01  -0.12   0.08     0.00  -0.04   0.05
     4   6    -0.13  -0.14  -0.17    -0.05   0.11   0.42     0.01   0.05  -0.03
     5   9     0.02   0.05  -0.01     0.01  -0.02  -0.02     0.01  -0.01   0.01
     6   9     0.02   0.03   0.11     0.01  -0.06  -0.22    -0.01  -0.00   0.00
     7   6     0.14  -0.26  -0.31    -0.01   0.11   0.32    -0.04  -0.15   0.27
     8   9     0.00   0.01   0.17    -0.02  -0.01  -0.18     0.00   0.01  -0.11
     9   9    -0.02   0.15  -0.00     0.01  -0.06  -0.01    -0.00   0.08  -0.03
    10   6     0.09  -0.18   0.04    -0.05   0.10  -0.02     0.05  -0.10  -0.00
    11   8    -0.09  -0.06   0.09     0.05   0.03  -0.05    -0.04  -0.05   0.05
    12   8    -0.01   0.22  -0.09     0.00  -0.12   0.05     0.03   0.16  -0.09
    13   1    -0.12  -0.38   0.21     0.07   0.22  -0.10    -0.12  -0.73   0.40
    14   6    -0.05   0.37   0.05     0.01   0.38  -0.25    -0.02  -0.04  -0.01
    15   9     0.00  -0.09   0.09    -0.02  -0.15   0.19    -0.00   0.00   0.00
    16   9     0.02  -0.13  -0.12     0.01  -0.08  -0.05     0.01   0.02   0.02
    17   6    -0.02   0.24  -0.09    -0.04   0.22  -0.09     0.01   0.05   0.12
    18   9     0.01  -0.05   0.09     0.02  -0.05   0.10    -0.00   0.01  -0.04
    19   9     0.01  -0.10  -0.05     0.01  -0.08  -0.04    -0.00  -0.04  -0.03
    20   6     0.14  -0.03  -0.02     0.16  -0.10   0.06     0.01   0.04  -0.01
    21   9    -0.01  -0.01  -0.00    -0.01   0.00  -0.00    -0.01  -0.02  -0.01
    22   9    -0.02  -0.01   0.03    -0.01   0.00  -0.01     0.00  -0.00   0.00
    23   9    -0.05   0.03  -0.01    -0.06   0.04  -0.02    -0.00  -0.00   0.00
                     49                     50                     51
                      A                      A                      A
 Frequencies --   1196.5657              1207.2930              1218.5420
 Red. masses --      8.7952                 9.0300                11.4492
 Frc consts  --      7.4194                 7.7547                10.0162
 IR Inten    --    131.9458                18.1967                97.6122
  Atom  AN      X      Y      Z        X      Y      Z        X      Y      Z
     1   6    -0.04   0.10  -0.14    -0.13  -0.02  -0.33     0.00  -0.03   0.01
     2   9    -0.02  -0.01   0.01     0.02   0.06   0.12     0.00  -0.03  -0.03
     3   9     0.02  -0.06   0.05     0.00  -0.04   0.05    -0.01   0.05  -0.03
     4   6     0.00   0.12  -0.31    -0.07  -0.27   0.07    -0.04  -0.24   0.56
     5   9    -0.00  -0.09   0.05     0.01   0.10  -0.05     0.01   0.15  -0.09
     6   9    -0.02   0.01   0.10     0.00   0.03   0.04     0.02  -0.02  -0.19
     7   6     0.09   0.06   0.19     0.18   0.02  -0.19    -0.03   0.03  -0.08
     8   9    -0.01   0.00  -0.06    -0.02  -0.00   0.08    -0.01  -0.01  -0.01
     9   9    -0.01  -0.05  -0.01    -0.01  -0.00   0.01     0.01   0.01   0.01
    10   6    -0.09   0.09  -0.05    -0.03   0.02  -0.01     0.05  -0.04   0.03
    11   8     0.06   0.05  -0.05     0.00   0.02  -0.01    -0.03  -0.03   0.03
    12   8    -0.02  -0.14   0.08    -0.03  -0.06   0.05     0.02   0.07  -0.05
    13   1     0.09   0.53  -0.28     0.07   0.51  -0.27    -0.04  -0.32   0.19
    14   6    -0.03   0.16   0.46     0.07   0.09  -0.14     0.00  -0.01   0.40
    15   9     0.00   0.03  -0.09    -0.03  -0.04   0.06     0.00   0.07  -0.12
    16   9     0.02  -0.12  -0.15     0.01  -0.00   0.01     0.01  -0.07  -0.10
    17   6     0.01   0.09   0.09     0.07  -0.01   0.42     0.01   0.01   0.11
    18   9    -0.02   0.00  -0.03    -0.00   0.05  -0.16    -0.02   0.01  -0.04
    19   9     0.01  -0.06  -0.04    -0.00  -0.04  -0.05     0.01  -0.02  -0.02
    20   6     0.04  -0.06  -0.20     0.01  -0.25   0.08    -0.11   0.05  -0.38
    21   9    -0.00   0.03   0.03     0.00   0.06   0.02     0.01   0.03   0.04
    22   9    -0.01  -0.01   0.07     0.02   0.03  -0.07    -0.01  -0.02   0.13
    23   9    -0.01   0.01   0.01    -0.05   0.04  -0.02     0.06  -0.04   0.04
                     52                     53                     54
                      A                      A                      A
 Frequencies --   1219.9955              1228.6435              1241.5412
 Red. masses --     12.8673                 7.3028                10.3202
 Frc consts  --     11.2838                 6.4951                 9.3726
 IR Inten    --    222.2959               211.7461               152.7893
  Atom  AN      X      Y      Z        X      Y      Z        X      Y      Z
     1   6     0.11  -0.01   0.09     0.05   0.29  -0.22    -0.06  -0.06   0.47
     2   9     0.00  -0.01  -0.03    -0.00  -0.01   0.02     0.00  -0.05  -0.13
     3   9    -0.00  -0.00  -0.01    -0.00  -0.12   0.10     0.00   0.09  -0.10
     4   6    -0.06   0.40   0.01    -0.04  -0.08   0.05    -0.08  -0.13  -0.09
     5   9    -0.02  -0.18   0.07     0.02   0.02  -0.01     0.02   0.08  -0.02
     6   9     0.02  -0.03  -0.05     0.00   0.01   0.01     0.01   0.00   0.01
     7   6    -0.07   0.27  -0.26     0.05  -0.20  -0.08     0.12  -0.34   0.31
     8   9     0.01  -0.02   0.10    -0.01   0.01   0.04    -0.01   0.02  -0.11
     9   9    -0.00  -0.14   0.04     0.00   0.08  -0.01    -0.01   0.15  -0.05
    10   6     0.06  -0.06   0.04    -0.03   0.06   0.00    -0.06   0.07  -0.04
    11   8    -0.02  -0.01   0.01     0.03   0.03  -0.03     0.04   0.02  -0.03
    12   8     0.01   0.03  -0.03    -0.04  -0.08   0.06    -0.03  -0.06   0.05
    13   1    -0.02  -0.14   0.07     0.07   0.61  -0.32     0.05   0.42  -0.21
    14   6     0.06  -0.10  -0.12    -0.04  -0.10  -0.02     0.08  -0.02  -0.15
    15   9    -0.01   0.01   0.01    -0.01   0.00  -0.00    -0.00   0.01   0.01
    16   9     0.01   0.01   0.02    -0.00   0.03   0.02    -0.01   0.00   0.02
    17   6    -0.12   0.38   0.46     0.02  -0.04  -0.05     0.02   0.07   0.32
    18   9     0.01  -0.00  -0.09    -0.01  -0.01   0.02    -0.00   0.02  -0.09
    19   9    -0.00  -0.20  -0.14    -0.02  -0.00   0.01    -0.01  -0.06  -0.06
    20   6    -0.06   0.24  -0.08    -0.08   0.46   0.03    -0.13   0.07  -0.08
    21   9    -0.02  -0.10  -0.03    -0.01  -0.15  -0.06     0.00  -0.02   0.00
    22   9     0.01  -0.01   0.03    -0.00  -0.03   0.03     0.01  -0.00   0.01
    23   9     0.07  -0.05   0.03     0.07  -0.07   0.02     0.05  -0.03   0.02
                     55                     56                     57
                      A                      A                      A
 Frequencies --   1253.2693              1259.5193              1282.0874
 Red. masses --     12.4187                12.6512                 6.9556
 Frc consts  --     11.4925                11.8248                 6.7363
 IR Inten    --     93.0267               589.6000                66.6722
  Atom  AN      X      Y      Z        X      Y      Z        X      Y      Z
     1   6    -0.06  -0.31  -0.06     0.00   0.12   0.16    -0.15   0.13   0.08
     2   9    -0.00   0.05   0.07    -0.01  -0.06  -0.09     0.01  -0.02  -0.04
     3   9     0.00   0.08  -0.05     0.00   0.01  -0.02     0.00  -0.04   0.02
     4   6    -0.32  -0.13  -0.02     0.18  -0.01   0.13     0.22  -0.16  -0.13
     5   9     0.02   0.05  -0.02    -0.01   0.01  -0.01    -0.02   0.03  -0.00
     6   9     0.02   0.01   0.01    -0.01  -0.01  -0.05    -0.02   0.02   0.06
     7   6     0.29   0.24   0.14    -0.16  -0.04  -0.01    -0.10   0.25   0.03
     8   9    -0.03  -0.01  -0.07     0.01   0.00  -0.00     0.01  -0.01  -0.02
     9   9    -0.02  -0.09   0.01     0.02   0.02  -0.00     0.01  -0.09   0.01
    10   6    -0.02  -0.06  -0.03     0.00   0.03   0.01    -0.04   0.02  -0.01
    11   8    -0.02  -0.01   0.03     0.00  -0.01  -0.00    -0.01  -0.03   0.02
    12   8     0.01   0.04  -0.02     0.01  -0.00  -0.01     0.06   0.02  -0.04
    13   1    -0.01  -0.12   0.10    -0.02  -0.19   0.09    -0.05  -0.62   0.32
    14   6     0.34   0.19   0.16    -0.19  -0.01   0.36    -0.07   0.26  -0.11
    15   9    -0.02  -0.02   0.00     0.02   0.07  -0.12    -0.01  -0.06   0.07
    16   9    -0.02  -0.06  -0.06     0.02  -0.07  -0.09     0.00  -0.05  -0.03
    17   6    -0.12   0.11  -0.17     0.06  -0.06   0.21     0.22  -0.19   0.11
    18   9     0.02  -0.02   0.06    -0.00   0.06  -0.14    -0.02   0.02  -0.05
    19   9     0.01  -0.05  -0.01    -0.01  -0.04  -0.03    -0.02   0.03   0.01
    20   6    -0.27   0.26   0.35     0.18   0.06   0.64    -0.18   0.19  -0.08
    21   9     0.01  -0.10  -0.07    -0.02  -0.11  -0.09     0.01  -0.04  -0.01
    22   9     0.03   0.00  -0.13     0.02   0.03  -0.22     0.01  -0.02   0.02
    23   9     0.10  -0.06   0.01    -0.10   0.05  -0.07     0.05  -0.05   0.02
                     58                     59                     60
                      A                      A                      A
 Frequencies --   1311.8706              1331.1313              1381.0208
 Red. masses --     11.5170                 8.7503                 7.5209
 Frc consts  --     11.6781                 9.1351                 8.4512
 IR Inten    --     31.4239                33.7183                73.0464
  Atom  AN      X      Y      Z        X      Y      Z        X      Y      Z
     1   6     0.52   0.07   0.08     0.17  -0.21  -0.06     0.02   0.25   0.01
     2   9    -0.04  -0.01  -0.03    -0.01   0.03   0.04    -0.00  -0.03  -0.04
     3   9    -0.04  -0.01  -0.00    -0.01   0.04  -0.02     0.00  -0.05   0.03
     4   6    -0.47  -0.12  -0.07    -0.06   0.27   0.09    -0.03  -0.14  -0.04
     5   9     0.04   0.03  -0.01    -0.00  -0.07   0.02     0.01   0.03  -0.01
     6   9     0.03   0.01   0.02     0.01  -0.02  -0.05     0.00   0.01   0.03
     7   6     0.23   0.26   0.11    -0.03  -0.16  -0.04     0.07   0.06  -0.01
     8   9    -0.02  -0.01  -0.05     0.00   0.01   0.02    -0.00  -0.00   0.00
     9   9    -0.01  -0.09   0.01    -0.01   0.05  -0.01     0.00  -0.02   0.00
    10   6    -0.03  -0.02  -0.02     0.08  -0.07   0.02    -0.13   0.16  -0.00
    11   8    -0.01  -0.01   0.02     0.00   0.02  -0.02     0.01  -0.03   0.01
    12   8     0.02   0.02  -0.02    -0.05   0.01   0.03     0.06  -0.05  -0.02
    13   1    -0.01  -0.22   0.13     0.03   0.50  -0.26    -0.03  -0.59   0.29
    14   6    -0.36  -0.07  -0.05    -0.30   0.21   0.01    -0.07  -0.28   0.02
    15   9     0.03   0.02  -0.01     0.02  -0.03   0.03     0.01   0.04  -0.04
    16   9     0.02   0.02   0.02     0.03  -0.04  -0.03     0.00   0.05   0.03
    17   6     0.07  -0.22   0.10     0.40  -0.02  -0.03     0.18   0.34  -0.10
    18   9    -0.01   0.03  -0.06    -0.03  -0.00   0.00    -0.01  -0.04   0.06
    19   9    -0.01   0.06   0.02    -0.03   0.00   0.00    -0.02  -0.07  -0.03
    20   6     0.19   0.04  -0.04    -0.38  -0.08   0.06    -0.29  -0.22   0.08
    21   9    -0.01  -0.02  -0.00     0.03   0.04   0.01     0.02   0.06   0.02
    22   9    -0.02  -0.01   0.03     0.04   0.01  -0.05     0.03   0.02  -0.06
    23   9    -0.06   0.02  -0.01     0.07  -0.03   0.02     0.06  -0.01   0.01
                     61                     62                     63
                      A                      A                      A
 Frequencies --   1426.5604              1896.4713              3833.6585
 Red. masses --      4.2000                11.5089                 1.0644
 Frc consts  --      5.0360                24.3881                 9.2173
 IR Inten    --     41.2066               337.5674               120.7070
  Atom  AN      X      Y      Z        X      Y      Z        X      Y      Z
     1   6     0.01  -0.11  -0.03    -0.00  -0.01  -0.00    -0.00   0.00   0.00
     2   9     0.00   0.01   0.02     0.00   0.00   0.00     0.00  -0.00  -0.00
     3   9    -0.00   0.02  -0.01    -0.00   0.00  -0.00     0.00  -0.00   0.00
     4   6    -0.04   0.13   0.04     0.01  -0.00   0.01    -0.00  -0.00   0.00
     5   9     0.00  -0.03   0.01    -0.00   0.00  -0.00     0.00  -0.00  -0.00
     6   9     0.01  -0.01  -0.02     0.00   0.00  -0.00     0.00  -0.00  -0.00
     7   6     0.10  -0.15  -0.11     0.04  -0.02  -0.02     0.00  -0.00  -0.00
     8   9    -0.01   0.01   0.04     0.00  -0.00  -0.00     0.00  -0.00  -0.00
     9   9    -0.00   0.03  -0.00    -0.01   0.02   0.00     0.00  -0.00  -0.00
    10   6    -0.22   0.33   0.02    -0.46  -0.39   0.49    -0.00   0.00   0.00
    11   8     0.02  -0.05   0.01     0.30   0.25  -0.32    -0.00  -0.00   0.00
    12   8     0.09  -0.10  -0.02     0.03   0.06  -0.04    -0.05   0.02   0.03
    13   1    -0.03  -0.77   0.37    -0.04  -0.33   0.17     0.82  -0.37  -0.43
    14   6     0.00   0.09  -0.00     0.00   0.00   0.00    -0.00  -0.00   0.00
    15   9    -0.00  -0.01   0.01    -0.00   0.00  -0.00     0.00   0.00  -0.00
    16   9     0.00  -0.01  -0.01    -0.00  -0.00  -0.00     0.00   0.00   0.00
    17   6    -0.02  -0.08   0.02     0.00  -0.00   0.00    -0.00   0.00  -0.00
    18   9     0.00   0.01  -0.01    -0.00   0.00  -0.00     0.00  -0.00   0.00
    19   9     0.00   0.01   0.01    -0.00   0.00   0.00     0.00  -0.00  -0.00
    20   6     0.04   0.04  -0.01     0.00   0.00   0.00    -0.00  -0.00   0.00
    21   9    -0.00  -0.01  -0.00    -0.00  -0.00  -0.00     0.00   0.00   0.00
    22   9    -0.00  -0.00   0.01    -0.00  -0.00   0.00     0.00   0.00  -0.00
    23   9    -0.01   0.00  -0.00    -0.00   0.00  -0.00     0.00  -0.00   0.00

 -------------------
 - Thermochemistry -
 -------------------
 Temperature   298.150 Kelvin.  Pressure   1.00000 Atm.
 Atom     1 has atomic number  6 and mass  12.00000
 Atom     2 has atomic number  9 and mass  18.99840
 Atom     3 has atomic number  9 and mass  18.99840
 Atom     4 has atomic number  6 and mass  12.00000
 Atom     5 has atomic number  9 and mass  18.99840
 Atom     6 has atomic number  9 and mass  18.99840
 Atom     7 has atomic number  6 and mass  12.00000
 Atom     8 has atomic number  9 and mass  18.99840
 Atom     9 has atomic number  9 and mass  18.99840
 Atom    10 has atomic number  6 and mass  12.00000
 Atom    11 has atomic number  8 and mass  15.99491
 Atom    12 has atomic number  8 and mass  15.99491
 Atom    13 has atomic number  1 and mass   1.00783
 Atom    14 has atomic number  6 and mass  12.00000
 Atom    15 has atomic number  9 and mass  18.99840
 Atom    16 has atomic number  9 and mass  18.99840
 Atom    17 has atomic number  6 and mass  12.00000
 Atom    18 has atomic number  9 and mass  18.99840
 Atom    19 has atomic number  9 and mass  18.99840
 Atom    20 has atomic number  6 and mass  12.00000
 Atom    21 has atomic number  9 and mass  18.99840
 Atom    22 has atomic number  9 and mass  18.99840
 Atom    23 has atomic number  9 and mass  18.99840
 Molecular mass:   363.97690 amu.
 Principal axes and moments of inertia in atomic units:
                           1         2         3
     Eigenvalues --  2432.55206********************
           X            0.99998  -0.00564  -0.00215
           Y            0.00564   0.99998   0.00230
           Z            0.00214  -0.00231   1.00000
 This molecule is an asymmetric top.
 Rotational symmetry number  1.
 Warning -- assumption of classical behavior for rotation
           may cause significant error
 Rotational temperatures (Kelvin)      0.03561     0.00764     0.00747
 Rotational constants (GHZ):           0.74191     0.15927     0.15570
 Zero-point vibrational energy     266230.6 (Joules/Mol)
                                   63.63065 (Kcal/Mol)
 Warning -- explicit consideration of  35 degrees of freedom as
           vibrations may cause significant error
 Vibrational temperatures:     42.39    48.35    64.68    68.74    84.64
          (Kelvin)             95.39   116.23   189.53   207.42   269.63
                              293.72   296.13   322.97   342.26   356.43
                              369.00   376.13   421.13   447.45   457.67
                              495.39   520.47   530.82   540.51   544.46
                              553.64   625.88   698.91   748.67   770.18
                              800.84   821.82   836.85   865.45   880.25
                              921.02   954.92   992.21  1035.79  1063.28
                             1114.52  1151.24  1351.37  1557.89  1649.60
                             1672.61  1690.69  1713.48  1721.59  1737.03
                             1753.21  1755.30  1767.74  1786.30  1803.18
                             1812.17  1844.64  1887.49  1915.20  1986.98
                             2052.50  2728.60  5515.78
 
 Zero-point correction=                           0.101402 (Hartree/Particle)
 Thermal correction to Energy=                    0.121653
 Thermal correction to Enthalpy=                  0.122597
 Thermal correction to Gibbs Free Energy=         0.050739
 Sum of electronic and zero-point Energies=          -1715.712733
 Sum of electronic and thermal Energies=             -1715.692482
 Sum of electronic and thermal Enthalpies=           -1715.691537
 Sum of electronic and thermal Free Energies=        -1715.763395
 
                     E (Thermal)             CV                S
                      KCal/Mol        Cal/Mol-Kelvin    Cal/Mol-Kelvin
 Total                   76.338             71.965            151.237
 Electronic               0.000              0.000              0.000
 Translational            0.889              2.981             43.569
 Rotational               0.889              2.981             34.123
 Vibrational             74.561             66.003             73.545
 Vibration     1          0.593              1.984              5.865
 Vibration     2          0.594              1.983              5.605
 Vibration     3          0.595              1.979              5.028
 Vibration     4          0.595              1.978              4.907
 Vibration     5          0.596              1.974              4.496
 Vibration     6          0.598              1.970              4.260
 Vibration     7          0.600              1.962              3.872
 Vibration     8          0.612              1.922              2.921
 Vibration     9          0.616              1.909              2.748
 Vibration    10          0.632              1.857              2.253
 Vibration    11          0.640              1.834              2.095
 Vibration    12          0.640              1.832              2.080
 Vibration    13          0.649              1.804              1.923
 Vibration    14          0.656              1.783              1.819
 Vibration    15          0.661              1.767              1.747
 Vibration    16          0.666              1.752              1.686
 Vibration    17          0.669              1.743              1.652
 Vibration    18          0.688              1.687              1.458
 Vibration    19          0.700              1.653              1.357
 Vibration    20          0.704              1.639              1.320
 Vibration    21          0.723              1.587              1.192
 Vibration    22          0.736              1.551              1.115
 Vibration    23          0.741              1.536              1.084
 Vibration    24          0.747              1.522              1.057
 Vibration    25          0.749              1.516              1.045
 Vibration    26          0.754              1.503              1.020
 Vibration    27          0.796              1.394              0.842
 Vibration    28          0.842              1.282              0.695
 Vibration    29          0.875              1.205              0.609
 Vibration    30          0.890              1.172              0.575
 Vibration    31          0.912              1.125              0.531
 Vibration    32          0.927              1.094              0.502
 Vibration    33          0.938              1.071              0.482
 Vibration    34          0.960              1.029              0.447
 Vibration    35          0.971              1.007              0.430
                       Q            Log10(Q)             Ln(Q)
 Total Bot       0.458757D-23        -23.338418        -53.738693
 Total V=0       0.200991D+24         23.303177         53.657547
 Vib (Bot)       0.262683D-38        -38.580568        -88.835041
 Vib (Bot)    1  0.702809D+01          0.846838          1.949916
 Vib (Bot)    2  0.616031D+01          0.789602          1.818127
 Vib (Bot)    3  0.460073D+01          0.662827          1.526216
 Vib (Bot)    4  0.432770D+01          0.636258          1.465037
 Vib (Bot)    5  0.351072D+01          0.545396          1.255822
 Vib (Bot)    6  0.311235D+01          0.493088          1.135378
 Vib (Bot)    7  0.254902D+01          0.406374          0.935710
 Vib (Bot)    8  0.154692D+01          0.189467          0.436265
 Vib (Bot)    9  0.140882D+01          0.148854          0.342750
 Vib (Bot)   10  0.106896D+01          0.028961          0.066685
 Vib (Bot)   11  0.975176D+00         -0.010917         -0.025137
 Vib (Bot)   12  0.966587D+00         -0.014759         -0.033984
 Vib (Bot)   13  0.879511D+00         -0.055759         -0.128390
 Vib (Bot)   14  0.825062D+00         -0.083514         -0.192297
 Vib (Bot)   15  0.788673D+00         -0.103103         -0.237404
 Vib (Bot)   16  0.758636D+00         -0.119967         -0.276233
 Vib (Bot)   17  0.742447D+00         -0.129335         -0.297804
 Vib (Bot)   18  0.652382D+00         -0.185498         -0.427125
 Vib (Bot)   19  0.607676D+00         -0.216328         -0.498113
 Vib (Bot)   20  0.591635D+00         -0.227946         -0.524865
 Vib (Bot)   21  0.537810D+00         -0.269371         -0.620249
 Vib (Bot)   22  0.506091D+00         -0.295772         -0.681039
 Vib (Bot)   23  0.493828D+00         -0.306424         -0.705568
 Vib (Bot)   24  0.482733D+00         -0.316293         -0.728292
 Vib (Bot)   25  0.478323D+00         -0.320278         -0.737468
 Vib (Bot)   26  0.468282D+00         -0.329493         -0.758685
 Vib (Bot)   27  0.398970D+00         -0.399060         -0.918869
 Vib (Bot)   28  0.342586D+00         -0.465230         -1.071232
 Vib (Bot)   29  0.310098D+00         -0.508501         -1.170866
 Vib (Bot)   30  0.297289D+00         -0.526822         -1.213052
 Vib (Bot)   31  0.280148D+00         -0.552613         -1.272438
 Vib (Bot)   32  0.269129D+00         -0.570040         -1.312565
 Vib (Bot)   33  0.261558D+00         -0.582431         -1.341097
 Vib (Bot)   34  0.247852D+00         -0.605808         -1.394925
 Vib (Bot)   35  0.241096D+00         -0.617810         -1.422559
 Vib (V=0)       0.115087D+09          8.061026         18.561199
 Vib (V=0)    1  0.754586D+01          0.877709          2.020999
 Vib (V=0)    2  0.668057D+01          0.824813          1.899203
 Vib (V=0)    3  0.512782D+01          0.709933          1.634681
 Vib (V=0)    4  0.485649D+01          0.686323          1.580316
 Vib (V=0)    5  0.404615D+01          0.607042          1.397765
 Vib (V=0)    6  0.365226D+01          0.562561          1.295345
 Vib (V=0)    7  0.309760D+01          0.491025          1.130627
 Vib (V=0)    8  0.212572D+01          0.327506          0.754109
 Vib (V=0)    9  0.199491D+01          0.299924          0.690600
 Vib (V=0)   10  0.168012D+01          0.225339          0.518863
 Vib (V=0)   11  0.159589D+01          0.203002          0.467430
 Vib (V=0)   12  0.158825D+01          0.200919          0.462633
 Vib (V=0)   13  0.151170D+01          0.179466          0.413235
 Vib (V=0)   14  0.146474D+01          0.165761          0.381679
 Vib (V=0)   15  0.143381D+01          0.156492          0.360337
 Vib (V=0)   16  0.140859D+01          0.148783          0.342586
 Vib (V=0)   17  0.139511D+01          0.144609          0.332976
 Vib (V=0)   18  0.132195D+01          0.121215          0.279108
 Vib (V=0)   19  0.128694D+01          0.109557          0.252265
 Vib (V=0)   20  0.127462D+01          0.105380          0.242646
 Vib (V=0)   21  0.123433D+01          0.091431          0.210528
 Vib (V=0)   22  0.121143D+01          0.083297          0.191799
 Vib (V=0)   23  0.120276D+01          0.080178          0.184616
 Vib (V=0)   24  0.119500D+01          0.077369          0.178150
 Vib (V=0)   25  0.119195D+01          0.076258          0.175590
 Vib (V=0)   26  0.118505D+01          0.073735          0.169781
 Vib (V=0)   27  0.113967D+01          0.056779          0.130738
 Vib (V=0)   28  0.110611D+01          0.043797          0.100846
 Vib (V=0)   29  0.108835D+01          0.036770          0.084667
 Vib (V=0)   30  0.108170D+01          0.034109          0.078538
 Vib (V=0)   31  0.107313D+01          0.030654          0.070584
 Vib (V=0)   32  0.106783D+01          0.028502          0.065628
 Vib (V=0)   33  0.106428D+01          0.027056          0.062299
 Vib (V=0)   34  0.105806D+01          0.024510          0.056437
 Vib (V=0)   35  0.105509D+01          0.023290          0.053628
 Electronic      0.100000D+01          0.000000          0.000000
 Translational   0.272938D+09          8.436065         19.424757
 Rotational      0.639861D+07          6.806086         15.671592
 ***** Axes restored to original set *****
 -------------------------------------------------------------------
 Center     Atomic                   Forces (Hartrees/Bohr)
 Number     Number              X              Y              Z
 -------------------------------------------------------------------
      1        6           0.000005298    0.000001702    0.000007236
      2        9           0.000000964    0.000003052   -0.000012516
      3        9           0.000005963    0.000004171   -0.000003781
      4        6           0.000002441    0.000002900    0.000002229
      5        9          -0.000003510   -0.000000495    0.000009384
      6        9           0.000001430    0.000001157   -0.000000689
      7        6          -0.000006911    0.000002662   -0.000011721
      8        9          -0.000001277    0.000003494    0.000005305
      9        9          -0.000005139    0.000000813   -0.000007080
     10        6           0.000006545    0.000001622    0.000003277
     11        8          -0.000002824   -0.000002190   -0.000001690
     12        8           0.000000079   -0.000001007   -0.000000266
     13        1          -0.000000641    0.000002295    0.000005576
     14        6          -0.000011760   -0.000000333    0.000005224
     15        9          -0.000001707    0.000002413    0.000002181
     16        9          -0.000005701   -0.000003286    0.000000001
     17        6           0.000004601   -0.000004925   -0.000002342
     18        9          -0.000002283   -0.000007828   -0.000006914
     19        9           0.000005259    0.000000248    0.000001066
     20        6          -0.000016184   -0.000009448    0.000001376
     21        9           0.000005510    0.000002758    0.000000762
     22        9           0.000008416    0.000002053    0.000006024
     23        9           0.000011429   -0.000001827   -0.000002642
 -------------------------------------------------------------------
 Cartesian Forces:  Max     0.000016184 RMS     0.000005279

 GradGradGradGradGradGradGradGradGradGradGradGradGradGradGradGradGradGrad
 Berny optimization.
 Search for a local minimum.
 Step number   1 out of a maximum of    2
 All quantities printed in internal units (Hartrees-Bohrs-Radians)
 Second derivative matrix not updated -- analytic derivatives used.
 ITU=  0
     Eigenvalues ---    0.00048   0.00065   0.00111   0.00136   0.00230
     Eigenvalues ---    0.00297   0.00376   0.00834   0.01311   0.02043
     Eigenvalues ---    0.02370   0.02751   0.02964   0.03410   0.03866
     Eigenvalues ---    0.04141   0.04572   0.04780   0.05941   0.06135
     Eigenvalues ---    0.06802   0.07067   0.08108   0.08768   0.09264
     Eigenvalues ---    0.09446   0.09945   0.10452   0.12190   0.15288
     Eigenvalues ---    0.17735   0.18971   0.20416   0.21634   0.22697
     Eigenvalues ---    0.24245   0.25984   0.27693   0.28388   0.33298
     Eigenvalues ---    0.34762   0.37641   0.41526   0.47811   0.58681
     Eigenvalues ---    0.68160   0.72503   0.73287   0.74282   0.75086
     Eigenvalues ---    0.75417   0.76038   0.78105   0.78253   0.79036
     Eigenvalues ---    0.80240   0.81324   0.83471   0.83803   0.88698
     Eigenvalues ---    0.95167   1.15005   1.82066
 Angle between quadratic step and forces=  83.73 degrees.
 Linear search not attempted -- first point.
 B after Tr=    -0.000013    0.000004   -0.000058
         Rot=    1.000000   -0.000019   -0.000010    0.000000 Ang=  -0.00 deg.
 Variable       Old X    -DE/DX   Delta X   Delta X   Delta X     New X
                                 (Linear)    (Quad)   (Total)
    X1        0.44858   0.00001   0.00000  -0.00000  -0.00001   0.44857
    Y1        0.93788   0.00000   0.00000   0.00001   0.00000   0.93788
    Z1        0.18142   0.00001   0.00000  -0.00059  -0.00062   0.18080
    X2        0.53077   0.00000   0.00000  -0.00010  -0.00006   0.53071
    Y2        1.96495   0.00000   0.00000   0.00022   0.00013   1.96508
    Z2        2.49258  -0.00001   0.00000  -0.00070  -0.00070   2.49188
    X3        0.34196   0.00001   0.00000   0.00013   0.00009   0.34205
    Y3        2.78288   0.00000   0.00000  -0.00011  -0.00005   2.78283
    Z3       -1.54543  -0.00000   0.00000  -0.00074  -0.00070  -1.54613
    X4        2.91659   0.00000   0.00000   0.00002  -0.00000   2.91659
    Y4       -0.61776   0.00000   0.00000  -0.00002  -0.00001  -0.61778
    Z4       -0.25586   0.00000   0.00000  -0.00033  -0.00047  -0.25633
    X5        2.70876  -0.00000   0.00000  -0.00002  -0.00002   2.70875
    Y5       -2.84959  -0.00000   0.00000   0.00006   0.00003  -2.84956
    Z5        0.91806   0.00001   0.00000  -0.00015  -0.00037   0.91769
    X6        3.18966   0.00000   0.00000   0.00021   0.00015   3.18981
    Y6       -1.02357   0.00000   0.00000  -0.00019  -0.00008  -1.02366
    Z6       -2.74793  -0.00000   0.00000  -0.00028  -0.00044  -2.74837
    X7        5.35521  -0.00001   0.00000  -0.00015  -0.00015   5.35506
    Y7        0.72950   0.00000   0.00000   0.00015   0.00012   0.72962
    Z7        0.69907  -0.00001   0.00000  -0.00028  -0.00042   0.69865
    X8        5.50287  -0.00000   0.00000  -0.00065  -0.00060   5.50227
    Y8        0.50929   0.00000   0.00000   0.00090   0.00078   0.51007
    Z8        3.22408   0.00001   0.00000  -0.00017  -0.00031   3.22377
    X9        5.23611  -0.00001   0.00000  -0.00003  -0.00003   5.23608
    Y9        3.17661   0.00000   0.00000  -0.00004  -0.00004   3.17657
    Z9        0.09502  -0.00001   0.00000  -0.00107  -0.00112   0.09390
   X10        7.76878   0.00001   0.00000   0.00013   0.00011   7.76889
   Y10       -0.40422   0.00000   0.00000  -0.00025  -0.00023  -0.40445
   Z10       -0.51804   0.00000   0.00000   0.00062   0.00040  -0.51764
   X11        9.07608  -0.00000   0.00000   0.00031   0.00026   9.07634
   Y11        0.74336  -0.00000   0.00000  -0.00079  -0.00072   0.74264
   Z11       -1.94088  -0.00000   0.00000   0.00035   0.00014  -1.94074
   X12        8.12790   0.00000   0.00000   0.00012   0.00012   8.12801
   Y12       -2.76126  -0.00000   0.00000   0.00012   0.00010  -2.76115
   Z12        0.26766  -0.00000   0.00000   0.00171   0.00139   0.26905
   X13        9.63447  -0.00000   0.00000   0.00045   0.00043   9.63489
   Y13       -3.40065   0.00000   0.00000  -0.00006  -0.00004  -3.40069
   Z13       -0.53462   0.00001   0.00000   0.00248   0.00210  -0.53251
   X14       -1.99987  -0.00001   0.00000  -0.00004  -0.00005  -1.99993
   Y14       -0.70240  -0.00000   0.00000   0.00002   0.00003  -0.70238
   Z14       -0.01868   0.00001   0.00000  -0.00053  -0.00058  -0.01926
   X15       -2.24682  -0.00000   0.00000   0.00034   0.00037  -2.24645
   Y15       -2.04260   0.00000   0.00000  -0.00045  -0.00052  -2.04312
   Z15        2.11386   0.00000   0.00000  -0.00078  -0.00087   2.11298
   X16       -1.77325  -0.00001   0.00000  -0.00041  -0.00046  -1.77371
   Y16       -2.29866  -0.00000   0.00000   0.00046   0.00054  -2.29812
   Z16       -1.97084   0.00000   0.00000  -0.00094  -0.00105  -1.97189
   X17       -4.43762   0.00000   0.00000  -0.00008  -0.00010  -4.43772
   Y17        0.90672  -0.00000   0.00000   0.00007   0.00009   0.90681
   Z17       -0.42707  -0.00000   0.00000   0.00031   0.00038  -0.42670
   X18       -4.51721  -0.00000   0.00000  -0.00057  -0.00064  -4.51785
   Y18        1.66793  -0.00001   0.00000   0.00070   0.00081   1.66874
   Z18       -2.83472  -0.00001   0.00000   0.00052   0.00061  -2.83411
   X19       -4.37995   0.00001   0.00000   0.00021   0.00022  -4.37973
   Y19        2.93635   0.00000   0.00000  -0.00035  -0.00039   2.93596
   Z19        1.08645   0.00000   0.00000   0.00088   0.00102   1.08746
   X20       -6.93580  -0.00002   0.00000   0.00005   0.00004  -6.93577
   Y20       -0.54548  -0.00001   0.00000  -0.00012  -0.00012  -0.54560
   Z20        0.13388   0.00000   0.00000   0.00035   0.00041   0.13429
   X21       -6.96169   0.00001   0.00000  -0.00036  -0.00039  -6.96208
   Y21       -2.74841   0.00000   0.00000   0.00054   0.00059  -2.74782
   Z21       -1.06698   0.00000   0.00000  -0.00083  -0.00086  -1.06784
   X22       -7.20561   0.00001   0.00000   0.00080   0.00084  -7.20477
   Y22       -0.94426   0.00000   0.00000  -0.00139  -0.00148  -0.94574
   Z22        2.59003   0.00001   0.00000   0.00023   0.00028   2.59031
   X23       -8.86577   0.00001   0.00000  -0.00007  -0.00009  -8.86587
   Y23        0.83780  -0.00000   0.00000   0.00042   0.00046   0.83826
   Z23       -0.67060  -0.00000   0.00000   0.00163   0.00178  -0.66883
         Item               Value     Threshold  Converged?
 Maximum Force            0.000016     0.000450     YES
 RMS     Force            0.000005     0.000300     YES
 Maximum Displacement     0.002105     0.001800     NO 
 RMS     Displacement     0.000610     0.001200     YES
 Predicted change in Energy=-5.401532D-09
 GradGradGradGradGradGradGradGradGradGradGradGradGradGradGradGradGradGrad


 ----------------------------------------------------------------------

 Electric dipole moment (input orientation):
 (Debye = 10**-18 statcoulomb cm , SI units = C m)
                  (au)            (Debye)         (10**-30 SI)
   Tot        0.928093D+00      0.235898D+01      0.786870D+01
   x          0.486394D+00      0.123629D+01      0.412382D+01
   y         -0.786575D+00     -0.199927D+01     -0.666886D+01
   z          0.779587D-01      0.198151D+00      0.660961D+00

 Dipole polarizability, Alpha (input orientation).
 (esu units = cm**3 , SI units = C**2 m**2 J**-1)
 Alpha(0;0):
               (au)            (10**-24 esu)      (10**-40 SI)
   iso        0.977188D+02      0.144804D+02      0.161117D+02
   aniso      0.251091D+02      0.372078D+01      0.413993D+01
   xx         0.113214D+03      0.167766D+02      0.186665D+02
   yx        -0.168706D+01     -0.249997D+00     -0.278159D+00
   yy         0.912509D+02      0.135220D+02      0.150452D+02
   zx        -0.416554D+01     -0.617269D+00     -0.686805D+00
   zy        -0.287004D+01     -0.425296D+00     -0.473206D+00
   zz         0.886913D+02      0.131427D+02      0.146232D+02

 ----------------------------------------------------------------------

 Dipole orientation:
     6          0.62413387          0.65397977         -0.54453792
     9         -0.10489369          2.99290829         -1.17779099
     9          2.20552040         -0.23078461         -2.30913844
     6          2.05856115          0.76980337          2.03059631
     9          0.37368163          0.92660278          3.91179678
     9          3.40220759         -1.36728960          2.30830743
     6          3.93087567          3.03287023          2.24700948
     9          2.62758092          5.15907517          2.72312785
     9          5.16122324          3.29772388          0.05988315
     6          5.90622174          2.60781732          4.37052247
     8          8.09819188          2.32476080          3.96354207
     8          4.79679180          2.62565406          6.62235617
     1          6.08010067          2.34731090          7.88642442
     6         -1.77117127         -1.07224925         -0.45436128
     9         -3.62230912          0.18177770          0.73119386
     9         -1.23294255         -3.17241496          0.85327902
     6         -2.71788834         -1.87434920         -3.12999274
     9         -1.20361317         -3.69067432         -4.01908249
     9         -2.63639889          0.11675567         -4.69279054
     6         -5.47211119         -2.91249838         -3.16135897
     9         -5.76473888         -4.68406100         -1.40877380
     9         -7.12416908         -1.07595725         -2.75847558
     9         -5.92467004         -3.91842504         -5.41274483

 Electric dipole moment (dipole orientation):
 (Debye = 10**-18 statcoulomb cm , SI units = C m)
                  (au)            (Debye)         (10**-30 SI)
   Tot        0.928093D+00      0.235898D+01      0.786870D+01
   x          0.000000D+00      0.000000D+00      0.000000D+00
   y          0.000000D+00      0.000000D+00      0.000000D+00
   z          0.928093D+00      0.235898D+01      0.786870D+01

 Dipole polarizability, Alpha (dipole orientation).
 (esu units = cm**3 , SI units = C**2 m**2 J**-1)
 Alpha(0;0):
               (au)            (10**-24 esu)      (10**-40 SI)
   iso        0.977188D+02      0.144804D+02      0.161117D+02
   aniso      0.251091D+02      0.372078D+01      0.413993D+01
   xx         0.106252D+03      0.157449D+02      0.175185D+02
   yx         0.491735D+01      0.728676D+00      0.810762D+00
   yy         0.880990D+02      0.130549D+02      0.145256D+02
   zx         0.892130D+01      0.132200D+01      0.147092D+01
   zy         0.480839D+01      0.712529D+00      0.792796D+00
   zz         0.988059D+02      0.146415D+02      0.162909D+02

 ----------------------------------------------------------------------
 1\1\GINC-CCLEARZN\Freq\RwB97XD\6-311+G(2d,2p)\C7H1F13O2\RAPPE\06-Feb-2
 021\0\\# freq wb97xd/6-311+g(2d,2p) geom=connectivity\\Title Card Requ
 ired\\0,1\C,0.237378,0.496304,0.096005\F,0.280869,1.039806,1.319017\F,
 0.180958,1.472637,-0.817804\C,1.543393,-0.326906,-0.135395\F,1.433416,
 -1.507937,0.485816\F,1.687897,-0.541651,-1.454143\C,2.833855,0.386035,
 0.36993\F,2.911993,0.269503,1.706112\F,2.770832,1.680992,0.050282\C,4.
 111059,-0.213905,-0.274134\O,4.802856,0.393369,-1.027072\O,4.301097,-1
 .461195,0.141639\H,5.09834,-1.799547,-0.282907\C,-1.058287,-0.371696,-
 0.009886\F,-1.188965,-1.0809,1.118604\F,-0.938363,-1.216396,-1.042925\
 C,-2.348285,0.479814,-0.225996\F,-2.390404,0.882628,-1.500069\F,-2.317
 771,1.553851,0.574922\C,-3.670269,-0.288656,0.070844\F,-3.683966,-1.45
 4396,-0.564621\F,-3.813044,-0.499679,1.370583\F,-4.691566,0.443344,-0.
 354867\\Version=EM64M-G16RevA.03\State=1-A\HF=-1715.8141344\RMSD=2.584
 e-09\RMSF=5.279e-06\ZeroPoint=0.1014019\Thermal=0.1216529\Dipole=0.486
 3942,-0.7865751,0.0779587\DipoleDeriv=0.6954316,-0.0093527,0.0530406,-
 0.0262619,0.8911568,-0.031452,0.0086522,-0.046163,1.128639,-0.337789,-
 0.0129098,-0.0148984,-0.0225104,-0.3363718,-0.2682582,-0.0365873,-0.18
 66445,-0.6736422,-0.3373536,0.0240336,-0.0130073,0.0486275,-0.54654,0.
 3114548,-0.0339509,0.2357604,-0.454621,0.6983934,0.0230242,-0.0751446,
 -0.0245718,0.9029335,-0.1264658,-0.070011,-0.1077161,1.0509913,-0.3440
 965,-0.0380836,0.0199483,-0.0591755,-0.6763721,0.2599813,0.02324,0.168
 9404,-0.3249565,-0.3763313,0.0216428,0.0530889,0.0339666,-0.2503213,-0
 .1566494,0.0824742,-0.0706335,-0.7631485,0.6292769,-0.0370174,0.068363
 7,0.0753731,1.0557619,-0.0535372,0.1830578,-0.1055367,1.1340511,-0.335
 8308,0.0042941,-0.0460196,0.0104465,-0.2446679,-0.026044,-0.0626967,0.
 0440827,-0.8394123,-0.3173904,0.0211075,-0.0135332,0.0420694,-0.787615
 3,0.1292964,-0.0216423,0.0559858,-0.2532112,1.0342136,-0.0284499,-0.33
 33197,-0.2349753,1.484575,-0.5070896,-0.5467168,-0.5178283,0.7030116,-
 0.8081797,-0.2120391,0.3284197,0.0043569,-0.6774238,0.1666537,0.363526
 9,0.3083086,-0.602479,-0.4883448,0.2965558,-0.0766616,0.1996623,-1.168
 6467,0.3029758,0.0127693,0.1865412,-0.3857373,0.3084771,-0.0523805,0.0
 579128,-0.0607856,0.360911,0.0221628,0.0655626,0.0225658,0.2861063,0.6
 924332,-0.0038226,-0.0896254,0.083268,0.8787543,0.011258,-0.0535182,0.
 0135301,1.1310864,-0.3526543,-0.036205,0.0416936,-0.0651305,-0.4077555
 ,0.303929,0.0692243,0.2199731,-0.6036803,-0.3401508,0.0339159,0.030156
 8,0.0388175,-0.4762646,-0.3202868,0.0330482,-0.2370615,-0.5344206,0.63
 83626,0.042751,0.0186494,-0.2180571,0.9343049,0.0733392,0.0890967,0.08
 74469,1.1595671,-0.3218158,0.0107152,-0.0203743,0.0303541,-0.3059473,0
 .231389,-0.0553466,0.1466235,-0.7564536,-0.3297722,-0.0084858,0.000502
 7,0.0043023,-0.6393143,-0.3188547,-0.0028084,-0.2270502,-0.4189646,1.6
 307605,-0.1894504,0.0607536,0.0284603,1.4901047,0.0317534,-0.0101303,0
 .0408265,1.5616497,-0.3681309,-0.0906692,-0.0310914,-0.0446796,-0.7530
 151,-0.2685447,0.0148467,-0.2332049,-0.3871409,-0.3793059,-0.0464185,0
 .1457856,-0.0613302,-0.2839469,0.1286555,0.0950063,0.0915277,-0.841756
 3,-0.890203,0.2872443,-0.1646401,0.2177732,-0.4442994,0.1043336,-0.147
 0968,0.1097258,-0.3154782\Polar=113.2143214,-1.6870623,91.2509186,-4.1
 655405,-2.8700428,88.6912575\Quadrupole=4.72146,-1.0387458,-3.6827142,
 -8.3827242,1.2289231,1.8370283\PG=C01 [X(C7H1F13O2)]\NImag=0\\0.508223
 71,-0.00264787,0.55553461,0.00025717,0.00351154,0.53199966,-0.07976019
 ,-0.00340385,-0.00376200,0.07261582,-0.00099266,-0.12908710,-0.0940617
 5,0.00503801,0.12963304,-0.00420565,-0.10832164,-0.23539722,0.00967831
 ,0.12624232,0.35636579,-0.07944301,0.00633253,-0.00312273,0.01022495,0
 .00057370,-0.00436794,0.07230703,0.00491191,-0.21868219,0.10224280,0.0
 0085036,0.02292584,0.01358170,-0.01040624,0.25496947,-0.00521855,0.116
 52839,-0.14723256,-0.00419049,0.02703450,-0.07326493,0.00979367,-0.169
 93144,0.23229844,-0.16686303,0.02574611,0.00227635,0.01089782,-0.00582
 869,-0.00277186,0.00747526,0.00074845,-0.00019401,0.51439400,0.0244271
 2,-0.08779399,-0.01266326,0.01179427,-0.00461264,-0.00891399,0.0228559
 2,-0.02393244,0.01062080,0.00033683,0.55241241,0.00592290,-0.01789468,
 -0.04490070,0.02577233,-0.02703114,-0.02768812,-0.01768821,0.02868500,
 -0.01271822,-0.00406605,0.00849703,0.52329002,0.01220598,0.02338186,-0
 .01184630,-0.00125308,0.00076990,0.00194165,-0.00603352,0.00700848,-0.
 00223875,-0.08052140,-0.01406153,0.00368346,0.07589998,-0.00931782,-0.
 03053004,0.02429844,0.00220827,-0.00005692,-0.00485263,0.00896298,-0.0
 0711322,0.00157551,-0.01285779,-0.26802041,0.06810003,0.02459469,0.336
 90046,-0.00018089,0.00794745,-0.00236644,-0.00139138,0.00172138,0.0040
 6724,-0.00137252,0.00063889,0.00102509,0.00580529,0.08298951,-0.096461
 08,-0.01296546,-0.13993341,0.14661697,0.00523218,0.00671062,0.03012568
 ,-0.00648879,0.00664938,0.00639181,-0.00052088,0.00067671,0.00105043,-
 0.08128396,0.00796867,0.01744724,0.00917328,-0.00461151,0.00931575,0.0
 7239658,0.00136052,-0.00086401,-0.01946378,0.00446855,-0.00321714,-0.0
 0366278,0.00147894,0.00075669,-0.00301793,0.00366879,-0.08550948,-0.05
 207826,-0.00526289,0.00650170,0.04793546,-0.00530797,0.08143703,0.0027
 7797,-0.00054398,-0.03340070,0.00566672,-0.00435252,-0.00232937,-0.000
 88904,-0.00156315,0.00676868,0.01695252,-0.06716168,-0.26667911,0.0093
 4696,0.03484066,-0.05587961,-0.03076884,0.05182741,0.39214758,-0.03090
 985,-0.01347285,-0.01053304,0.00333314,-0.00041650,-0.00030197,0.00217
 024,0.00064962,0.00031958,-0.16749307,-0.01881157,-0.01563624,0.006443
 51,-0.00242978,0.00105628,0.01041950,0.00588909,0.00790786,0.48418240,
 0.01452162,0.03017422,0.00616233,-0.00254665,-0.00412289,-0.00216500,-
 0.00279112,-0.00780158,0.00315233,-0.01806578,-0.07717591,-0.02232117,
 -0.02785629,-0.03249766,0.00334581,-0.00572805,0.00255561,-0.00193127,
 -0.01021767,0.56395761,0.00249855,0.00815153,0.01795988,-0.00246738,-0
 .00158987,-0.00657405,0.00157635,0.00005032,-0.00196368,-0.01962503,-0
 .02655065,-0.05572851,0.01255064,0.02327437,-0.00250488,-0.02613045,-0
 .01898371,-0.03835240,-0.01199317,0.00603648,0.52149692,0.00229329,0.0
 0077706,0.00322114,-0.00665208,0.00197955,-0.00184556,-0.00008458,0.00
 010797,-0.00039349,0.00728000,-0.00008969,-0.02889348,-0.00025172,0.00
 020997,-0.00137502,-0.00539717,-0.00463353,-0.00831332,-0.07369608,0.0
 0035036,-0.00600611,0.06404202,-0.00035180,-0.00253625,-0.00064865,0.0
 0176600,0.00074638,0.00113513,0.00019555,0.00081066,-0.00019491,0.0002
 8076,0.00166048,-0.00996429,-0.00103875,0.00263812,-0.00381781,-0.0029
 7697,-0.00116039,-0.00364942,0.00022191,-0.06852882,-0.00059106,-0.003
 27549,0.07681071,0.00025257,-0.00444620,-0.00736492,0.00038663,0.00204
 065,0.00510914,-0.00045544,-0.00081335,0.00160389,-0.00236786,0.009372
 62,-0.03670490,0.00026489,-0.00293457,0.00527484,-0.00633895,-0.004187
 46,-0.00523033,-0.01276897,-0.01800141,-0.28896556,0.01932533,-0.02915
 475,0.39852110,0.00312081,0.00396816,0.00025209,-0.00195648,-0.0008888
 7,0.00071727,-0.00592567,-0.00156858,-0.00132256,0.01059503,-0.0275143
 7,0.00668032,-0.00625187,-0.00742093,-0.00019869,-0.00090601,-0.000197
 56,-0.00238946,-0.07634400,0.00163924,0.00166755,0.00917035,0.00501354
 ,-0.00431359,0.07354097,0.00083247,-0.00769868,0.00047705,0.00005024,0
 .00237990,0.00086627,0.00011304,0.00498876,-0.00207498,0.00595071,-0.0
 3668022,0.01594613,-0.00903811,-0.00726540,-0.00116509,-0.00182218,0.0
 0118848,-0.00559858,0.00595807,-0.29989768,0.02033058,0.00442025,-0.01
 741752,0.04466523,-0.01487079,0.40105205,0.00024379,0.00112034,-0.0032
 8875,0.00103583,0.00083209,0.00110313,-0.00284325,-0.00143673,0.000780
 79,0.00345554,-0.00212482,0.00361985,-0.00144824,-0.00184812,0.0010305
 8,0.00027012,0.00073866,0.00302426,-0.00213250,0.03771713,-0.07322108,
 -0.00421728,0.05846737,-0.03378516,0.00142242,-0.08193417,0.09418271,-
 0.00139264,0.00156742,-0.00046244,0.00101133,-0.00030628,0.00001385,0.
 00073229,-0.00085699,0.00051712,-0.03005701,-0.00032325,0.00318825,0.0
 0232934,0.00225125,-0.00062492,0.00151150,0.00098493,0.00314934,-0.144
 22607,0.03977834,0.02831577,0.01104710,-0.00324034,-0.00974873,0.00027
 067,-0.00161594,0.00323871,0.64591401,-0.00203873,-0.00513756,-0.00298
 367,0.00016294,-0.00019331,0.00034009,-0.00007286,0.00007216,0.0000831
 9,-0.01403078,0.02860547,0.00636641,0.00273678,-0.00850348,0.00212262,
 0.00104726,-0.00309765,-0.00008351,0.02174941,-0.08104238,-0.03436363,
 0.00074699,0.00431422,0.01032828,0.03319740,-0.04316684,-0.00515057,0.
 06717912,0.70094667,-0.00121230,-0.00623016,-0.00145830,0.00028460,0.0
 0011463,-0.00011192,-0.00018937,0.00196031,-0.00125667,-0.00683062,0.0
 0974868,0.02004835,-0.00101785,-0.00117952,-0.00115997,0.00211816,-0.0
 0020814,-0.00512958,0.00174341,-0.02898325,-0.07569878,0.02993669,-0.0
 0839932,-0.04087938,-0.00043250,0.01478948,0.00386590,-0.31869501,-0.2
 5989219,0.56322623,0.00022103,-0.00285722,-0.00032471,-0.00035223,0.00
 017759,-0.00004975,-0.00035522,0.00088672,-0.00057035,0.00043356,0.005
 91580,0.00404596,-0.00038276,-0.00085957,-0.00003835,-0.00076389,-0.00
 098414,-0.00218572,-0.01631135,-0.02260286,0.02624109,-0.00605820,0.00
 328892,0.01213971,0.00084016,0.00087203,-0.00075161,-0.35726824,-0.189
 17606,0.28009515,0.35264547,0.00010068,-0.00012438,0.00056942,0.000066
 36,0.00022890,-0.00004032,0.00008062,0.00050959,-0.00027057,0.00164163
 ,-0.00503055,0.00022023,-0.00059214,0.00260336,-0.00073936,-0.00003221
 ,0.00077277,-0.00036641,0.00066424,0.00373817,0.00821090,-0.00069274,0
 .00128138,-0.00249963,0.00324384,0.00695331,-0.00427307,-0.19930692,-0
 .27629595,0.22903792,0.23529721,0.31961049,0.00045570,0.00371908,0.000
 33377,-0.00002605,-0.00008923,0.00021559,0.00017708,-0.00126034,0.0008
 5895,0.00226150,-0.00594330,-0.00947849,0.00047436,-0.00002037,0.00069
 560,-0.00199809,0.00015180,0.00372061,0.03295200,0.02126335,-0.0033087
 4,-0.00077335,-0.00182983,-0.00230040,-0.00341510,-0.00184613,0.001796
 60,0.28427137,0.22302541,-0.37059205,-0.32967434,-0.29219045,0.3895123
 1,0.00077149,-0.00055666,-0.00016873,-0.00035425,0.00002594,0.00007371
 ,-0.00037418,0.00019657,-0.00014828,0.00202563,0.00068009,0.00151128,-
 0.00477907,-0.00065599,0.00040743,-0.00104944,0.00001511,-0.00112758,0
 .00056751,0.02820982,-0.00912458,-0.00175984,0.00091817,0.00411114,-0.
 00660976,0.00954973,0.00177758,-0.12281449,0.06589377,0.01232482,0.030
 63011,-0.03354667,0.01391361,0.45919778,-0.00015780,0.00065587,0.00087
 612,0.00026391,0.00030063,-0.00000595,0.00029383,0.00044573,-0.0001778
 9,-0.00029202,-0.00919900,-0.00180363,0.00019991,0.00506676,-0.0009302
 8,0.00008042,0.00175169,0.00041862,0.00671086,-0.02093123,0.01410140,0
 .00128649,0.00034112,-0.00572986,0.00496300,-0.00319841,-0.00189680,0.
 04339288,-0.29172877,0.07062714,-0.02434616,-0.06085537,0.05696474,-0.
 18176124,0.46888020,0.00001944,0.00054120,-0.00025608,-0.00001389,0.00
 008165,0.00024365,0.00002773,-0.00027401,0.00027759,0.00024761,-0.0005
 8098,-0.00324771,0.00067008,-0.00039466,0.00084945,-0.00085427,0.00055
 398,0.00130636,0.00574985,-0.00646338,0.00642838,0.00011410,-0.0011145
 0,0.00355668,0.00235079,-0.00541227,0.00045487,0.02130970,0.05456575,-
 0.10393126,0.01045574,0.06322085,-0.00519345,-0.21874674,-0.05733968,0
 .22291045,-0.00013410,0.00031043,0.00012131,0.00007496,-0.00010733,-0.
 00012563,0.00006433,-0.00010089,0.00000898,0.00018431,-0.00023329,0.00
 058032,-0.00017278,-0.00001202,-0.00011578,0.00034814,-0.00025746,-0.0
 0045060,0.00293631,0.00204295,0.00082091,-0.00007654,-0.00070799,0.000
 24774,-0.00012848,-0.00005611,-0.00014443,-0.00738372,0.01361736,0.002
 71939,-0.00286121,-0.00702347,0.00091228,-0.35533394,0.14906119,0.1785
 9679,0.36245096,0.00023679,-0.00010367,-0.00000522,-0.00010839,0.00003
 663,0.00002248,-0.00009068,0.00005319,-0.00001577,0.00073377,-0.000548
 56,-0.00008388,-0.00050043,0.00034517,-0.00012362,-0.00031423,-0.00002
 255,-0.00004223,0.00102808,-0.00418315,0.00420173,-0.00094094,0.000823
 47,0.00034039,0.00096346,-0.00160361,-0.00015226,0.05083983,-0.0262523
 9,-0.02258780,-0.00620428,0.00677761,-0.00124741,0.11085003,-0.0910761
 5,-0.04728361,-0.15648897,0.11573248,0.00005036,0.00016144,0.00015640,
 -0.00000182,-0.00007242,-0.00011390,-0.00000247,-0.00003266,-0.0000298
 7,0.00058853,-0.00018876,0.00025954,0.00001084,0.00010280,-0.00011128,
 0.00003559,-0.00018581,-0.00045744,0.00286399,0.00326418,0.00161720,-0
 .00064741,-0.00034751,0.00074353,-0.00095125,0.00091140,0.00027713,-0.
 01438914,0.00520275,0.01267366,0.00046264,-0.00081799,-0.00606906,0.19
 514250,-0.07494550,-0.12336436,-0.18316957,0.06696467,0.11442182,-0.16
 517533,-0.02423341,-0.00766969,0.00758085,-0.00070756,-0.00050589,0.01
 120850,0.00699380,-0.00050151,-0.03169272,-0.01520571,-0.00211736,0.00
 352263,-0.00082801,0.00038009,0.00226700,0.00039033,0.00013838,-0.0023
 4563,0.00249216,0.00085132,0.00062671,0.00004826,-0.00012597,0.0010639
 9,0.00016909,0.00020025,-0.00090654,-0.00052235,-0.00017508,0.00033609
 ,0.00005952,0.00000435,0.00042067,-0.00008583,0.00003123,-0.00011634,0
 .00014148,-0.00002345,0.50973379,-0.02438703,-0.09284314,-0.00730565,-
 0.01410268,-0.00849134,-0.00892652,-0.02037513,-0.02102013,0.01162109,
 0.01371272,0.03275449,0.00574869,-0.00406212,-0.00710443,0.00174280,-0
 .00095086,-0.00409952,-0.00465293,0.00311108,-0.00544810,-0.00408750,-
 0.00003197,-0.00014168,0.00181768,-0.00036523,-0.00084810,0.00005519,-
 0.00115582,0.00394556,0.00213519,0.00133591,-0.00079694,-0.00126980,0.
 00064521,-0.00178360,-0.00017385,-0.00006160,0.00016308,0.00000952,0.0
 0035788,0.55652260,-0.00424985,-0.00173612,-0.04053159,-0.02470907,-0.
 02714158,-0.02892616,0.01875516,0.03004091,-0.01124701,0.00359204,0.00
 101083,0.01560551,0.00112260,0.00149439,-0.00391480,-0.00255150,-0.001
 49311,-0.00563095,0.00041672,-0.00051873,0.00101533,-0.00010648,-0.000
 02082,-0.00146320,0.00002439,0.00019987,-0.00028696,-0.00010045,0.0000
 0824,0.00084011,0.00024596,0.00006178,-0.00054147,-0.00001455,-0.00001
 228,-0.00031377,0.00010595,0.00003278,0.00013670,-0.00162211,-0.002368
 63,0.52956508,0.00589802,-0.01785422,0.02459028,-0.00048469,-0.0010990
 0,0.00080183,-0.00635814,-0.00859713,0.00323039,0.00227985,0.00226711,
 -0.00198691,-0.00844825,0.00092368,0.00267347,-0.00013820,-0.00008821,
 0.00040864,0.00058893,-0.00002039,0.00032693,-0.00019456,-0.00002381,-
 0.00017658,-0.00032211,-0.00015398,-0.00009831,0.00053238,-0.00015652,
 -0.00031416,-0.00032484,0.00001537,0.00021016,-0.00025536,0.00017456,0
 .00002771,0.00005683,-0.00007175,0.00000757,-0.08103327,-0.01310964,0.
 01259794,0.07863992,-0.00261088,-0.01342953,0.02874498,-0.00103546,0.0
 0003551,0.00031626,-0.00631822,-0.00621631,0.00220162,-0.00034827,-0.0
 0668174,0.00117305,0.00244002,0.00387748,-0.00214575,-0.00008923,0.000
 61051,-0.00066912,-0.00020995,0.00020792,0.00128114,-0.00005091,0.0001
 6533,-0.00074997,-0.00011280,0.00070746,-0.00022765,0.00027528,-0.0010
 8531,-0.00018062,-0.00023082,0.00030759,0.00007934,-0.00019122,0.00059
 172,-0.00005876,0.00003044,-0.00004719,0.00002600,-0.00989702,-0.15886
 361,0.10387473,0.01664554,0.16805414,0.00218220,0.00925214,-0.02151488
 ,-0.00147472,-0.00138601,0.00765753,0.00344160,0.00294668,0.00038282,0
 .00000408,0.00451633,-0.00326353,0.00056602,-0.00295498,0.00204368,0.0
 0041713,0.00008488,0.00192439,0.00031869,-0.00040984,-0.00172195,0.000
 01871,-0.00004889,0.00118239,0.00004265,-0.00039083,0.00030088,-0.0001
 9582,0.00079838,0.00004998,0.00013871,-0.00021575,0.00002142,0.0001558
 4,-0.00040063,0.00012126,-0.00005703,0.00002654,-0.00006476,0.01420235
 ,0.11878598,-0.20427983,-0.02849352,-0.15119546,0.31532568,0.01258752,
 -0.01669652,-0.01956008,-0.00582269,-0.00555701,-0.00473260,-0.0012268
 2,-0.00147814,0.00149853,0.00323719,0.00342504,0.00242220,-0.00204966,
 -0.00041622,-0.00125602,-0.00486079,-0.00177480,-0.00079733,0.00098469
 ,-0.00022174,-0.00008831,-0.00029112,-0.00007652,-0.00015920,-0.000276
 84,-0.00024910,-0.00002995,0.00051996,0.00007601,-0.00004912,-0.000237
 06,-0.00002723,0.00006665,-0.00020200,0.00006700,-0.00001378,0.0000759
 4,-0.00006259,0.00002033,-0.08053867,0.01346923,0.01039179,0.00929013,
 0.00117471,0.01030743,0.07346018,0.00916650,-0.01456783,-0.02953763,-0
 .00777388,-0.00531604,-0.00434398,-0.00147762,-0.00056258,0.00294971,0
 .00085290,-0.00532492,-0.00197135,0.00075334,0.00281053,0.00048613,-0.
 00144229,0.00187519,0.00261311,0.00022435,-0.00056348,-0.00036398,-0.0
 0016293,0.00026497,0.00036530,-0.00017625,0.00068645,0.00008599,0.0002
 5035,-0.00076198,-0.00020331,-0.00019804,0.00024707,0.00016506,-0.0001
 3198,0.00050794,0.00008279,-0.00004343,-0.00006590,-0.00005874,0.01023
 981,-0.18702781,-0.10572250,0.00053441,0.02664250,0.00029557,-0.020797
 81,0.20766073,0.00376416,-0.01270336,-0.01797356,-0.00471639,-0.003342
 47,-0.00108398,-0.00208804,-0.00378133,0.00459407,0.00081897,-0.002342
 83,-0.00540066,-0.00107540,0.00041278,0.00064629,0.00140886,0.00188822
 ,0.00405595,0.00007278,-0.00023528,-0.00058833,-0.00007292,0.00018960,
 0.00071285,-0.00013489,0.00027052,0.00016864,0.00020436,-0.00035529,-0
 .00043857,-0.00021051,0.00009267,0.00030499,-0.00008246,0.00024362,0.0
 0015517,-0.00004995,-0.00004275,-0.00007304,0.01119164,-0.12048506,-0.
 17532034,0.01034323,-0.01322867,-0.07658919,-0.02330673,0.16433021,0.2
 7492598,-0.03128850,0.01495713,-0.00513690,0.00211604,-0.00031623,0.00
 043495,0.00303860,0.00055914,-0.00008195,-0.00228745,-0.00269902,-0.00
 065781,0.00103866,-0.00024714,-0.00000641,0.00060785,0.00003154,0.0002
 7829,-0.00092613,0.00075773,0.00010425,0.00030266,-0.00004866,0.000007
 72,0.00044954,-0.00008748,0.00009042,-0.00053117,0.00003866,0.00013237
 ,0.00029485,-0.00002406,-0.00011497,0.00024918,-0.00016099,-0.00000771
 ,-0.00007613,0.00006871,-0.00000898,-0.16796987,0.02544507,-0.00874756
 ,0.01249667,-0.00880991,0.00516631,0.00570582,0.00268844,0.00201513,0.
 52425906,-0.01492988,0.03452302,0.00023102,0.00197768,-0.00585523,-0.0
 0481827,0.00345639,-0.00603677,0.00264015,-0.00251426,-0.00652062,-0.0
 0262564,0.00025067,-0.00074186,0.00017481,-0.00022683,0.00027713,0.001
 31900,-0.00092510,0.00397995,0.00174590,-0.00013565,-0.00037999,-0.000
 93457,0.00015850,-0.00115635,0.00008304,0.00087443,-0.00077976,-0.0013
 1578,-0.00083796,-0.00007883,0.00081740,-0.00035267,0.00016258,0.00011
 959,0.00012930,-0.00004538,0.00004340,0.02254885,-0.09499736,0.0086280
 9,0.01454089,-0.00977442,0.01218007,0.02132641,-0.01850800,-0.01001550
 ,0.00036961,0.56215853,-0.00320009,-0.00295998,0.01488078,0.00257591,-
 0.00144091,-0.00391863,-0.00162202,0.00217098,-0.00517519,-0.00006179,
 0.00132221,0.00184873,-0.00001445,0.00031834,-0.00039437,0.00031053,-0
 .00046503,-0.00183944,-0.00011156,-0.00046099,0.00067710,0.00018747,-0
 .00005889,-0.00051022,0.00004166,0.00009230,-0.00028523,-0.00044828,0.
 00017037,0.00056864,0.00035149,0.00001497,-0.00042672,0.00014396,-0.00
 008461,-0.00015450,-0.00000322,0.00003191,0.00005691,-0.01137389,0.014
 39208,-0.04264342,-0.02121946,0.02897140,-0.02366514,0.02249198,-0.030
 06589,-0.01707783,0.00074955,-0.01201088,0.53771277,0.00208646,-0.0016
 4506,0.00277139,-0.00006968,-0.00006124,-0.00052063,-0.00539675,-0.001
 05802,-0.00257599,0.00061736,-0.00001074,-0.00011472,-0.00030328,0.000
 17120,-0.00000208,-0.00020492,0.00004503,0.00005732,0.00027470,0.00007
 003,0.00024377,-0.00011777,-0.00000556,-0.00014032,-0.00017004,-0.0000
 1563,-0.00004958,0.00031472,-0.00016065,-0.00018696,-0.00020949,0.0000
 2701,0.00012810,-0.00014719,0.00012172,0.00001552,0.00004364,-0.000034
 92,0.00000763,0.00750683,0.01034898,-0.02581873,-0.00557983,0.00709144
 ,-0.00563369,-0.00047027,0.00089790,-0.00144447,-0.07979570,0.00472931
 ,-0.00688197,0.07117787,0.00023145,-0.00498023,0.00167615,-0.00000061,
 0.00053786,-0.00030679,-0.00192115,0.00261797,-0.00233694,-0.00000026,
 0.00025324,0.00075015,0.00013095,0.00054899,-0.00027140,0.00009259,0.0
 0004227,-0.00043006,0.00007412,-0.00072363,-0.00001061,0.00004772,0.00
 008933,-0.00001990,-0.00002868,0.00033183,-0.00008352,-0.00019030,-0.0
 0002794,0.00028533,0.00016943,0.00007203,-0.00019544,0.00005384,0.0000
 6397,-0.00005142,-0.00002147,0.00000209,0.00000266,0.00014572,-0.00469
 882,0.02391188,0.00493988,-0.00426819,0.00373523,0.00123903,0.00019627
 ,0.00227205,-0.00012781,-0.10907324,0.08049250,-0.00348101,0.10583530,
 0.00047944,0.00470827,-0.00465833,-0.00051420,0.00044926,0.00194217,-0
 .00031813,-0.00299846,0.00328387,-0.00006811,-0.00086472,-0.00187126,-
 0.00013312,-0.00046809,0.00047234,-0.00015323,0.00024778,0.00128947,-0
 .00001015,0.00070530,-0.00020939,-0.00010346,-0.00003411,0.00024792,-0
 .00001472,-0.00025990,0.00016067,0.00034657,-0.00008104,-0.00050144,-0
 .00029114,-0.00005015,0.00035481,-0.00011115,0.00001345,0.00011507,0.0
 0001409,-0.00001994,-0.00003329,0.00010784,0.00589194,-0.03227613,-0.0
 0532213,0.00464128,-0.00195310,0.00047788,0.00076162,0.00735101,-0.004
 06679,0.09558309,-0.25985741,0.00848956,-0.09991075,0.38511929,0.00310
 782,-0.00345857,-0.00120594,-0.00481873,0.00140282,-0.00013629,-0.0019
 7861,0.00055440,0.00094513,0.00101238,0.00029033,0.00016313,-0.0002923
 4,0.00020668,-0.00006392,-0.00033247,0.00008232,0.00008264,0.00043004,
 -0.00013504,0.00003035,-0.00017152,0.00002121,-0.00003350,-0.00017093,
 0.00003406,-0.00001983,0.00031815,-0.00014286,-0.00013925,-0.00019937,
 0.00002958,0.00010630,-0.00014782,0.00012623,0.00000915,0.00004100,-0.
 00003704,0.00000598,0.01122789,0.02180889,0.01691852,-0.00116165,0.001
 17798,-0.00236593,-0.00644484,0.00697063,0.00276502,-0.08007275,-0.002
 33615,-0.00132649,0.01047877,-0.00086463,-0.00313945,0.06802300,-0.000
 66689,-0.00651966,-0.00186841,0.00051501,0.00324189,0.00295881,-0.0004
 2691,0.00278917,-0.00013799,-0.00021122,-0.00064791,-0.00035197,0.0002
 3310,0.00074179,-0.00003124,0.00018324,0.00041737,0.00042824,0.0000743
 3,-0.00097241,-0.00036697,0.00003156,0.00018250,0.00029992,-0.00003048
 ,0.00052992,0.00002244,-0.00012387,-0.00014157,0.00016913,0.00012211,0
 .00011882,-0.00009774,0.00003105,0.00015810,0.00000549,-0.00004545,-0.
 00001460,-0.00003386,-0.00693460,-0.02408054,-0.02780765,0.00159321,-0
 .00036850,0.00433556,0.00869449,-0.00660640,-0.00202859,-0.00397019,-0
 .24212390,-0.08975717,-0.00094395,0.01723645,-0.02405936,0.00902521,0.
 29163875,-0.00008659,-0.00240838,-0.00451844,-0.00208991,0.00214924,0.
 00289639,0.00095107,-0.00015089,0.00075729,0.00009575,-0.00015617,-0.0
 0045021,0.00006942,0.00013192,0.00012248,-0.00001480,0.00026101,0.0005
 6459,0.00010244,-0.00037308,-0.00047564,-0.00002864,0.00008817,0.00032
 537,-0.00001687,0.00016007,0.00009963,0.00001687,-0.00001225,-0.000015
 72,-0.00000221,0.00002519,0.00003283,0.00000193,0.00004038,0.00003572,
 -0.00002134,-0.00000717,-0.00002698,0.00035566,-0.00880386,-0.00651397
 ,0.00119431,-0.00232122,0.00447135,0.00201968,-0.00125098,0.00099881,-
 0.00267796,-0.10408132,-0.12268429,-0.00268346,-0.03748500,-0.06784281
 ,0.00463343,0.16295739,0.19270233,-0.00180144,-0.00265615,-0.00037537,
 0.00104391,0.00084323,0.00081232,0.00110457,0.00087032,-0.00037527,-0.
 00125948,0.00121414,0.00074499,0.00073736,-0.00012487,-0.00002291,0.00
 077441,-0.00020631,-0.00057825,-0.00062580,-0.00093110,-0.00077156,0.0
 0042192,0.00007852,0.00044412,0.00039890,0.00025040,0.00005725,-0.0011
 1792,0.00062459,0.00079189,0.00079671,-0.00006392,-0.00053197,0.000508
 30,-0.00039748,-0.00006448,-0.00016387,0.00012238,-0.00002866,-0.02782
 923,-0.00096385,0.00243858,0.00261732,-0.00117203,0.00149903,0.0027397
 2,-0.00189297,-0.00176829,-0.15608134,-0.06252565,0.02462392,0.0040337
 2,0.00784022,-0.00662069,0.00511025,0.00757860,0.00091194,0.58410279,0
 .00253063,-0.00578075,-0.00064406,-0.00000448,0.00014935,0.00075937,-0
 .00014393,-0.00102925,0.00046277,0.00074174,0.00429832,0.00083982,-0.0
 0022928,-0.00127030,0.00032738,0.00015007,-0.00070594,-0.00075436,0.00
 009609,-0.00044738,-0.00078085,0.00012376,-0.00009692,0.00037791,0.000
 11605,-0.00032827,0.00005570,-0.00046500,0.00100445,0.00035339,0.00033
 370,-0.00027376,-0.00021675,0.00027529,-0.00061381,-0.00001349,-0.0000
 2593,0.00011288,0.00000741,0.01677278,0.03463185,-0.00328899,-0.003460
 55,-0.00542008,0.00300032,-0.00267238,-0.00797340,-0.00420826,-0.03000
 657,-0.08107394,0.01516213,-0.00852578,-0.00472842,0.00907713,-0.02539
 679,-0.03439254,-0.01085408,0.01891556,0.56011424,-0.00078050,0.002426
 76,0.00207604,-0.00005307,-0.00095273,-0.00209862,0.00016690,0.0008200
 7,-0.00092994,-0.00022372,-0.00109510,0.00106431,0.00012266,0.00039155
 ,-0.00051308,-0.00015283,-0.00009592,-0.00063046,-0.00001971,0.0003227
 4,0.00086422,-0.00004379,-0.00002911,-0.00062260,-0.00003133,0.0000346
 2,-0.00014925,0.00006572,-0.00026942,0.00003104,-0.00004717,0.00006192
 ,-0.00006031,-0.00008101,0.00012174,-0.00009583,0.00004523,-0.00000218
 ,0.00006443,-0.00442033,-0.00684834,0.01982473,0.00389762,0.00299233,-
 0.00762006,-0.00177523,-0.00150184,-0.00410858,0.01380090,0.01661497,-
 0.04176693,0.02603032,0.02738831,-0.03816213,-0.01637527,-0.02889214,-
 0.00983662,-0.00856943,-0.00326618,0.56155893,0.00080833,0.00012865,0.
 00001352,-0.00032796,-0.00011343,-0.00015340,-0.00026742,-0.00008537,0
 .00006224,0.00039583,-0.00021121,-0.00005871,-0.00016198,0.00006562,-0
 .00002288,-0.00021159,0.00003785,0.00009008,0.00017291,0.00014988,0.00
 016539,-0.00010518,-0.00000614,-0.00010345,-0.00010161,-0.00002922,-0.
 00001500,0.00026562,-0.00016492,-0.00016531,-0.00018070,0.00002735,0.0
 0011433,-0.00012403,0.00011393,0.00001259,0.00003700,-0.00003312,0.000
 00434,0.00265860,0.00108472,0.00124176,-0.00106439,0.00009725,-0.00104
 968,-0.00562105,-0.00059213,0.00052185,0.00977400,-0.02074412,-0.01526
 218,-0.00061975,-0.00064561,0.00259105,-0.00618192,-0.00829888,-0.0015
 5240,-0.08751979,-0.02802917,-0.00807740,0.07583531,0.00013623,-0.0002
 0082,-0.00024453,-0.00019902,0.00049743,0.00033819,-0.00023622,0.00060
 993,-0.00014498,-0.00003100,-0.00123222,-0.00033323,0.00001210,0.00052
 935,-0.00006828,-0.00007485,0.00030635,0.00035449,0.00006276,-0.000113
 38,0.00008900,-0.00006402,0.00007154,-0.00000966,-0.00007264,0.0002117
 6,-0.00000600,0.00018147,-0.00037117,-0.00009578,-0.00011237,0.0001212
 3,0.00006666,-0.00010375,0.00025959,0.00001668,0.00000084,-0.00005362,
 -0.00001682,0.00011793,-0.00819345,-0.00148294,0.00004849,0.00211165,-
 0.00029436,0.00000167,0.00447070,0.00271855,0.00519685,-0.02639490,-0.
 02535612,-0.00133640,0.00104139,0.00437668,-0.00859007,-0.00746870,-0.
 00110938,-0.03505412,-0.24857141,-0.07849586,-0.00032891,0.34093242,0.
 00001912,-0.00018691,-0.00047179,-0.00001763,0.00031206,0.00046825,-0.
 00006994,0.00001330,0.00016105,-0.00001851,-0.00028213,-0.00037313,0.0
 0000038,0.00007947,0.00008886,0.00000631,0.00012806,0.00027111,0.00000
 478,-0.00005961,-0.00012303,-0.00000546,0.00002803,0.00010918,-0.00001
 356,0.00005390,0.00002772,0.00004217,-0.00006651,-0.00005056,-0.000030
 83,0.00002477,0.00004088,-0.00001747,0.00005598,0.00002376,-0.00000977
 ,-0.00001559,-0.00001869,0.00046054,-0.00192154,-0.00402580,-0.0010256
 1,-0.00033877,0.00104540,0.00161040,0.00199051,0.00213039,0.00307793,-
 0.00709793,-0.00259743,-0.00146610,-0.00091330,0.00529267,-0.00149039,
 -0.00007617,0.00128845,-0.01303775,-0.08309144,-0.11333146,0.00365356,
 0.14439710,0.15732126,0.00056255,0.00053269,0.00042022,-0.00021288,-0.
 00017797,-0.00029713,-0.00032760,-0.00011403,-0.00005859,0.00032845,-0
 .00035721,-0.00015576,-0.00019476,0.00009363,-0.00001263,-0.00017965,0
 .00005992,0.00010770,0.00016488,0.00019608,0.00025379,-0.00010374,-0.0
 0001313,-0.00014734,-0.00010395,-0.00003436,-0.00003097,0.00026811,-0.
 00019433,-0.00017520,-0.00018982,0.00003152,0.00011324,-0.00012780,0.0
 0012633,0.00000877,0.00003976,-0.00003353,0.00000824,0.00188787,-0.000
 55040,-0.00186520,-0.00748273,0.00182819,0.00118000,-0.00020450,0.0003
 9947,0.00044923,0.00697044,-0.00136823,0.02774995,-0.00594241,-0.00585
 462,0.00683221,-0.00052536,-0.00172836,-0.00056228,-0.09455867,-0.0158
 6083,0.04302772,0.01369032,0.00403788,0.00153736,0.08127875,-0.0000825
 7,0.00047589,0.00034796,-0.00006290,0.00000862,-0.00023353,-0.00007527
 ,0.00036488,-0.00026761,-0.00005002,-0.00069798,0.00002877,0.00002757,
 0.00028122,-0.00011920,-0.00005427,0.00010512,0.00003226,0.00002635,0.
 00002945,0.00018872,-0.00003591,0.00001998,-0.00011217,-0.00003585,0.0
 0008328,-0.00002828,0.00009948,-0.00019776,-0.00004099,-0.00006336,0.0
 0005784,0.00002338,-0.00006360,0.00012570,-0.00000889,0.00001156,-0.00
 002270,0.00000639,-0.00069772,-0.00468092,0.00183870,0.00232753,0.0018
 7612,-0.00190791,0.00010130,0.00080270,0.00006244,-0.00325338,0.002588
 40,0.01701817,-0.00347000,-0.00249933,0.00391703,-0.00039865,0.0015328
 4,0.00225972,-0.01460266,-0.08638051,0.04195963,0.00708054,0.00263232,
 -0.05010011,0.00006943,0.08873632,0.00016595,-0.00123959,-0.00163103,0
 .00007929,0.00051408,0.00122795,0.00010286,-0.00055879,0.00071091,0.00
 003894,0.00082915,-0.00048515,-0.00002113,-0.00033637,0.00028448,0.000
 11522,-0.00000534,0.00030175,-0.00003559,-0.00017922,-0.00056609,0.000
 04983,0.00000952,0.00038440,0.00005606,-0.00004845,0.00009729,-0.00011
 434,0.00024371,0.00002796,0.00007809,-0.00005967,0.00000453,0.00008844
 ,-0.00013332,0.00005164,-0.00003452,0.00001593,-0.00003587,0.00040146,
 0.00484729,-0.00720575,-0.00117724,-0.00261874,0.00504380,0.00047256,0
 .00065189,0.00193269,-0.00096103,-0.00218671,-0.03211995,0.00627513,0.
 00423113,-0.00315541,-0.00010406,0.00284157,0.00632688,0.05234951,0.04
 856950,-0.27386796,0.00629624,-0.03491068,-0.06288376,-0.03379698,-0.0
 5390902,0.41350548,-0.00035110,0.00506971,0.00011880,-0.00034510,-0.00
 088732,-0.00085140,-0.00003338,-0.00074905,0.00044372,0.00030146,-0.00
 165772,-0.00078714,-0.00025427,0.00009367,0.00001152,-0.00039269,0.000
 19995,0.00053573,0.00020921,0.00090851,0.00055992,-0.00022397,-0.00006
 765,-0.00029996,-0.00018267,-0.00022718,-0.00001096,0.00066261,-0.0004
 1021,-0.00056376,-0.00050360,0.00002442,0.00037285,-0.00029150,0.00021
 924,0.00005406,0.00009393,-0.00006364,0.00001422,-0.00243381,-0.011203
 36,0.00193408,0.00044797,0.00031588,-0.00037037,-0.00035484,0.00171123
 ,0.00139483,-0.04827433,0.03653445,-0.01770100,0.00249301,-0.00182882,
 0.00152783,0.00274899,-0.00470111,-0.00061604,-0.23343233,0.07476502,-
 0.04650629,-0.00115056,0.03640716,0.00679045,0.00496274,0.01320239,-0.
 03032469,0.27630421,-0.00027197,-0.00048378,0.00028880,0.00007634,0.00
 023063,0.00003079,-0.00000815,0.00048041,-0.00029904,-0.00018431,-0.00
 037581,0.00010391,0.00010216,0.00025877,-0.00008680,0.00007251,0.00007
 875,-0.00003455,-0.00005693,-0.00019325,0.00002678,0.00003210,0.000041
 38,-0.00001449,0.00001986,0.00014786,-0.00001595,-0.00009007,-0.000104
 72,0.00009565,0.00007343,0.00005561,-0.00006942,0.00001915,0.00007474,
 -0.00001848,-0.00001866,-0.00000712,-0.00000255,-0.00136540,-0.0028980
 9,0.00049115,0.00062451,0.00096699,-0.00075302,0.00045516,0.00111328,0
 .00028873,-0.00036144,-0.00014905,0.00250311,-0.00275367,0.00213082,-0
 .00162632,-0.00037051,0.00474911,0.00094069,0.08225316,-0.12122444,0.0
 2831419,0.05049644,-0.06119599,-0.00293317,0.01891185,-0.00524149,0.03
 343212,-0.14765557,0.18154539,0.00004511,0.00060288,-0.00044125,-0.000
 05163,-0.00003122,0.00021006,0.00003664,-0.00034982,0.00031464,0.00009
 042,-0.00003877,-0.00028552,-0.00006325,-0.00009754,0.00008759,-0.0000
 4986,0.00003000,0.00018463,0.00003452,0.00013258,-0.00005690,-0.000027
 48,-0.00001394,0.00005539,-0.00002065,-0.00006704,0.00002579,0.0000993
 2,0.00000289,-0.00010768,-0.00007785,-0.00001724,0.00007782,-0.0000297
 0,-0.00000277,0.00002690,0.00000881,-0.00000700,-0.00000879,0.00021017
 ,-0.00020376,-0.00186631,-0.00049616,-0.00056742,0.00110184,-0.0000111
 0,0.00024231,0.00067726,-0.00338977,0.00490607,-0.00062824,0.00349995,
 -0.00273027,0.00489140,0.00074068,0.00149073,0.00174257,-0.05192890,0.
 02812565,-0.09168988,0.01169345,-0.00978873,0.01560667,-0.04458636,0.0
 3904454,-0.04794878,0.08427362,-0.06066213,0.11803077\\-0.00000530,-0.
 00000170,-0.00000724,-0.00000096,-0.00000305,0.00001252,-0.00000596,-0
 .00000417,0.00000378,-0.00000244,-0.00000290,-0.00000223,0.00000351,0.
 00000049,-0.00000938,-0.00000143,-0.00000116,0.00000069,0.00000691,-0.
 00000266,0.00001172,0.00000128,-0.00000349,-0.00000530,0.00000514,-0.0
 0000081,0.00000708,-0.00000655,-0.00000162,-0.00000328,0.00000282,0.00
 000219,0.00000169,-0.00000008,0.00000101,0.00000027,0.00000064,-0.0000
 0229,-0.00000558,0.00001176,0.00000033,-0.00000522,0.00000171,-0.00000
 241,-0.00000218,0.00000570,0.00000329,0.,-0.00000460,0.00000492,0.0000
 0234,0.00000228,0.00000783,0.00000691,-0.00000526,-0.00000025,-0.00000
 107,0.00001618,0.00000945,-0.00000138,-0.00000551,-0.00000276,-0.00000
 076,-0.00000842,-0.00000205,-0.00000602,-0.00001143,0.00000183,0.00000
 264\\\@


 A SCIENTIST IS SOMEONE WHOSE CURIOSITY SURVIVES
 EDUCATION'S ASSAULTS ON IT.
                          - SIR HERMANN BONDI
 Job cpu time:       0 days 21 hours 37 minutes 48.0 seconds.
 Elapsed time:       0 days  2 hours 47 minutes 28.2 seconds.
 File lengths (MBytes):  RWF=    805 Int=      0 D2E=      0 Chk=     25 Scr=      1
 Normal termination of Gaussian 16 at Sat Feb  6 22:36:53 2021.
