 Entering Gaussian System, Link 0=/applications/g16/g16/g16
 Initial command:
 /applications/g16/g16/l1.exe "/scratch/g98/Gau-8236.inp" -scrdir="/scratch/g98/"
 Entering Link 1 = /applications/g16/g16/l1.exe PID=      8237.
  
 Copyright (c) 1988,1990,1992,1993,1995,1998,2003,2009,2016,
            Gaussian, Inc.  All Rights Reserved.
  
 This is part of the Gaussian(R) 16 program.  It is based on
 the Gaussian(R) 09 system (copyright 2009, Gaussian, Inc.),
 the Gaussian(R) 03 system (copyright 2003, Gaussian, Inc.),
 the Gaussian(R) 98 system (copyright 1998, Gaussian, Inc.),
 the Gaussian(R) 94 system (copyright 1995, Gaussian, Inc.),
 the Gaussian 92(TM) system (copyright 1992, Gaussian, Inc.),
 the Gaussian 90(TM) system (copyright 1990, Gaussian, Inc.),
 the Gaussian 88(TM) system (copyright 1988, Gaussian, Inc.),
 the Gaussian 86(TM) system (copyright 1986, Carnegie Mellon
 University), and the Gaussian 82(TM) system (copyright 1983,
 Carnegie Mellon University). Gaussian is a federally registered
 trademark of Gaussian, Inc.
  
 This software contains proprietary and confidential information,
 including trade secrets, belonging to Gaussian, Inc.
  
 This software is provided under written license and may be
 used, copied, transmitted, or stored only in accord with that
 written license.
  
 The following legend is applicable only to US Government
 contracts under FAR:
  
                    RESTRICTED RIGHTS LEGEND
  
 Use, reproduction and disclosure by the US Government is
 subject to restrictions as set forth in subparagraphs (a)
 and (c) of the Commercial Computer Software - Restricted
 Rights clause in FAR 52.227-19.
  
 Gaussian, Inc.
 340 Quinnipiac St., Bldg. 40, Wallingford CT 06492
  
  
 ---------------------------------------------------------------
 Warning -- This program may not be used in any manner that
 competes with the business of Gaussian, Inc. or will provide
 assistance to any competitor of Gaussian, Inc.  The licensee
 of this program is prohibited from giving any competitor of
 Gaussian, Inc. access to this program.  By using this program,
 the user acknowledges that Gaussian, Inc. is engaged in the
 business of creating and licensing software in the field of
 computational chemistry and represents and warrants to the
 licensee that it is not a competitor of Gaussian, Inc. and that
 it will not use this program in any manner prohibited above.
 ---------------------------------------------------------------
  

 Cite this work as:
 Gaussian 16, Revision A.03,
 M. J. Frisch, G. W. Trucks, H. B. Schlegel, G. E. Scuseria, 
 M. A. Robb, J. R. Cheeseman, G. Scalmani, V. Barone, 
 G. A. Petersson, H. Nakatsuji, X. Li, M. Caricato, A. V. Marenich, 
 J. Bloino, B. G. Janesko, R. Gomperts, B. Mennucci, H. P. Hratchian, 
 J. V. Ortiz, A. F. Izmaylov, J. L. Sonnenberg, D. Williams-Young, 
 F. Ding, F. Lipparini, F. Egidi, J. Goings, B. Peng, A. Petrone, 
 T. Henderson, D. Ranasinghe, V. G. Zakrzewski, J. Gao, N. Rega, 
 G. Zheng, W. Liang, M. Hada, M. Ehara, K. Toyota, R. Fukuda, 
 J. Hasegawa, M. Ishida, T. Nakajima, Y. Honda, O. Kitao, H. Nakai, 
 T. Vreven, K. Throssell, J. A. Montgomery, Jr., J. E. Peralta, 
 F. Ogliaro, M. J. Bearpark, J. J. Heyd, E. N. Brothers, K. N. Kudin, 
 V. N. Staroverov, T. A. Keith, R. Kobayashi, J. Normand, 
 K. Raghavachari, A. P. Rendell, J. C. Burant, S. S. Iyengar, 
 J. Tomasi, M. Cossi, J. M. Millam, M. Klene, C. Adamo, R. Cammi, 
 J. W. Ochterski, R. L. Martin, K. Morokuma, O. Farkas, 
 J. B. Foresman, and D. J. Fox, Gaussian, Inc., Wallingford CT, 2016.
 
 ******************************************
 Gaussian 16:  EM64M-G16RevA.03 25-Dec-2016
                17-Sep-2025 
 ******************************************
 %mem=48GB
 %nprocshared=24
 Will use up to   24 processors via shared memory.
 %chk=cf3o.chk
 ----------------------------------------------------------
 # opt freq wb97xd/6-311+g(2d,2p) geom=connectivity scf=xqc
 ----------------------------------------------------------
 1/18=20,19=15,26=3,38=1,57=2/1,3;
 2/9=110,12=2,17=6,18=5,40=1/2;
 3/5=4,6=6,7=212,11=2,25=1,30=1,71=1,74=-58/1,2,3;
 4//1;
 5/5=2,8=3,13=1,38=5/2,8;
 6/7=2,8=2,9=2,10=2,28=1/1;
 7//1,2,3,16;
 1/18=20,19=15,26=3/3(2);
 2/9=110/2;
 99//99;
 2/9=110/2;
 3/5=4,6=6,7=212,11=2,25=1,30=1,71=1,74=-58/1,2,3;
 4/5=5,16=3,69=1/1;
 5/5=2,8=3,13=1,38=5/2,8;
 7//1,2,3,16;
 1/18=20,19=15,26=3/3(-5);
 2/9=110/2;
 6/7=2,8=2,9=2,10=2,19=2,28=1/1;
 99/9=1/99;
 -------------------
 Title Card Required
 -------------------
 Symbolic Z-matrix:
 Charge =  0 Multiplicity = 2
 C                    -0.00686   0.02262   0. 
 F                     0.78491   1.0801   -0.00013 
 F                     0.28241  -0.7265    1.07461 
 F                     0.28225  -0.72665  -1.07455 
 O                    -1.27981   0.44244   0.00006 
 

 GradGradGradGradGradGradGradGradGradGradGradGradGradGradGradGradGradGrad
 Berny optimization.
 Initialization pass.
                           ----------------------------
                           !    Initial Parameters    !
                           ! (Angstroms and Degrees)  !
 --------------------------                            --------------------------
 ! Name  Definition              Value          Derivative Info.                !
 --------------------------------------------------------------------------------
 ! R1    R(1,2)                  1.321          estimate D2E/DX2                !
 ! R2    R(1,3)                  1.3415         estimate D2E/DX2                !
 ! R3    R(1,4)                  1.3415         estimate D2E/DX2                !
 ! R4    R(1,5)                  1.3404         estimate D2E/DX2                !
 ! A1    A(2,1,3)              108.5325         estimate D2E/DX2                !
 ! A2    A(2,1,4)              108.5328         estimate D2E/DX2                !
 ! A3    A(2,1,5)              108.5709         estimate D2E/DX2                !
 ! A4    A(3,1,4)              106.4559         estimate D2E/DX2                !
 ! A5    A(3,1,5)              112.3116         estimate D2E/DX2                !
 ! A6    A(4,1,5)              112.3114         estimate D2E/DX2                !
 ! D1    D(2,1,4,3)            116.6517         estimate D2E/DX2                !
 ! D2    D(2,1,5,3)           -120.0204         estimate D2E/DX2                !
 ! D3    D(2,1,5,4)            120.0206         estimate D2E/DX2                !
 ! D4    D(3,1,5,4)           -119.959          estimate D2E/DX2                !
 --------------------------------------------------------------------------------
 Trust Radius=3.00D-01 FncErr=1.00D-07 GrdErr=1.00D-06 EigMax=2.50D+02 EigMin=1.00D-04
 Number of steps in this run=     24 maximum allowed number of steps=    100.
 GradGradGradGradGradGradGradGradGradGradGradGradGradGradGradGradGradGrad

                          Input orientation:                          
 ---------------------------------------------------------------------
 Center     Atomic      Atomic             Coordinates (Angstroms)
 Number     Number       Type             X           Y           Z
 ---------------------------------------------------------------------
      1          6           0       -0.006861    0.022620    0.000001
      2          9           0        0.784908    1.080101   -0.000131
      3          9           0        0.282412   -0.726495    1.074611
      4          9           0        0.282250   -0.726649   -1.074546
      5          8           0       -1.279812    0.442437    0.000064
 ---------------------------------------------------------------------
                    Distance matrix (angstroms):
                    1          2          3          4          5
     1  C    0.000000
     2  F    1.321047   0.000000
     3  F    1.341506   2.161333   0.000000
     4  F    1.341507   2.161337   2.149157   0.000000
     5  O    1.340392   2.160945   2.227464   2.227462   0.000000
 Stoichiometry    CF3O(2)
 Framework group  C1[X(CF3O)]
 Deg. of freedom     9
 Full point group                 C1      NOp   1
 Largest Abelian subgroup         C1      NOp   1
 Largest concise Abelian subgroup C1      NOp   1
                         Standard orientation:                         
 ---------------------------------------------------------------------
 Center     Atomic      Atomic             Coordinates (Angstroms)
 Number     Number       Type             X           Y           Z
 ---------------------------------------------------------------------
      1          6           0       -0.031011   -0.000003    0.044761
      2          9           0       -0.775597    0.000057   -1.046456
      3          9           0        0.771435    1.074585    0.013468
      4          9           0        0.771458   -1.074572    0.013342
      5          8           0       -0.839950   -0.000077    1.113531
 ---------------------------------------------------------------------
 Rotational constants (GHZ):           5.9890662           5.8774031           5.6558911
 Standard basis: 6-311+G(2d,2p) (5D, 7F)
 There are   145 symmetry adapted cartesian basis functions of A   symmetry.
 There are   135 symmetry adapted basis functions of A   symmetry.
   135 basis functions,   210 primitive gaussians,   145 cartesian basis functions
    21 alpha electrons       20 beta electrons
       nuclear repulsion energy       194.6328383661 Hartrees.
 NAtoms=    5 NActive=    5 NUniq=    5 SFac= 1.00D+00 NAtFMM=   60 NAOKFM=F Big=F
 Integral buffers will be    131072 words long.
 Raffenetti 2 integral format.
 Two-electron integral symmetry is turned on.
 Nuclear repulsion after empirical dispersion term =      194.6325197098 Hartrees.
 One-electron integrals computed using PRISM.
 NBasis=   135 RedAO= T EigKep=  1.42D-03  NBF=   135
 NBsUse=   135 1.00D-06 EigRej= -1.00D+00 NBFU=   135
 ExpMin= 4.38D-02 ExpMax= 1.14D+04 ExpMxC= 1.72D+03 IAcc=3 IRadAn=         5 AccDes= 0.00D+00
 Harris functional with IExCor= 4639 and IRadAn=       5 diagonalized for initial guess.
 HarFok:  IExCor= 4639 AccDes= 0.00D+00 IRadAn=         5 IDoV= 1 UseB2=F ITyADJ=14
 ICtDFT=  3500011 ScaDFX=  1.000000  1.000000  1.000000  1.000000
 FoFCou: FMM=F IPFlag=           0 FMFlag=      100000 FMFlg1=           0
         NFxFlg=           0 DoJE=T BraDBF=F KetDBF=T FulRan=T
         wScrn=  0.000000 ICntrl=       500 IOpCl=  0 I1Cent=   200000004 NGrid=           0
         NMat0=    1 NMatS0=      1 NMatT0=    0 NMatD0=    1 NMtDS0=    0 NMtDT0=    0
 Petite list used in FoFCou.
 Initial guess <Sx>= 0.0000 <Sy>= 0.0000 <Sz>= 0.5000 <S**2>= 0.7500 S= 0.5000
 Keep R1 and R2 ints in memory in canonical form, NReq=191860627.
 Requested convergence on RMS density matrix=1.00D-08 within  32 cycles.
 Requested convergence on MAX density matrix=1.00D-06.
 Requested convergence on             energy=1.00D-06.
 No special actions if energy rises.
 SCF Done:  E(UwB97XD) =  -412.799447883     A.U. after   15 cycles
            NFock= 15  Conv=0.43D-08     -V/T= 2.0025
 <Sx>= 0.0000 <Sy>= 0.0000 <Sz>= 0.5000 <S**2>= 0.7530 S= 0.5015
 <L.S>= 0.000000000000E+00
 Annihilation of the first spin contaminant:
 S**2 before annihilation     0.7530,   after     0.7500
 QCSCF skips out because SCF is already converged.

 **********************************************************************

            Population analysis using the SCF density.

 **********************************************************************

 Orbital symmetries:
 Alpha Orbitals:
       Occupied  (A) (A) (A) (A) (A) (A) (A) (A) (A) (A) (A) (A)
                 (A) (A) (A) (A) (A) (A) (A) (A) (A)
       Virtual   (A) (A) (A) (A) (A) (A) (A) (A) (A) (A) (A) (A)
                 (A) (A) (A) (A) (A) (A) (A) (A) (A) (A) (A) (A)
                 (A) (A) (A) (A) (A) (A) (A) (A) (A) (A) (A) (A)
                 (A) (A) (A) (A) (A) (A) (A) (A) (A) (A) (A) (A)
                 (A) (A) (A) (A) (A) (A) (A) (A) (A) (A) (A) (A)
                 (A) (A) (A) (A) (A) (A) (A) (A) (A) (A) (A) (A)
                 (A) (A) (A) (A) (A) (A) (A) (A) (A) (A) (A) (A)
                 (A) (A) (A) (A) (A) (A) (A) (A) (A) (A) (A) (A)
                 (A) (A) (A) (A) (A) (A) (A) (A) (A) (A) (A) (A)
                 (A) (A) (A) (A) (A) (A)
 Beta  Orbitals:
       Occupied  (A) (A) (A) (A) (A) (A) (A) (A) (A) (A) (A) (A)
                 (A) (A) (A) (A) (A) (A) (A) (A)
       Virtual   (A) (A) (A) (A) (A) (A) (A) (A) (A) (A) (A) (A)
                 (A) (A) (A) (A) (A) (A) (A) (A) (A) (A) (A) (A)
                 (A) (A) (A) (A) (A) (A) (A) (A) (A) (A) (A) (A)
                 (A) (A) (A) (A) (A) (A) (A) (A) (A) (A) (A) (A)
                 (A) (A) (A) (A) (A) (A) (A) (A) (A) (A) (A) (A)
                 (A) (A) (A) (A) (A) (A) (A) (A) (A) (A) (A) (A)
                 (A) (A) (A) (A) (A) (A) (A) (A) (A) (A) (A) (A)
                 (A) (A) (A) (A) (A) (A) (A) (A) (A) (A) (A) (A)
                 (A) (A) (A) (A) (A) (A) (A) (A) (A) (A) (A) (A)
                 (A) (A) (A) (A) (A) (A) (A)
 The electronic state is 2-A.
 Alpha  occ. eigenvalues --  -24.89273 -24.87118 -24.87117 -19.39465 -10.61616
 Alpha  occ. eigenvalues --   -1.47725  -1.38261  -1.36496  -1.23411  -0.82798
 Alpha  occ. eigenvalues --   -0.74929  -0.73629  -0.70604  -0.61369  -0.60335
 Alpha  occ. eigenvalues --   -0.57993  -0.56495  -0.56337  -0.53954  -0.53610
 Alpha  occ. eigenvalues --   -0.49454
 Alpha virt. eigenvalues --    0.07620   0.10288   0.10486   0.10612   0.22112
 Alpha virt. eigenvalues --    0.22335   0.22819   0.26262   0.26926   0.27681
 Alpha virt. eigenvalues --    0.30772   0.30951   0.31103   0.32704   0.35960
 Alpha virt. eigenvalues --    0.37098   0.37196   0.38272   0.38534   0.39715
 Alpha virt. eigenvalues --    0.41061   0.46192   0.48432   0.48978   0.67839
 Alpha virt. eigenvalues --    0.69553   0.69736   0.89455   0.89836   0.96277
 Alpha virt. eigenvalues --    1.04399   1.05285   1.07050   1.17748   1.17865
 Alpha virt. eigenvalues --    1.18041   1.28759   1.30905   1.38508   1.39944
 Alpha virt. eigenvalues --    1.40711   1.45040   1.51779   1.51845   1.52930
 Alpha virt. eigenvalues --    1.59483   1.62576   1.63028   1.83161   1.83874
 Alpha virt. eigenvalues --    1.94220   1.95907   2.01930   2.03048   2.04279
 Alpha virt. eigenvalues --    2.07760   2.13561   2.15349   2.15921   2.21891
 Alpha virt. eigenvalues --    2.38204   2.50198   2.52506   2.63557   2.64969
 Alpha virt. eigenvalues --    2.69265   2.98277   3.14591   3.18385   3.34923
 Alpha virt. eigenvalues --    3.37053   3.49345   3.49974   3.51234   3.81884
 Alpha virt. eigenvalues --    4.22230   4.23258   4.99912   5.04476   5.67215
 Alpha virt. eigenvalues --    6.33472   6.33581   6.41334   6.41649   6.42820
 Alpha virt. eigenvalues --    6.42872   6.57793   6.68450   6.69881   6.83289
 Alpha virt. eigenvalues --    6.83524   7.08817   7.09696   7.19316   9.06818
 Alpha virt. eigenvalues --    9.08059   9.09495   9.20248   9.20519   9.21660
 Alpha virt. eigenvalues --    9.22156   9.32145   9.34318   9.48842   9.66288
 Alpha virt. eigenvalues --    9.72608   9.75406   9.82343   9.83209  24.01527
 Alpha virt. eigenvalues --   49.92011  66.90018  66.91938  66.95578
  Beta  occ. eigenvalues --  -24.89065 -24.87072 -24.87072 -19.37326 -10.61698
  Beta  occ. eigenvalues --   -1.47294  -1.37897  -1.36384  -1.17166  -0.82073
  Beta  occ. eigenvalues --   -0.73617  -0.73456  -0.68538  -0.59974  -0.59812
  Beta  occ. eigenvalues --   -0.56394  -0.56005  -0.54960  -0.53431  -0.46988
  Beta virt. eigenvalues --   -0.16464   0.07646   0.10399   0.10582   0.10616
  Beta virt. eigenvalues --    0.22026   0.22646   0.22955   0.26449   0.27877
  Beta virt. eigenvalues --    0.28560   0.31008   0.31090   0.31477   0.33884
  Beta virt. eigenvalues --    0.36190   0.37174   0.37255   0.38265   0.38487
  Beta virt. eigenvalues --    0.39705   0.41256   0.46177   0.48430   0.49040
  Beta virt. eigenvalues --    0.67879   0.69699   0.69737   0.89752   0.91218
  Beta virt. eigenvalues --    0.96370   1.05922   1.07794   1.09164   1.18270
  Beta virt. eigenvalues --    1.18674   1.19286   1.28983   1.30999   1.39287
  Beta virt. eigenvalues --    1.40145   1.40789   1.45098   1.52025   1.52096
  Beta virt. eigenvalues --    1.53356   1.61944   1.65621   1.66263   1.84600
  Beta virt. eigenvalues --    1.86447   1.94347   1.95967   2.02072   2.03194
  Beta virt. eigenvalues --    2.04342   2.07950   2.13707   2.15839   2.16007
  Beta virt. eigenvalues --    2.21929   2.40444   2.50860   2.52961   2.63553
  Beta virt. eigenvalues --    2.64986   2.69341   2.98500   3.14910   3.19449
  Beta virt. eigenvalues --    3.34710   3.36923   3.49355   3.49904   3.51282
  Beta virt. eigenvalues --    3.82337   4.22382   4.23203   5.06727   5.11123
  Beta virt. eigenvalues --    5.69360   6.33771   6.33917   6.41539   6.42060
  Beta virt. eigenvalues --    6.42911   6.43151   6.58164   6.72416   6.76177
  Beta virt. eigenvalues --    6.87928   6.89841   7.11837   7.15945   7.23757
  Beta virt. eigenvalues --    9.07193   9.08365   9.09636   9.20505   9.20827
  Beta virt. eigenvalues --    9.21912   9.22388   9.32557   9.34574   9.49111
  Beta virt. eigenvalues --    9.66562   9.72843   9.75836   9.82694   9.83315
  Beta virt. eigenvalues --   24.01401  49.94623  66.90145  66.91970  66.95635
          Condensed to atoms (all electrons):
               1          2          3          4          5
     1  C    3.925299   0.238450   0.249061   0.249061   0.271931
     2  F    0.238450   9.037687  -0.000391  -0.000390  -0.000112
     3  F    0.249061  -0.000391   9.072640  -0.011952  -0.005295
     4  F    0.249061  -0.000390  -0.011952   9.072639  -0.005296
     5  O    0.271931  -0.000112  -0.005295  -0.005296   7.921600
          Atomic-Atomic Spin Densities.
               1          2          3          4          5
     1  C   -0.046927  -0.006081   0.002671   0.002671   0.014677
     2  F   -0.006081   0.076778  -0.000119  -0.000119  -0.013686
     3  F    0.002671  -0.000119   0.015510   0.000719  -0.004021
     4  F    0.002671  -0.000119   0.000719   0.015512  -0.004022
     5  O    0.014677  -0.013686  -0.004021  -0.004022   0.953747
 Mulliken charges and spin densities:
               1          2
     1  C    1.066198  -0.032988
     2  F   -0.275244   0.056773
     3  F   -0.304063   0.014760
     4  F   -0.304063   0.014762
     5  O   -0.182828   0.946694
 Sum of Mulliken charges =  -0.00000   1.00000
 Mulliken charges and spin densities with hydrogens summed into heavy atoms:
               1          2
     1  C    1.066198  -0.032988
     2  F   -0.275244   0.056773
     3  F   -0.304063   0.014760
     4  F   -0.304063   0.014762
     5  O   -0.182828   0.946694
 Electronic spatial extent (au):  <R**2>=            280.7080
 Charge=             -0.0000 electrons
 Dipole moment (field-independent basis, Debye):
    X=             -0.2640    Y=             -0.0000    Z=              0.0724  Tot=              0.2737
 Quadrupole moment (field-independent basis, Debye-Ang):
   XX=            -25.9146   YY=            -26.5617   ZZ=            -25.5980
   XY=             -0.0000   XZ=              0.4654   YZ=             -0.0001
 Traceless Quadrupole moment (field-independent basis, Debye-Ang):
   XX=              0.1102   YY=             -0.5369   ZZ=              0.4268
   XY=             -0.0000   XZ=              0.4654   YZ=             -0.0001
 Octapole moment (field-independent basis, Debye-Ang**2):
  XXX=              1.5337  YYY=              0.0003  ZZZ=             -3.3174  XYY=              0.0486
  XXY=              0.0001  XXZ=             -1.5779  XZZ=              2.4190  YZZ=             -0.0000
  YYZ=             -1.6645  XYZ=             -0.0001
 Hexadecapole moment (field-independent basis, Debye-Ang**3):
 XXXX=            -90.7911 YYYY=            -85.7749 ZZZZ=            -86.5583 XXXY=             -0.0002
 XXXZ=              2.8954 YYYX=             -0.0003 YYYZ=              0.0003 ZZZX=              4.3707
 ZZZY=             -0.0001 XXYY=            -29.6985 XXZZ=            -30.8195 YYZZ=            -29.6442
 XXYZ=              0.0001 YYXZ=              1.2803 ZZXY=             -0.0001
 N-N= 1.946325197098D+02 E-N=-1.370213716240D+03  KE= 4.117805352908D+02
                          Isotropic Fermi Contact Couplings
        Atom                 a.u.       MegaHertz       Gauss      10(-4) cm-1
     1  C(13)             -0.03167     -35.59773     -12.70215     -11.87412
     2  F(19)              0.01707      71.82633      25.62942      23.95869
     3  F(19)             -0.00213      -8.96789      -3.19997      -2.99137
     4  F(19)             -0.00213      -8.96531      -3.19905      -2.99051
     5  O(17)              0.09776     -59.26256     -21.14635     -19.76786
 --------------------------------------------------------
       Center         ----  Spin Dipole Couplings  ----
                      3XX-RR        3YY-RR        3ZZ-RR
 --------------------------------------------------------
     1   Atom        0.006076     -0.037095      0.031019
     2   Atom       -0.182416     -0.244469      0.426885
     3   Atom       -0.060330     -0.016690      0.077020
     4   Atom       -0.060331     -0.016717      0.077048
     5   Atom        1.578743     -1.862682      0.283939
 --------------------------------------------------------
                        XY            XZ            YZ
 --------------------------------------------------------
     1   Atom        0.000003     -0.043416     -0.000005
     2   Atom        0.000012     -0.215448     -0.000038
     3   Atom        0.029447     -0.038461     -0.084724
     4   Atom       -0.029450     -0.038478      0.084719
     5   Atom       -0.000224      2.740969     -0.000176
 --------------------------------------------------------


 ---------------------------------------------------------------------------------
              Anisotropic Spin Dipole Couplings in Principal Axis System
 ---------------------------------------------------------------------------------

       Atom             a.u.   MegaHertz   Gauss  10(-4) cm-1        Axes

              Baa    -0.0371    -4.978    -1.776    -1.660  0.0000  1.0000  0.0001
     1 C(13)  Bbb    -0.0266    -3.573    -1.275    -1.192  0.7988 -0.0000  0.6016
              Bcc     0.0637     8.551     3.051     2.852 -0.6016 -0.0001  0.7988
 
              Baa    -0.2509  -126.009   -44.963   -42.032  0.9530  0.0000  0.3029
     2 F(19)  Bbb    -0.2445  -122.778   -43.810   -40.954 -0.0000  1.0000  0.0000
              Bcc     0.4954   248.787    88.774    82.987 -0.3029 -0.0001  0.9530
 
              Baa    -0.0756   -37.949   -13.541   -12.658  0.8208 -0.5616 -0.1049
     3 F(19)  Bbb    -0.0631   -31.668   -11.300   -10.563  0.5207  0.6597  0.5420
              Bcc     0.1386    69.616    24.841    23.222 -0.2351 -0.4995  0.8338
 
              Baa    -0.0756   -37.952   -13.542   -12.659  0.8207  0.5616 -0.1048
     4 F(19)  Bbb    -0.0631   -31.672   -11.301   -10.565 -0.5207  0.6597 -0.5419
              Bcc     0.1386    69.624    24.844    23.224 -0.2352  0.4993  0.8339
 
              Baa    -1.8850   136.401    48.671    45.498 -0.6205 -0.0000  0.7842
     5 O(17)  Bbb    -1.8627   134.782    48.094    44.959  0.0000  1.0000  0.0001
              Bcc     3.7477  -271.183   -96.765   -90.457  0.7842 -0.0001  0.6205
 

 ---------------------------------------------------------------------------------

 Calling FoFJK, ICntrl=      2127 FMM=F ISym2X=0 I1Cent= 0 IOpClX= 1 NMat=1 NMatS=1 NMatT=0.
 ***** Axes restored to original set *****
 -------------------------------------------------------------------
 Center     Atomic                   Forces (Hartrees/Bohr)
 Number     Number              X              Y              Z
 -------------------------------------------------------------------
      1        6           0.015990385   -0.019446717    0.000000170
      2        9          -0.004138187    0.007434659   -0.000000492
      3        9          -0.005118099    0.003851431   -0.004663158
      4        9          -0.005117438    0.003852703    0.004663757
      5        8          -0.001616660    0.004307925   -0.000000278
 -------------------------------------------------------------------
 Cartesian Forces:  Max     0.019446717 RMS     0.007540970

 GradGradGradGradGradGradGradGradGradGradGradGradGradGradGradGradGradGrad
 Berny optimization.
 FormGI is forming the generalized inverse of G from B-inverse, IUseBI=4.
 Internal  Forces:  Max     0.008274698 RMS     0.004570419
 Search for a local minimum.
 Step number   1 out of a maximum of   24
 All quantities printed in internal units (Hartrees-Bohrs-Radians)
 Mixed Optimization -- RFO/linear search
 Second derivative matrix not updated -- first step.
 The second derivative matrix:
                          R1        R2        R3        R4        A1
           R1           0.61671
           R2           0.00000   0.56869
           R3           0.00000   0.00000   0.56869
           R4           0.00000   0.00000   0.00000   0.57117
           A1           0.00000   0.00000   0.00000   0.00000   0.25000
           A2           0.00000   0.00000   0.00000   0.00000   0.00000
           A3           0.00000   0.00000   0.00000   0.00000   0.00000
           A4           0.00000   0.00000   0.00000   0.00000   0.00000
           A5           0.00000   0.00000   0.00000   0.00000   0.00000
           A6           0.00000   0.00000   0.00000   0.00000   0.00000
           D1           0.00000   0.00000   0.00000   0.00000   0.00000
           D2           0.00000   0.00000   0.00000   0.00000   0.00000
           D3           0.00000   0.00000   0.00000   0.00000   0.00000
           D4           0.00000   0.00000   0.00000   0.00000   0.00000
                          A2        A3        A4        A5        A6
           A2           0.25000
           A3           0.00000   0.25000
           A4           0.00000   0.00000   0.25000
           A5           0.00000   0.00000   0.00000   0.25000
           A6           0.00000   0.00000   0.00000   0.00000   0.25000
           D1           0.00000   0.00000   0.00000   0.00000   0.00000
           D2           0.00000   0.00000   0.00000   0.00000   0.00000
           D3           0.00000   0.00000   0.00000   0.00000   0.00000
           D4           0.00000   0.00000   0.00000   0.00000   0.00000
                          D1        D2        D3        D4
           D1           0.02201
           D2           0.00000   0.02480
           D3           0.00000   0.00000   0.02480
           D4           0.00000   0.00000   0.00000   0.02480
 ITU=  0
     Eigenvalues ---    0.09060   0.09809   0.15247   0.25000   0.25000
     Eigenvalues ---    0.56869   0.56869   0.57117   0.61671
 RFO step:  Lambda=-1.27072737D-03 EMin= 9.06010559D-02
 Linear search not attempted -- first point.
 Iteration  1 RMS(Cart)=  0.01938538 RMS(Int)=  0.00053412
 Iteration  2 RMS(Cart)=  0.00041805 RMS(Int)=  0.00034790
 Iteration  3 RMS(Cart)=  0.00000003 RMS(Int)=  0.00034790
 Variable       Old X    -DE/DX   Delta X   Delta X   Delta X     New X
                                 (Linear)    (Quad)   (Total)
    R1        2.49642   0.00347   0.00000   0.00562   0.00562   2.50203
    R2        2.53508  -0.00699   0.00000  -0.01226  -0.01226   2.52282
    R3        2.53508  -0.00699   0.00000  -0.01226  -0.01226   2.52282
    R4        2.53297   0.00288   0.00000   0.00504   0.00504   2.53801
    A1        1.89425   0.00306   0.00000   0.02416   0.02332   1.91757
    A2        1.89425   0.00539   0.00000   0.02692   0.02634   1.92059
    A3        1.89492  -0.00827   0.00000  -0.04554  -0.04560   1.84932
    A4        1.85801   0.00215   0.00000   0.01934   0.01911   1.87712
    A5        1.96021  -0.00020   0.00000  -0.01036  -0.01023   1.94998
    A6        1.96020  -0.00151   0.00000  -0.01057  -0.01054   1.94967
    D1        2.03596   0.00739   0.00000   0.05173   0.05246   2.08841
    D2       -2.09475   0.00183   0.00000   0.00673   0.00675  -2.08801
    D3        2.09475   0.00026   0.00000  -0.00341  -0.00325   2.09150
    D4       -2.09368  -0.00157   0.00000  -0.01014  -0.01000  -2.10368
         Item               Value     Threshold  Converged?
 Maximum Force            0.008275     0.000450     NO 
 RMS     Force            0.004570     0.000300     NO 
 Maximum Displacement     0.034589     0.001800     NO 
 RMS     Displacement     0.019397     0.001200     NO 
 Predicted change in Energy=-6.482332D-04
 GradGradGradGradGradGradGradGradGradGradGradGradGradGradGradGradGradGrad

                          Input orientation:                          
 ---------------------------------------------------------------------
 Center     Atomic      Atomic             Coordinates (Angstroms)
 Number     Number       Type             X           Y           Z
 ---------------------------------------------------------------------
      1          6           0        0.008107    0.010908   -0.000412
      2          9           0        0.767411    1.095566    0.000881
      3          9           0        0.275025   -0.731078    1.076844
      4          9           0        0.273862   -0.732334   -1.077089
      5          8           0       -1.261509    0.448952   -0.000226
 ---------------------------------------------------------------------
                    Distance matrix (angstroms):
                    1          2          3          4          5
     1  C    0.000000
     2  F    1.324019   0.000000
     3  F    1.335017   2.176412   0.000000
     4  F    1.335017   2.178722   2.153934   0.000000
     5  O    1.343059   2.129466   2.216638   2.216401   0.000000
 Stoichiometry    CF3O(2)
 Framework group  C1[X(CF3O)]
 Deg. of freedom     9
 Full point group                 C1      NOp   1
 Largest Abelian subgroup         C1      NOp   1
 Largest concise Abelian subgroup C1      NOp   1
                         Standard orientation:                         
 ---------------------------------------------------------------------
 Center     Atomic      Atomic             Coordinates (Angstroms)
 Number     Number       Type             X           Y           Z
 ---------------------------------------------------------------------
      1          6           0       -0.009675   -0.001046    0.034620
      2          9           0       -0.917771    0.001157   -0.928906
      3          9           0        0.756535    1.087965   -0.061545
      4          9           0        0.786353   -1.065584   -0.089350
      5          8           0       -0.696001   -0.025695    1.188810
 ---------------------------------------------------------------------
 Rotational constants (GHZ):           6.0731292           5.9045982           5.5832929
 Standard basis: 6-311+G(2d,2p) (5D, 7F)
 There are   145 symmetry adapted cartesian basis functions of A   symmetry.
 There are   135 symmetry adapted basis functions of A   symmetry.
   135 basis functions,   210 primitive gaussians,   145 cartesian basis functions
    21 alpha electrons       20 beta electrons
       nuclear repulsion energy       194.8434220225 Hartrees.
 NAtoms=    5 NActive=    5 NUniq=    5 SFac= 1.00D+00 NAtFMM=   60 NAOKFM=F Big=F
 Integral buffers will be    131072 words long.
 Raffenetti 2 integral format.
 Two-electron integral symmetry is turned on.
 Nuclear repulsion after empirical dispersion term =      194.8431040829 Hartrees.
 One-electron integrals computed using PRISM.
 NBasis=   135 RedAO= T EigKep=  1.41D-03  NBF=   135
 NBsUse=   135 1.00D-06 EigRej= -1.00D+00 NBFU=   135
 Initial guess from the checkpoint file:  "cf3o.chk"
 B after Tr=    -0.000000   -0.000000   -0.000000
         Rot=    0.997990   -0.006266   -0.062665   -0.007121 Ang=  -7.27 deg.
 Initial guess <Sx>= 0.0000 <Sy>= 0.0000 <Sz>= 0.5000 <S**2>= 0.7530 S= 0.5015
 ExpMin= 4.38D-02 ExpMax= 1.14D+04 ExpMxC= 1.72D+03 IAcc=2 IRadAn=         4 AccDes= 0.00D+00
 Harris functional with IExCor= 4639 and IRadAn=       4 diagonalized for initial guess.
 HarFok:  IExCor= 4639 AccDes= 0.00D+00 IRadAn=         4 IDoV= 1 UseB2=F ITyADJ=14
 ICtDFT=  3500011 ScaDFX=  1.000000  1.000000  1.000000  1.000000
 FoFCou: FMM=F IPFlag=           0 FMFlag=      100000 FMFlg1=           0
         NFxFlg=           0 DoJE=T BraDBF=F KetDBF=T FulRan=T
         wScrn=  0.000000 ICntrl=       500 IOpCl=  0 I1Cent=   200000004 NGrid=           0
         NMat0=    1 NMatS0=      1 NMatT0=    0 NMatD0=    1 NMtDS0=    0 NMtDT0=    0
 Petite list used in FoFCou.
 Keep R1 and R2 ints in memory in canonical form, NReq=191860627.
 Requested convergence on RMS density matrix=1.00D-08 within  32 cycles.
 Requested convergence on MAX density matrix=1.00D-06.
 Requested convergence on             energy=1.00D-06.
 No special actions if energy rises.
 SCF Done:  E(UwB97XD) =  -412.800067068     A.U. after   18 cycles
            NFock= 18  Conv=0.24D-08     -V/T= 2.0024
 <Sx>= 0.0000 <Sy>= 0.0000 <Sz>= 0.5000 <S**2>= 0.7530 S= 0.5015
 <L.S>= 0.000000000000E+00
 Annihilation of the first spin contaminant:
 S**2 before annihilation     0.7530,   after     0.7500
 QCSCF skips out because SCF is already converged.
 Calling FoFJK, ICntrl=      2127 FMM=F ISym2X=0 I1Cent= 0 IOpClX= 1 NMat=1 NMatS=1 NMatT=0.
 ***** Axes restored to original set *****
 -------------------------------------------------------------------
 Center     Atomic                   Forces (Hartrees/Bohr)
 Number     Number              X              Y              Z
 -------------------------------------------------------------------
      1        6           0.001166123   -0.009377336    0.000329162
      2        9           0.002055284    0.001438482   -0.000278312
      3        9           0.000745376    0.002410708   -0.004487435
      4        9           0.000792629    0.002793688    0.004557042
      5        8          -0.004759412    0.002734458   -0.000120457
 -------------------------------------------------------------------
 Cartesian Forces:  Max     0.009377336 RMS     0.003479665

 GradGradGradGradGradGradGradGradGradGradGradGradGradGradGradGradGradGrad
 Berny optimization.
 Using GEDIIS/GDIIS optimizer.
 FormGI is forming the generalized inverse of G from B-inverse, IUseBI=4.
 Internal  Forces:  Max     0.005390997 RMS     0.002671486
 Search for a local minimum.
 Step number   2 out of a maximum of   24
 All quantities printed in internal units (Hartrees-Bohrs-Radians)
 Mixed Optimization -- RFO/linear search
 Update second derivatives using D2CorX and points    1    2
 DE= -6.19D-04 DEPred=-6.48D-04 R= 9.55D-01
 TightC=F SS=  1.41D+00  RLast= 8.46D-02 DXNew= 5.0454D-01 2.5391D-01
 Trust test= 9.55D-01 RLast= 8.46D-02 DXMaxT set to 3.00D-01
 The second derivative matrix:
                          R1        R2        R3        R4        A1
           R1           0.60802
           R2           0.01756   0.53323
           R3           0.01778  -0.03589   0.53240
           R4          -0.01016   0.02033   0.01983   0.56934
           A1          -0.01338   0.02710   0.02777  -0.01991   0.23123
           A2          -0.01270   0.02591   0.02722  -0.02791  -0.01400
           A3           0.02507  -0.05086  -0.05243   0.04140   0.03344
           A4          -0.00996   0.02025   0.02103  -0.01858  -0.01238
           A5           0.00546  -0.01109  -0.01148   0.00964   0.00702
           A6           0.00438  -0.00900  -0.00969   0.01274   0.00351
           D1           0.00488  -0.00934  -0.00745  -0.02087   0.01879
           D2           0.00139  -0.00270  -0.00226  -0.00457   0.00478
           D3           0.00101  -0.00198  -0.00180  -0.00158   0.00272
           D4          -0.00038   0.00071   0.00046   0.00299  -0.00205
                          A2        A3        A4        A5        A6
           A2           0.24841
           A3           0.02091   0.19227
           A4          -0.00555   0.02038   0.24337
           A5           0.00374  -0.01183   0.00401   0.24763
           A6          -0.00349  -0.00348  -0.00023  -0.00028   0.25356
           D1           0.04166  -0.04605   0.02391  -0.01168  -0.02258
           D2           0.01009  -0.01148   0.00587  -0.00289  -0.00540
           D3           0.00506  -0.00623   0.00306  -0.00153  -0.00260
           D4          -0.00503   0.00525  -0.00281   0.00136   0.00280
                          D1        D2        D3        D4
           D1           0.08952
           D2           0.01560   0.02840
           D3           0.00672   0.00154   0.02544
           D4          -0.00888  -0.00206  -0.00090   0.02596
 ITU=  1  0
 Use linear search instead of GDIIS.
     Eigenvalues ---    0.09409   0.09893   0.17858   0.23514   0.26131
     Eigenvalues ---    0.50574   0.56869   0.58315   0.61386
 RFO step:  Lambda=-2.31104177D-04 EMin= 9.40904249D-02
 Quartic linear search produced a step of -0.02371.
 Iteration  1 RMS(Cart)=  0.00670104 RMS(Int)=  0.00003696
 Iteration  2 RMS(Cart)=  0.00002569 RMS(Int)=  0.00002626
 Iteration  3 RMS(Cart)=  0.00000000 RMS(Int)=  0.00002626
 Variable       Old X    -DE/DX   Delta X   Delta X   Delta X     New X
                                 (Linear)    (Quad)   (Total)
    R1        2.50203   0.00236  -0.00013   0.00491   0.00478   2.50681
    R2        2.52282  -0.00481   0.00029  -0.01084  -0.01055   2.51227
    R3        2.52282  -0.00507   0.00029  -0.01128  -0.01099   2.51182
    R4        2.53801   0.00539  -0.00012   0.01026   0.01014   2.54815
    A1        1.91757  -0.00027  -0.00055  -0.00012  -0.00064   1.91693
    A2        1.92059  -0.00119  -0.00062  -0.00291  -0.00351   1.91708
    A3        1.84932  -0.00048   0.00108  -0.00947  -0.00836   1.84096
    A4        1.87712  -0.00175  -0.00045  -0.00319  -0.00370   1.87342
    A5        1.94998   0.00173   0.00024   0.00837   0.00860   1.95858
    A6        1.94967   0.00194   0.00025   0.00721   0.00744   1.95710
    D1        2.08841  -0.00206  -0.00124  -0.00372  -0.00496   2.08345
    D2       -2.08801  -0.00034  -0.00016   0.00137   0.00123  -2.08677
    D3        2.09150  -0.00066   0.00008  -0.00541  -0.00535   2.08615
    D4       -2.10368  -0.00032   0.00024  -0.00678  -0.00659  -2.11027
         Item               Value     Threshold  Converged?
 Maximum Force            0.005391     0.000450     NO 
 RMS     Force            0.002671     0.000300     NO 
 Maximum Displacement     0.011955     0.001800     NO 
 RMS     Displacement     0.006706     0.001200     NO 
 Predicted change in Energy=-1.160708D-04
 GradGradGradGradGradGradGradGradGradGradGradGradGradGradGradGradGradGrad

                          Input orientation:                          
 ---------------------------------------------------------------------
 Center     Atomic      Atomic             Coordinates (Angstroms)
 Number     Number       Type             X           Y           Z
 ---------------------------------------------------------------------
      1          6           0        0.006575    0.006862    0.000169
      2          9           0        0.765530    1.094849   -0.000021
      3          9           0        0.278428   -0.732509    1.071069
      4          9           0        0.277500   -0.732377   -1.070763
      5          8           0       -1.265136    0.455190   -0.000455
 ---------------------------------------------------------------------
                    Distance matrix (angstroms):
                    1          2          3          4          5
     1  C    0.000000
     2  F    1.326547   0.000000
     3  F    1.329436   2.173416   0.000000
     4  F    1.329199   2.173342   2.141832   0.000000
     5  O    1.348424   2.129030   2.222922   2.221621   0.000000
 Stoichiometry    CF3O(2)
 Framework group  C1[X(CF3O)]
 Deg. of freedom     9
 Full point group                 C1      NOp   1
 Largest Abelian subgroup         C1      NOp   1
 Largest concise Abelian subgroup C1      NOp   1
                         Standard orientation:                         
 ---------------------------------------------------------------------
 Center     Atomic      Atomic             Coordinates (Angstroms)
 Number     Number       Type             X           Y           Z
 ---------------------------------------------------------------------
      1          6           0       -0.007663   -0.000108    0.036860
      2          9           0       -0.873011    0.012844   -0.968493
      3          9           0        0.781584    1.067377   -0.033606
      4          9           0        0.770163   -1.074352   -0.051213
      5          8           0       -0.757830   -0.006522    1.157331
 ---------------------------------------------------------------------
 Rotational constants (GHZ):           6.1028973           5.8865152           5.6029776
 Standard basis: 6-311+G(2d,2p) (5D, 7F)
 There are   145 symmetry adapted cartesian basis functions of A   symmetry.
 There are   135 symmetry adapted basis functions of A   symmetry.
   135 basis functions,   210 primitive gaussians,   145 cartesian basis functions
    21 alpha electrons       20 beta electrons
       nuclear repulsion energy       195.0135344170 Hartrees.
 NAtoms=    5 NActive=    5 NUniq=    5 SFac= 1.00D+00 NAtFMM=   60 NAOKFM=F Big=F
 Integral buffers will be    131072 words long.
 Raffenetti 2 integral format.
 Two-electron integral symmetry is turned on.
 Nuclear repulsion after empirical dispersion term =      195.0132181578 Hartrees.
 One-electron integrals computed using PRISM.
 NBasis=   135 RedAO= T EigKep=  1.41D-03  NBF=   135
 NBsUse=   135 1.00D-06 EigRej= -1.00D+00 NBFU=   135
 Initial guess from the checkpoint file:  "cf3o.chk"
 B after Tr=     0.000000   -0.000000   -0.000000
         Rot=    0.999682    0.002372    0.023242    0.009531 Ang=   2.89 deg.
 Initial guess <Sx>= 0.0000 <Sy>= 0.0000 <Sz>= 0.5000 <S**2>= 0.7531 S= 0.5015
 Keep R1 and R2 ints in memory in canonical form, NReq=191860627.
 Requested convergence on RMS density matrix=1.00D-08 within  32 cycles.
 Requested convergence on MAX density matrix=1.00D-06.
 Requested convergence on             energy=1.00D-06.
 No special actions if energy rises.
 SCF Done:  E(UwB97XD) =  -412.800205265     A.U. after   18 cycles
            NFock= 18  Conv=0.17D-08     -V/T= 2.0024
 <Sx>= 0.0000 <Sy>= 0.0000 <Sz>= 0.5000 <S**2>= 0.7531 S= 0.5015
 <L.S>= 0.000000000000E+00
 Annihilation of the first spin contaminant:
 S**2 before annihilation     0.7531,   after     0.7500
 QCSCF skips out because SCF is already converged.
 Calling FoFJK, ICntrl=      2127 FMM=F ISym2X=0 I1Cent= 0 IOpClX= 1 NMat=1 NMatS=1 NMatT=0.
 ***** Axes restored to original set *****
 -------------------------------------------------------------------
 Center     Atomic                   Forces (Hartrees/Bohr)
 Number     Number              X              Y              Z
 -------------------------------------------------------------------
      1        6          -0.000261667   -0.003768903   -0.000023197
      2        9           0.001601720    0.001370322    0.000058392
      3        9          -0.000047682    0.001105332   -0.000513348
      4        9           0.000053705    0.000922422    0.000385654
      5        8          -0.001346077    0.000370827    0.000092498
 -------------------------------------------------------------------
 Cartesian Forces:  Max     0.003768903 RMS     0.001242802

 GradGradGradGradGradGradGradGradGradGradGradGradGradGradGradGradGradGrad
 Berny optimization.
 Using GEDIIS/GDIIS optimizer.
 FormGI is forming the generalized inverse of G from B-inverse, IUseBI=4.
 Internal  Forces:  Max     0.002040276 RMS     0.000809952
 Search for a local minimum.
 Step number   3 out of a maximum of   24
 All quantities printed in internal units (Hartrees-Bohrs-Radians)
 Mixed Optimization -- En-DIIS/RFO-DIIS
 Update second derivatives using D2CorX and points    1    2    3
 DE= -1.38D-04 DEPred=-1.16D-04 R= 1.19D+00
 TightC=F SS=  1.41D+00  RLast= 2.61D-02 DXNew= 5.0454D-01 7.8305D-02
 Trust test= 1.19D+00 RLast= 2.61D-02 DXMaxT set to 3.00D-01
 The second derivative matrix:
                          R1        R2        R3        R4        A1
           R1           0.58295
           R2           0.06341   0.50806
           R3           0.06522  -0.05625   0.51779
           R4          -0.05634   0.05319   0.04883   0.52956
           A1          -0.00470  -0.00094  -0.00243   0.00685   0.23069
           A2           0.00051  -0.00465  -0.00502   0.00218  -0.01735
           A3           0.03253  -0.02966  -0.02710   0.02437   0.02375
           A4           0.00051   0.02909   0.03289  -0.02382  -0.02188
           A5          -0.01602   0.00332   0.00102  -0.00811   0.01966
           A6          -0.01301   0.00113  -0.00131  -0.00032   0.01409
           D1          -0.00297   0.01590   0.01971  -0.04473   0.01911
           D2          -0.00144   0.00852   0.00992  -0.01505   0.00448
           D3           0.00069   0.00491   0.00594  -0.00769   0.00151
           D4           0.00213  -0.00361  -0.00398   0.00736  -0.00297
                          A2        A3        A4        A5        A6
           A2           0.24194
           A3           0.01340   0.21051
           A4          -0.01425   0.03402   0.25227
           A5           0.01786  -0.02029   0.00117   0.23973
           A6           0.00817  -0.01131  -0.00323  -0.00605   0.24942
           D1           0.04434  -0.03697   0.03222  -0.02291  -0.03190
           D2           0.01087  -0.00699   0.00989  -0.00784  -0.00956
           D3           0.00451  -0.00236   0.00619  -0.00446  -0.00513
           D4          -0.00636   0.00464  -0.00371   0.00338   0.00442
                          D1        D2        D3        D4
           D1           0.08874
           D2           0.01576   0.02868
           D3           0.00776   0.00214   0.02611
           D4          -0.00800  -0.00174  -0.00083   0.02571
 ITU=  1  1  0
 Use linear search instead of GDIIS.
     Eigenvalues ---    0.08555   0.09898   0.18181   0.25336   0.27475
     Eigenvalues ---    0.38808   0.56910   0.57459   0.63774
 RFO step:  Lambda=-2.08103927D-05 EMin= 8.55515418D-02
 Quartic linear search produced a step of  0.21674.
 Iteration  1 RMS(Cart)=  0.00208103 RMS(Int)=  0.00000802
 Iteration  2 RMS(Cart)=  0.00000477 RMS(Int)=  0.00000648
 Iteration  3 RMS(Cart)=  0.00000000 RMS(Int)=  0.00000648
 Variable       Old X    -DE/DX   Delta X   Delta X   Delta X     New X
                                 (Linear)    (Quad)   (Total)
    R1        2.50681   0.00204   0.00104   0.00368   0.00471   2.51153
    R2        2.51227  -0.00104  -0.00229  -0.00145  -0.00374   2.50853
    R3        2.51182  -0.00081  -0.00238  -0.00091  -0.00329   2.50853
    R4        2.54815   0.00139   0.00220   0.00186   0.00406   2.55221
    A1        1.91693  -0.00035  -0.00014  -0.00250  -0.00263   1.91429
    A2        1.91708  -0.00045  -0.00076  -0.00149  -0.00224   1.91484
    A3        1.84096   0.00056  -0.00181   0.00100  -0.00081   1.84015
    A4        1.87342   0.00048  -0.00080   0.00533   0.00451   1.87793
    A5        1.95858  -0.00027   0.00186  -0.00202  -0.00017   1.95842
    A6        1.95710  -0.00001   0.00161  -0.00061   0.00099   1.95809
    D1        2.08345  -0.00038  -0.00107  -0.00069  -0.00177   2.08168
    D2       -2.08677   0.00022   0.00027   0.00351   0.00379  -2.08298
    D3        2.08615  -0.00020  -0.00116  -0.00151  -0.00268   2.08347
    D4       -2.11027  -0.00042  -0.00143  -0.00502  -0.00646  -2.11673
         Item               Value     Threshold  Converged?
 Maximum Force            0.002040     0.000450     NO 
 RMS     Force            0.000810     0.000300     NO 
 Maximum Displacement     0.004453     0.001800     NO 
 RMS     Displacement     0.002080     0.001200     NO 
 Predicted change in Energy=-1.535134D-05
 GradGradGradGradGradGradGradGradGradGradGradGradGradGradGradGradGradGrad

                          Input orientation:                          
 ---------------------------------------------------------------------
 Center     Atomic      Atomic             Coordinates (Angstroms)
 Number     Number       Type             X           Y           Z
 ---------------------------------------------------------------------
      1          6           0        0.006341    0.004506   -0.000032
      2          9           0        0.767101    1.094276    0.000070
      3          9           0        0.278399   -0.730736    1.071207
      4          9           0        0.277933   -0.731046   -1.071175
      5          8           0       -1.266877    0.455015   -0.000070
 ---------------------------------------------------------------------
                    Distance matrix (angstroms):
                    1          2          3          4          5
     1  C    0.000000
     2  F    1.329042   0.000000
     3  F    1.327460   2.171827   0.000000
     4  F    1.327459   2.172245   2.142382   0.000000
     5  O    1.350571   2.132069   2.222952   2.222711   0.000000
 Stoichiometry    CF3O(2)
 Framework group  C1[X(CF3O)]
 Deg. of freedom     9
 Full point group                 C1      NOp   1
 Largest Abelian subgroup         C1      NOp   1
 Largest concise Abelian subgroup C1      NOp   1
                         Standard orientation:                         
 ---------------------------------------------------------------------
 Center     Atomic      Atomic             Coordinates (Angstroms)
 Number     Number       Type             X           Y           Z
 ---------------------------------------------------------------------
      1          6           0       -0.005496   -0.000214    0.037741
      2          9           0       -0.866443    0.003616   -0.974735
      3          9           0        0.773615    1.072170   -0.033866
      4          9           0        0.776014   -1.070191   -0.043111
      5          8           0       -0.764462   -0.006134    1.154871
 ---------------------------------------------------------------------
 Rotational constants (GHZ):           6.0922751           5.8860641           5.6087693
 Standard basis: 6-311+G(2d,2p) (5D, 7F)
 There are   145 symmetry adapted cartesian basis functions of A   symmetry.
 There are   135 symmetry adapted basis functions of A   symmetry.
   135 basis functions,   210 primitive gaussians,   145 cartesian basis functions
    21 alpha electrons       20 beta electrons
       nuclear repulsion energy       194.9884390586 Hartrees.
 NAtoms=    5 NActive=    5 NUniq=    5 SFac= 1.00D+00 NAtFMM=   60 NAOKFM=F Big=F
 Integral buffers will be    131072 words long.
 Raffenetti 2 integral format.
 Two-electron integral symmetry is turned on.
 Nuclear repulsion after empirical dispersion term =      194.9881226579 Hartrees.
 One-electron integrals computed using PRISM.
 NBasis=   135 RedAO= T EigKep=  1.42D-03  NBF=   135
 NBsUse=   135 1.00D-06 EigRej= -1.00D+00 NBFU=   135
 Initial guess from the checkpoint file:  "cf3o.chk"
 B after Tr=     0.000000   -0.000000    0.000000
         Rot=    0.999989    0.002032    0.002853   -0.003085 Ang=   0.53 deg.
 Initial guess <Sx>= 0.0000 <Sy>= 0.0000 <Sz>= 0.5000 <S**2>= 0.7531 S= 0.5015
 Keep R1 and R2 ints in memory in canonical form, NReq=191860627.
 Requested convergence on RMS density matrix=1.00D-08 within  32 cycles.
 Requested convergence on MAX density matrix=1.00D-06.
 Requested convergence on             energy=1.00D-06.
 No special actions if energy rises.
 SCF Done:  E(UwB97XD) =  -412.800222008     A.U. after   17 cycles
            NFock= 17  Conv=0.79D-09     -V/T= 2.0024
 <Sx>= 0.0000 <Sy>= 0.0000 <Sz>= 0.5000 <S**2>= 0.7531 S= 0.5015
 <L.S>= 0.000000000000E+00
 Annihilation of the first spin contaminant:
 S**2 before annihilation     0.7531,   after     0.7500
 QCSCF skips out because SCF is already converged.
 Calling FoFJK, ICntrl=      2127 FMM=F ISym2X=0 I1Cent= 0 IOpClX= 1 NMat=1 NMatS=1 NMatT=0.
 ***** Axes restored to original set *****
 -------------------------------------------------------------------
 Center     Atomic                   Forces (Hartrees/Bohr)
 Number     Number              X              Y              Z
 -------------------------------------------------------------------
      1        6          -0.000568298   -0.000418347    0.000033631
      2        9           0.000487738    0.000485478   -0.000041324
      3        9           0.000013439   -0.000013177    0.000019156
      4        9           0.000036475    0.000037560   -0.000009886
      5        8           0.000030646   -0.000091514   -0.000001578
 -------------------------------------------------------------------
 Cartesian Forces:  Max     0.000568298 RMS     0.000256550

 GradGradGradGradGradGradGradGradGradGradGradGradGradGradGradGradGradGrad
 Berny optimization.
 Using GEDIIS/GDIIS optimizer.
 FormGI is forming the generalized inverse of G from B-inverse, IUseBI=4.
 Internal  Forces:  Max     0.000677269 RMS     0.000191103
 Search for a local minimum.
 Step number   4 out of a maximum of   24
 All quantities printed in internal units (Hartrees-Bohrs-Radians)
 Mixed Optimization -- En-DIIS/RFO-DIIS
 Swapping is turned off.
 Update second derivatives using D2CorX and points    1    2    3    4
 DE= -1.67D-05 DEPred=-1.54D-05 R= 1.09D+00
 TightC=F SS=  1.41D+00  RLast= 1.28D-02 DXNew= 5.0454D-01 3.8406D-02
 Trust test= 1.09D+00 RLast= 1.28D-02 DXMaxT set to 3.00D-01
 The second derivative matrix:
                          R1        R2        R3        R4        A1
           R1           0.52149
           R2           0.08485   0.51627
           R3           0.08501  -0.05062   0.52130
           R4          -0.08260   0.04023   0.03864   0.54738
           A1           0.01990  -0.01240  -0.01204   0.02306   0.22016
           A2           0.01806  -0.00823  -0.00736   0.00934  -0.02725
           A3           0.03077  -0.03640  -0.03413   0.02865   0.02958
           A4          -0.02696   0.04607   0.04833  -0.04465  -0.01330
           A5          -0.01512   0.00247   0.00001  -0.00772   0.01996
           A6          -0.02406   0.00555   0.00226  -0.00562   0.01848
           D1           0.00971   0.01484   0.01954  -0.04586   0.01394
           D2           0.01271  -0.00617  -0.00255   0.00170   0.00239
           D3           0.00176   0.00757   0.00816  -0.01199   0.00074
           D4          -0.01094   0.01373   0.01071  -0.01370  -0.00165
                          A2        A3        A4        A5        A6
           A2           0.23256
           A3           0.02032   0.20225
           A4          -0.00726   0.03326   0.24267
           A5           0.01864  -0.02180   0.00180   0.23946
           A6           0.01143  -0.01254  -0.00818  -0.00591   0.24834
           D1           0.04274  -0.03816   0.04118  -0.02361  -0.03277
           D2           0.00905  -0.00679   0.01385  -0.00863  -0.00916
           D3           0.00520  -0.00415   0.00849  -0.00471  -0.00540
           D4          -0.00385   0.00265  -0.00536   0.00392   0.00376
                          D1        D2        D3        D4
           D1           0.09848
           D2           0.01620   0.03206
           D3           0.01010   0.00074   0.02698
           D4          -0.00610  -0.00652   0.00143   0.03275
 ITU=  1  1  1  0
     Eigenvalues ---    0.08951   0.09870   0.18132   0.25110   0.27581
     Eigenvalues ---    0.34840   0.56933   0.57317   0.64042
 En-DIIS/RFO-DIIS/Sim-DIIS IScMMF=       -3 using points:     4    3
 RFO step:  Lambda=-1.13145216D-06.
 DidBck=F Rises=F RFO-DIIS coefs:    1.06821   -0.06821
 Iteration  1 RMS(Cart)=  0.00045473 RMS(Int)=  0.00000021
 Iteration  2 RMS(Cart)=  0.00000011 RMS(Int)=  0.00000018
 Variable       Old X    -DE/DX   Delta X   Delta X   Delta X     New X
                                 (Linear)    (Quad)   (Total)
    R1        2.51153   0.00068   0.00032   0.00106   0.00138   2.51291
    R2        2.50853   0.00003  -0.00025   0.00009  -0.00017   2.50837
    R3        2.50853  -0.00001  -0.00022   0.00000  -0.00022   2.50831
    R4        2.55221  -0.00006   0.00028  -0.00020   0.00008   2.55229
    A1        1.91429  -0.00002  -0.00018   0.00009  -0.00009   1.91420
    A2        1.91484  -0.00010  -0.00015  -0.00042  -0.00057   1.91427
    A3        1.84015   0.00016  -0.00005   0.00064   0.00058   1.84074
    A4        1.87793   0.00002   0.00031  -0.00019   0.00012   1.87805
    A5        1.95842  -0.00004  -0.00001  -0.00003  -0.00004   1.95838
    A6        1.95809  -0.00001   0.00007  -0.00009  -0.00002   1.95808
    D1        2.08168  -0.00008  -0.00012  -0.00025  -0.00037   2.08132
    D2       -2.08298  -0.00005   0.00026  -0.00049  -0.00023  -2.08321
    D3        2.08347  -0.00003  -0.00018  -0.00016  -0.00034   2.08313
    D4       -2.11673   0.00002  -0.00044   0.00033  -0.00011  -2.11684
         Item               Value     Threshold  Converged?
 Maximum Force            0.000677     0.000450     NO 
 RMS     Force            0.000191     0.000300     YES
 Maximum Displacement     0.001209     0.001800     YES
 RMS     Displacement     0.000455     0.001200     YES
 Predicted change in Energy=-5.657313D-07
 GradGradGradGradGradGradGradGradGradGradGradGradGradGradGradGradGradGrad

                          Input orientation:                          
 ---------------------------------------------------------------------
 Center     Atomic      Atomic             Coordinates (Angstroms)
 Number     Number       Type             X           Y           Z
 ---------------------------------------------------------------------
      1          6           0        0.006156    0.004423    0.000033
      2          9           0        0.767740    1.094507   -0.000094
      3          9           0        0.278261   -0.730741    1.071202
      4          9           0        0.277935   -0.730855   -1.071106
      5          8           0       -1.267196    0.454679   -0.000037
 ---------------------------------------------------------------------
                    Distance matrix (angstroms):
                    1          2          3          4          5
     1  C    0.000000
     2  F    1.329772   0.000000
     3  F    1.327370   2.172279   0.000000
     4  F    1.327342   2.172308   2.142308   0.000000
     5  O    1.350613   2.133154   2.222884   2.222636   0.000000
 Stoichiometry    CF3O(2)
 Framework group  C1[X(CF3O)]
 Deg. of freedom     9
 Full point group                 C1      NOp   1
 Largest Abelian subgroup         C1      NOp   1
 Largest concise Abelian subgroup C1      NOp   1
                         Standard orientation:                         
 ---------------------------------------------------------------------
 Center     Atomic      Atomic             Coordinates (Angstroms)
 Number     Number       Type             X           Y           Z
 ---------------------------------------------------------------------
      1          6           0       -0.005374   -0.000039    0.037978
      2          9           0       -0.868578    0.002678   -0.973539
      3          9           0        0.775540    1.070618   -0.038029
      4          9           0        0.773724   -1.071685   -0.042136
      5          8           0       -0.761741   -0.001783    1.156933
 ---------------------------------------------------------------------
 Rotational constants (GHZ):           6.0898537           5.8840461           5.6093680
 Standard basis: 6-311+G(2d,2p) (5D, 7F)
 There are   145 symmetry adapted cartesian basis functions of A   symmetry.
 There are   135 symmetry adapted basis functions of A   symmetry.
   135 basis functions,   210 primitive gaussians,   145 cartesian basis functions
    21 alpha electrons       20 beta electrons
       nuclear repulsion energy       194.9674326460 Hartrees.
 NAtoms=    5 NActive=    5 NUniq=    5 SFac= 1.00D+00 NAtFMM=   60 NAOKFM=F Big=F
 Integral buffers will be    131072 words long.
 Raffenetti 2 integral format.
 Two-electron integral symmetry is turned on.
 Nuclear repulsion after empirical dispersion term =      194.9671160736 Hartrees.
 One-electron integrals computed using PRISM.
 NBasis=   135 RedAO= T EigKep=  1.42D-03  NBF=   135
 NBsUse=   135 1.00D-06 EigRej= -1.00D+00 NBFU=   135
 Initial guess from the checkpoint file:  "cf3o.chk"
 B after Tr=     0.000000    0.000000   -0.000000
         Rot=    0.999998    0.001242   -0.001064    0.000944 Ang=   0.22 deg.
 Initial guess <Sx>= 0.0000 <Sy>= 0.0000 <Sz>= 0.5000 <S**2>= 0.7531 S= 0.5015
 Keep R1 and R2 ints in memory in canonical form, NReq=191860627.
 Requested convergence on RMS density matrix=1.00D-08 within  32 cycles.
 Requested convergence on MAX density matrix=1.00D-06.
 Requested convergence on             energy=1.00D-06.
 No special actions if energy rises.
 SCF Done:  E(UwB97XD) =  -412.800222580     A.U. after   16 cycles
            NFock= 16  Conv=0.36D-08     -V/T= 2.0024
 <Sx>= 0.0000 <Sy>= 0.0000 <Sz>= 0.5000 <S**2>= 0.7531 S= 0.5015
 <L.S>= 0.000000000000E+00
 Annihilation of the first spin contaminant:
 S**2 before annihilation     0.7531,   after     0.7500
 QCSCF skips out because SCF is already converged.
 Calling FoFJK, ICntrl=      2127 FMM=F ISym2X=0 I1Cent= 0 IOpClX= 1 NMat=1 NMatS=1 NMatT=0.
 ***** Axes restored to original set *****
 -------------------------------------------------------------------
 Center     Atomic                   Forces (Hartrees/Bohr)
 Number     Number              X              Y              Z
 -------------------------------------------------------------------
      1        6          -0.000267781   -0.000064616   -0.000008659
      2        9           0.000065731    0.000097879    0.000007204
      3        9           0.000009785    0.000006927    0.000037737
      4        9           0.000028084   -0.000016955   -0.000052989
      5        8           0.000164182   -0.000023236    0.000016706
 -------------------------------------------------------------------
 Cartesian Forces:  Max     0.000267781 RMS     0.000090604

 GradGradGradGradGradGradGradGradGradGradGradGradGradGradGradGradGradGrad
 Berny optimization.
 Using GEDIIS/GDIIS optimizer.
 FormGI is forming the generalized inverse of G from B-inverse, IUseBI=4.
 Internal  Forces:  Max     0.000162589 RMS     0.000058573
 Search for a local minimum.
 Step number   5 out of a maximum of   24
 All quantities printed in internal units (Hartrees-Bohrs-Radians)
 Mixed Optimization -- En-DIIS/RFO-DIIS
 Swapping is turned off.
 Update second derivatives using D2CorX and points    1    2    3    4    5
 DE= -5.72D-07 DEPred=-5.66D-07 R= 1.01D+00
 Trust test= 1.01D+00 RLast= 1.73D-03 DXMaxT set to 3.00D-01
 The second derivative matrix:
                          R1        R2        R3        R4        A1
           R1           0.42933
           R2           0.06897   0.51255
           R3           0.05359  -0.05234   0.52420
           R4           0.00525   0.03892   0.02971   0.56745
           A1          -0.01375  -0.00298   0.00060   0.01278   0.21285
           A2           0.03212  -0.00378  -0.00029  -0.00799  -0.02462
           A3           0.02109  -0.03932  -0.04092   0.05821   0.02233
           A4          -0.00618   0.03512   0.03468  -0.03454  -0.00432
           A5          -0.00876   0.00427   0.00236  -0.01557   0.01973
           A6          -0.02264   0.00469   0.00180  -0.01095   0.02085
           D1           0.02008   0.01624   0.02264  -0.05896   0.01748
           D2          -0.02725   0.00293   0.01157  -0.01195   0.00026
           D3           0.00150   0.00663   0.00779  -0.01525   0.00349
           D4           0.02876   0.00370  -0.00378  -0.00330   0.00323
                          A2        A3        A4        A5        A6
           A2           0.22974
           A3           0.01986   0.21440
           A4          -0.00724   0.03605   0.23111
           A5           0.01803  -0.02476   0.00407   0.23955
           A6           0.01244  -0.01697  -0.00961  -0.00462   0.24971
           D1           0.04231  -0.04152   0.04038  -0.02323  -0.03202
           D2           0.01353  -0.01423   0.01780  -0.00905  -0.00799
           D3           0.00622  -0.00647   0.00616  -0.00392  -0.00506
           D4          -0.00731   0.00775  -0.01164   0.00513   0.00293
                          D1        D2        D3        D4
           D1           0.10073
           D2           0.02030   0.03589
           D3           0.01109   0.00307   0.02707
           D4          -0.00921  -0.00802  -0.00081   0.03202
 ITU=  0  1  1  1  0
     Eigenvalues ---    0.08408   0.10002   0.18137   0.24672   0.27714
     Eigenvalues ---    0.37981   0.53009   0.57047   0.60366
 En-DIIS/RFO-DIIS/Sim-DIIS IScMMF=       -3 using points:     5    4    3
 RFO step:  Lambda=-1.24512128D-07.
 DidBck=F Rises=F RFO-DIIS coefs:    1.05483   -0.02102   -0.03380
 Iteration  1 RMS(Cart)=  0.00010865 RMS(Int)=  0.00000011
 Iteration  2 RMS(Cart)=  0.00000001 RMS(Int)=  0.00000011
 Variable       Old X    -DE/DX   Delta X   Delta X   Delta X     New X
                                 (Linear)    (Quad)   (Total)
    R1        2.51291   0.00012   0.00023   0.00008   0.00032   2.51322
    R2        2.50837   0.00003  -0.00014   0.00016   0.00003   2.50839
    R3        2.50831   0.00006  -0.00012   0.00020   0.00007   2.50838
    R4        2.55229  -0.00016   0.00014  -0.00040  -0.00026   2.55203
    A1        1.91420  -0.00000  -0.00009  -0.00005  -0.00015   1.91405
    A2        1.91427  -0.00001  -0.00011  -0.00003  -0.00014   1.91413
    A3        1.84074  -0.00003   0.00000  -0.00009  -0.00008   1.84065
    A4        1.87805   0.00001   0.00016  -0.00003   0.00013   1.87818
    A5        1.95838  -0.00001  -0.00001   0.00003   0.00002   1.95839
    A6        1.95808   0.00003   0.00003   0.00017   0.00020   1.95828
    D1        2.08132  -0.00000  -0.00008  -0.00010  -0.00018   2.08114
    D2       -2.08321   0.00002   0.00012   0.00010   0.00022  -2.08300
    D3        2.08313  -0.00001  -0.00011  -0.00000  -0.00011   2.08302
    D4       -2.11684  -0.00003  -0.00022  -0.00010  -0.00033  -2.11717
         Item               Value     Threshold  Converged?
 Maximum Force            0.000163     0.000450     YES
 RMS     Force            0.000059     0.000300     YES
 Maximum Displacement     0.000205     0.001800     YES
 RMS     Displacement     0.000109     0.001200     YES
 Predicted change in Energy=-6.163115D-08
 Optimization completed.
    -- Stationary point found.
                           ----------------------------
                           !   Optimized Parameters   !
                           ! (Angstroms and Degrees)  !
 --------------------------                            --------------------------
 ! Name  Definition              Value          Derivative Info.                !
 --------------------------------------------------------------------------------
 ! R1    R(1,2)                  1.3298         -DE/DX =    0.0001              !
 ! R2    R(1,3)                  1.3274         -DE/DX =    0.0                 !
 ! R3    R(1,4)                  1.3273         -DE/DX =    0.0001              !
 ! R4    R(1,5)                  1.3506         -DE/DX =   -0.0002              !
 ! A1    A(2,1,3)              109.6755         -DE/DX =    0.0                 !
 ! A2    A(2,1,4)              109.6794         -DE/DX =    0.0                 !
 ! A3    A(2,1,5)              105.4664         -DE/DX =    0.0                 !
 ! A4    A(3,1,4)              107.6045         -DE/DX =    0.0                 !
 ! A5    A(3,1,5)              112.2067         -DE/DX =    0.0                 !
 ! A6    A(4,1,5)              112.1894         -DE/DX =    0.0                 !
 ! D1    D(2,1,4,3)            119.2506         -DE/DX =    0.0                 !
 ! D2    D(2,1,5,3)           -119.3594         -DE/DX =    0.0                 !
 ! D3    D(2,1,5,4)            119.3546         -DE/DX =    0.0                 !
 ! D4    D(3,1,5,4)           -121.286          -DE/DX =    0.0                 !
 --------------------------------------------------------------------------------
 GradGradGradGradGradGradGradGradGradGradGradGradGradGradGradGradGradGrad

                          Input orientation:                          
 ---------------------------------------------------------------------
 Center     Atomic      Atomic             Coordinates (Angstroms)
 Number     Number       Type             X           Y           Z
 ---------------------------------------------------------------------
      1          6           0        0.006156    0.004423    0.000033
      2          9           0        0.767740    1.094507   -0.000094
      3          9           0        0.278261   -0.730741    1.071202
      4          9           0        0.277935   -0.730855   -1.071106
      5          8           0       -1.267196    0.454679   -0.000037
 ---------------------------------------------------------------------
                    Distance matrix (angstroms):
                    1          2          3          4          5
     1  C    0.000000
     2  F    1.329772   0.000000
     3  F    1.327370   2.172279   0.000000
     4  F    1.327342   2.172308   2.142308   0.000000
     5  O    1.350613   2.133154   2.222884   2.222636   0.000000
 Stoichiometry    CF3O(2)
 Framework group  C1[X(CF3O)]
 Deg. of freedom     9
 Full point group                 C1      NOp   1
 Largest Abelian subgroup         C1      NOp   1
 Largest concise Abelian subgroup C1      NOp   1
                         Standard orientation:                         
 ---------------------------------------------------------------------
 Center     Atomic      Atomic             Coordinates (Angstroms)
 Number     Number       Type             X           Y           Z
 ---------------------------------------------------------------------
      1          6           0       -0.005374   -0.000039    0.037978
      2          9           0       -0.868578    0.002678   -0.973539
      3          9           0        0.775540    1.070618   -0.038029
      4          9           0        0.773724   -1.071685   -0.042136
      5          8           0       -0.761741   -0.001783    1.156933
 ---------------------------------------------------------------------
 Rotational constants (GHZ):           6.0898537           5.8840461           5.6093680

 **********************************************************************

            Population analysis using the SCF density.

 **********************************************************************

 Orbital symmetries:
 Alpha Orbitals:
       Occupied  (A) (A) (A) (A) (A) (A) (A) (A) (A) (A) (A) (A)
                 (A) (A) (A) (A) (A) (A) (A) (A) (A)
       Virtual   (A) (A) (A) (A) (A) (A) (A) (A) (A) (A) (A) (A)
                 (A) (A) (A) (A) (A) (A) (A) (A) (A) (A) (A) (A)
                 (A) (A) (A) (A) (A) (A) (A) (A) (A) (A) (A) (A)
                 (A) (A) (A) (A) (A) (A) (A) (A) (A) (A) (A) (A)
                 (A) (A) (A) (A) (A) (A) (A) (A) (A) (A) (A) (A)
                 (A) (A) (A) (A) (A) (A) (A) (A) (A) (A) (A) (A)
                 (A) (A) (A) (A) (A) (A) (A) (A) (A) (A) (A) (A)
                 (A) (A) (A) (A) (A) (A) (A) (A) (A) (A) (A) (A)
                 (A) (A) (A) (A) (A) (A) (A) (A) (A) (A) (A) (A)
                 (A) (A) (A) (A) (A) (A)
 Beta  Orbitals:
       Occupied  (A) (A) (A) (A) (A) (A) (A) (A) (A) (A) (A) (A)
                 (A) (A) (A) (A) (A) (A) (A) (A)
       Virtual   (A) (A) (A) (A) (A) (A) (A) (A) (A) (A) (A) (A)
                 (A) (A) (A) (A) (A) (A) (A) (A) (A) (A) (A) (A)
                 (A) (A) (A) (A) (A) (A) (A) (A) (A) (A) (A) (A)
                 (A) (A) (A) (A) (A) (A) (A) (A) (A) (A) (A) (A)
                 (A) (A) (A) (A) (A) (A) (A) (A) (A) (A) (A) (A)
                 (A) (A) (A) (A) (A) (A) (A) (A) (A) (A) (A) (A)
                 (A) (A) (A) (A) (A) (A) (A) (A) (A) (A) (A) (A)
                 (A) (A) (A) (A) (A) (A) (A) (A) (A) (A) (A) (A)
                 (A) (A) (A) (A) (A) (A) (A) (A) (A) (A) (A) (A)
                 (A) (A) (A) (A) (A) (A) (A)
 The electronic state is 2-A.
 Alpha  occ. eigenvalues --  -24.88973 -24.87632 -24.87630 -19.38749 -10.61557
 Alpha  occ. eigenvalues --   -1.47965  -1.38485  -1.37390  -1.22430  -0.82895
 Alpha  occ. eigenvalues --   -0.75051  -0.74006  -0.70445  -0.61602  -0.60389
 Alpha  occ. eigenvalues --   -0.58180  -0.56842  -0.56047  -0.54003  -0.53568
 Alpha  occ. eigenvalues --   -0.49005
 Alpha virt. eigenvalues --    0.07634   0.10276   0.10485   0.10595   0.21956
 Alpha virt. eigenvalues --    0.22985   0.23234   0.26225   0.26978   0.27944
 Alpha virt. eigenvalues --    0.30475   0.31135   0.31264   0.32425   0.35896
 Alpha virt. eigenvalues --    0.37148   0.37243   0.38268   0.38570   0.39631
 Alpha virt. eigenvalues --    0.41065   0.46379   0.48081   0.49117   0.67573
 Alpha virt. eigenvalues --    0.69185   0.70639   0.89361   0.90258   0.96410
 Alpha virt. eigenvalues --    1.04246   1.05502   1.07342   1.17315   1.18006
 Alpha virt. eigenvalues --    1.18212   1.28876   1.31610   1.38136   1.39538
 Alpha virt. eigenvalues --    1.40336   1.44821   1.51317   1.51525   1.52995
 Alpha virt. eigenvalues --    1.59493   1.62419   1.63443   1.83631   1.84333
 Alpha virt. eigenvalues --    1.94214   1.95779   2.01720   2.02605   2.03722
 Alpha virt. eigenvalues --    2.08953   2.13473   2.14836   2.14920   2.21110
 Alpha virt. eigenvalues --    2.37466   2.50909   2.55496   2.65012   2.66458
 Alpha virt. eigenvalues --    2.66784   2.99354   3.14984   3.20541   3.34396
 Alpha virt. eigenvalues --    3.37763   3.48917   3.49231   3.52038   3.81475
 Alpha virt. eigenvalues --    4.21907   4.24172   5.00684   5.04955   5.65950
 Alpha virt. eigenvalues --    6.33438   6.33707   6.41117   6.41287   6.42304
 Alpha virt. eigenvalues --    6.42594   6.56190   6.69887   6.70787   6.83248
 Alpha virt. eigenvalues --    6.85172   7.10715   7.10829   7.20411   9.06569
 Alpha virt. eigenvalues --    9.07962   9.09017   9.19669   9.19982   9.21808
 Alpha virt. eigenvalues --    9.22242   9.31709   9.35299   9.47573   9.66257
 Alpha virt. eigenvalues --    9.72811   9.76672   9.83291   9.83327  24.02505
 Alpha virt. eigenvalues --   49.92760  66.90053  66.91476  66.95300
  Beta  occ. eigenvalues --  -24.88749 -24.87595 -24.87593 -19.36605 -10.61638
  Beta  occ. eigenvalues --   -1.47574  -1.38074  -1.37302  -1.16172  -0.82210
  Beta  occ. eigenvalues --   -0.73862  -0.73854  -0.68426  -0.60098  -0.60069
  Beta  occ. eigenvalues --   -0.56683  -0.56553  -0.54505  -0.53842  -0.46470
  Beta virt. eigenvalues --   -0.15617   0.07663   0.10400   0.10564   0.10617
  Beta virt. eigenvalues --    0.22250   0.22877   0.23400   0.26396   0.28135
  Beta virt. eigenvalues --    0.28424   0.30967   0.31220   0.31402   0.33747
  Beta virt. eigenvalues --    0.36111   0.37209   0.37310   0.38267   0.38523
  Beta virt. eigenvalues --    0.39621   0.41297   0.46370   0.48076   0.49190
  Beta virt. eigenvalues --    0.67605   0.69332   0.70649   0.89635   0.91556
  Beta virt. eigenvalues --    0.96584   1.05780   1.08099   1.09579   1.18435
  Beta virt. eigenvalues --    1.18638   1.18805   1.29117   1.31703   1.38977
  Beta virt. eigenvalues --    1.39718   1.40423   1.44880   1.51528   1.51777
  Beta virt. eigenvalues --    1.53369   1.62027   1.65512   1.66731   1.85029
  Beta virt. eigenvalues --    1.86709   1.94381   1.95838   2.01870   2.02737
  Beta virt. eigenvalues --    2.03781   2.09101   2.13629   2.14920   2.15754
  Beta virt. eigenvalues --    2.21146   2.39630   2.51549   2.55967   2.65028
  Beta virt. eigenvalues --    2.66430   2.66861   2.99577   3.15288   3.21555
  Beta virt. eigenvalues --    3.34180   3.37651   3.48856   3.49254   3.52102
  Beta virt. eigenvalues --    3.81910   4.22076   4.24114   5.07208   5.11868
  Beta virt. eigenvalues --    5.68119   6.33617   6.34204   6.41479   6.41487
  Beta virt. eigenvalues --    6.42384   6.42937   6.56589   6.74516   6.77029
  Beta virt. eigenvalues --    6.89248   6.89794   7.12895   7.17638   7.24848
  Beta virt. eigenvalues --    9.06945   9.08281   9.09142   9.19894   9.20288
  Beta virt. eigenvalues --    9.22061   9.22507   9.32114   9.35569   9.47843
  Beta virt. eigenvalues --    9.66541   9.73026   9.77103   9.83381   9.83667
  Beta virt. eigenvalues --   24.02382  49.95379  66.90181  66.91502  66.95363
          Condensed to atoms (all electrons):
               1          2          3          4          5
     1  C    3.925179   0.236264   0.249379   0.249355   0.269648
     2  F    0.236264   9.042928   0.002024   0.002054  -0.005690
     3  F    0.249379   0.002024   9.064605  -0.010247  -0.004989
     4  F    0.249355   0.002054  -0.010247   9.064581  -0.005009
     5  O    0.269648  -0.005690  -0.004989  -0.005009   7.937131
          Atomic-Atomic Spin Densities.
               1          2          3          4          5
     1  C   -0.045876  -0.006949   0.002733   0.002719   0.016065
     2  F   -0.006949   0.084752  -0.000172  -0.000173  -0.018090
     3  F    0.002733  -0.000172   0.012527   0.000707  -0.003893
     4  F    0.002719  -0.000173   0.000707   0.012625  -0.003907
     5  O    0.016065  -0.018090  -0.003893  -0.003907   0.957894
 Mulliken charges and spin densities:
               1          2
     1  C    1.070176  -0.031309
     2  F   -0.277579   0.059368
     3  F   -0.300772   0.011902
     4  F   -0.300733   0.011970
     5  O   -0.191091   0.948069
 Sum of Mulliken charges =  -0.00000   1.00000
 Mulliken charges and spin densities with hydrogens summed into heavy atoms:
               1          2
     1  C    1.070176  -0.031309
     2  F   -0.277579   0.059368
     3  F   -0.300772   0.011902
     4  F   -0.300733   0.011970
     5  O   -0.191091   0.948069
 Electronic spatial extent (au):  <R**2>=            280.0226
 Charge=              0.0000 electrons
 Dipole moment (field-independent basis, Debye):
    X=             -0.0282    Y=             -0.0001    Z=              0.0195  Tot=              0.0343
 Quadrupole moment (field-independent basis, Debye-Ang):
   XX=            -25.9089   YY=            -26.4372   ZZ=            -25.7204
   XY=             -0.0024   XZ=              0.5307   YZ=             -0.0021
 Traceless Quadrupole moment (field-independent basis, Debye-Ang):
   XX=              0.1132   YY=             -0.4150   ZZ=              0.3018
   XY=             -0.0024   XZ=              0.5307   YZ=             -0.0021
 Octapole moment (field-independent basis, Debye-Ang**2):
  XXX=              1.4397  YYY=              0.0093  ZZZ=             -3.7652  XYY=              0.0608
  XXY=              0.0025  XXZ=             -1.3781  XZZ=              2.4918  YZZ=             -0.0025
  YYZ=             -1.6421  XYZ=             -0.0054
 Hexadecapole moment (field-independent basis, Debye-Ang**3):
 XXXX=            -91.5733 YYYY=            -84.8007 ZZZZ=            -86.4011 XXXY=             -0.0073
 XXXZ=              2.7405 YYYX=             -0.0073 YYYZ=              0.0085 ZZZX=              4.4792
 ZZZY=             -0.0054 XXYY=            -29.6559 XXZZ=            -30.6195 YYZZ=            -29.4416
 XXYZ=              0.0041 YYXZ=              1.2505 ZZXY=             -0.0038
 N-N= 1.949671160736D+02 E-N=-1.370876734329D+03  KE= 4.118005365387D+02
                          Isotropic Fermi Contact Couplings
        Atom                 a.u.       MegaHertz       Gauss      10(-4) cm-1
     1  C(13)             -0.03090     -34.74165     -12.39669     -11.58857
     2  F(19)              0.02270      95.52047      34.08408      31.86220
     3  F(19)             -0.00219      -9.20871      -3.28590      -3.07169
     4  F(19)             -0.00216      -9.09287      -3.24456      -3.03306
     5  O(17)              0.09791     -59.35238     -21.17840     -19.79782
 --------------------------------------------------------
       Center         ----  Spin Dipole Couplings  ----
                      3XX-RR        3YY-RR        3ZZ-RR
 --------------------------------------------------------
     1   Atom        0.003426     -0.035346      0.031920
     2   Atom       -0.230658     -0.261290      0.491948
     3   Atom       -0.056023     -0.012556      0.068579
     4   Atom       -0.056246     -0.013278      0.069524
     5   Atom        1.789435     -1.868390      0.078955
 --------------------------------------------------------
                        XY            XZ            YZ
 --------------------------------------------------------
     1   Atom        0.000047     -0.040492     -0.000112
     2   Atom        0.000259     -0.168616     -0.001158
     3   Atom        0.020108     -0.021152     -0.073822
     4   Atom       -0.020150     -0.021507      0.073811
     5   Atom       -0.012288      2.685768     -0.008990
 --------------------------------------------------------


 ---------------------------------------------------------------------------------
              Anisotropic Spin Dipole Couplings in Principal Axis System
 ---------------------------------------------------------------------------------

       Atom             a.u.   MegaHertz   Gauss  10(-4) cm-1        Axes

              Baa    -0.0353    -4.743    -1.692    -1.582  0.0014  1.0000  0.0025
     1 C(13)  Bbb    -0.0253    -3.389    -1.209    -1.130  0.8161 -0.0026  0.5780
              Bcc     0.0606     8.132     2.902     2.712 -0.5780 -0.0012  0.8161
 
              Baa    -0.2681  -134.630   -48.039   -44.908  0.9763 -0.0003  0.2166
     2 F(19)  Bbb    -0.2613  -131.228   -46.825   -43.773  0.0000  1.0000  0.0015
              Bcc     0.5294   265.858    94.865    88.681 -0.2166 -0.0015  0.9763
 
              Baa    -0.0653   -32.792   -11.701   -10.938  0.8045 -0.5647 -0.1843
     3 F(19)  Bbb    -0.0516   -25.933    -9.254    -8.650  0.5714  0.6507  0.5001
              Bcc     0.1169    58.725    20.955    19.589 -0.1625 -0.5076  0.8461
 
              Baa    -0.0656   -32.930   -11.750   -10.984  0.8049  0.5652 -0.1807
     4 F(19)  Bbb    -0.0519   -26.088    -9.309    -8.702 -0.5704  0.6532 -0.4979
              Bcc     0.1175    59.018    21.059    19.686 -0.1634  0.5038  0.8482
 
              Baa    -1.8845   136.358    48.656    45.484 -0.5902  0.0003  0.8073
     5 O(17)  Bbb    -1.8684   135.198    48.242    45.097  0.0024  1.0000  0.0013
              Bcc     3.7529  -271.556   -96.898   -90.581  0.8073 -0.0027  0.5902
 

 ---------------------------------------------------------------------------------

 1\1\GINC-CCLEARTI\FOpt\UwB97XD\6-311+G(2d,2p)\C1F3O1(2)\RAPPE\17-Sep-2
 025\0\\# opt freq wb97xd/6-311+g(2d,2p) geom=connectivity scf=xqc\\Tit
 le Card Required\\0,2\C,0.0061560265,0.0044232628,0.0000334219\F,0.767
 7404784,1.094507165,-0.0000938296\F,0.2782610775,-0.7307411857,1.07120
 21614\F,0.2779353226,-0.7308546974,-1.0711058628\O,-1.267195905,0.4546
 794554,-0.0000368909\\Version=EM64M-G16RevA.03\State=2-A\HF=-412.80022
 26\S2=0.753074\S2-1=0.\S2A=0.750007\RMSD=3.644e-09\RMSF=9.060e-05\Dipo
 le=-0.0102281,0.0087833,-0.0000358\Quadrupole=0.0232062,0.2853662,-0.3
 085724,0.3786703,-0.0000451,0.0006251\PG=C01 [X(C1F3O1)]\\@


 GOD GAVE US TWO ENDS... ONE TO SIT ON...    
 AND THE OTHER TO THINK WITH...              
 YOUR SUCCESS DEPENDS UPON WHICH END YOU     
 USE THE MOST...                             
                                             
 IT'S A CASE OF HEADS YOU WIN TAILS YOU LOSE.
          SOURCE UNKNOWN(IT'S JUST AS WELL.) 
 Job cpu time:       0 days  0 hours 20 minutes 58.8 seconds.
 Elapsed time:       0 days  0 hours  1 minutes  0.8 seconds.
 File lengths (MBytes):  RWF=     20 Int=      0 D2E=      0 Chk=      3 Scr=      1
 Normal termination of Gaussian 16 at Wed Sep 17 15:33:35 2025.
 Link1:  Proceeding to internal job step number  2.
 ----------------------------------------------------------------------
 #N Geom=AllCheck Guess=TCheck SCRF=Check GenChk UwB97XD/6-311+G(2d,2p)
  Freq
 ----------------------------------------------------------------------
 1/10=4,29=7,30=1,38=1,40=1/1,3;
 2/12=2,40=1/2;
 3/5=4,6=6,7=212,11=2,14=-4,25=1,30=1,70=2,71=2,74=-58,116=2,140=1/1,2,3;
 4/5=101/1;
 5/5=2,8=3,13=1,38=6,98=1/2,8;
 8/6=4,10=90,11=11/1;
 11/6=1,8=1,9=11,15=111,16=1/1,2,10;
 10/6=1/2;
 6/7=2,8=2,9=2,10=2,28=1/1;
 7/8=1,10=1,25=1/1,2,3,16;
 1/10=4,30=1/3;
 99//99;
 Structure from the checkpoint file:  "cf3o.chk"
 -------------------
 Title Card Required
 -------------------
 Charge =  0 Multiplicity = 2
 Redundant internal coordinates found in file.  (old form).
 C,0,0.0061560265,0.0044232628,0.0000334219
 F,0,0.7677404784,1.094507165,-0.0000938296
 F,0,0.2782610775,-0.7307411857,1.0712021614
 F,0,0.2779353226,-0.7308546974,-1.0711058628
 O,0,-1.267195905,0.4546794554,-0.0000368909
 Recover connectivity data from disk.

 GradGradGradGradGradGradGradGradGradGradGradGradGradGradGradGradGradGrad
 Berny optimization.
 Initialization pass.
                           ----------------------------
                           !    Initial Parameters    !
                           ! (Angstroms and Degrees)  !
 --------------------------                            --------------------------
 ! Name  Definition              Value          Derivative Info.                !
 --------------------------------------------------------------------------------
 ! R1    R(1,2)                  1.3298         calculate D2E/DX2 analytically  !
 ! R2    R(1,3)                  1.3274         calculate D2E/DX2 analytically  !
 ! R3    R(1,4)                  1.3273         calculate D2E/DX2 analytically  !
 ! R4    R(1,5)                  1.3506         calculate D2E/DX2 analytically  !
 ! A1    A(2,1,3)              109.6755         calculate D2E/DX2 analytically  !
 ! A2    A(2,1,4)              109.6794         calculate D2E/DX2 analytically  !
 ! A3    A(2,1,5)              105.4664         calculate D2E/DX2 analytically  !
 ! A4    A(3,1,4)              107.6045         calculate D2E/DX2 analytically  !
 ! A5    A(3,1,5)              112.2067         calculate D2E/DX2 analytically  !
 ! A6    A(4,1,5)              112.1894         calculate D2E/DX2 analytically  !
 ! D1    D(2,1,4,3)            119.2506         calculate D2E/DX2 analytically  !
 ! D2    D(2,1,5,3)           -119.3594         calculate D2E/DX2 analytically  !
 ! D3    D(2,1,5,4)            119.3546         calculate D2E/DX2 analytically  !
 ! D4    D(3,1,5,4)           -121.286          calculate D2E/DX2 analytically  !
 --------------------------------------------------------------------------------
 Trust Radius=3.00D-01 FncErr=1.00D-07 GrdErr=1.00D-07 EigMax=2.50D+02 EigMin=1.00D-04
 Number of steps in this run=      2 maximum allowed number of steps=      2.
 GradGradGradGradGradGradGradGradGradGradGradGradGradGradGradGradGradGrad

                          Input orientation:                          
 ---------------------------------------------------------------------
 Center     Atomic      Atomic             Coordinates (Angstroms)
 Number     Number       Type             X           Y           Z
 ---------------------------------------------------------------------
      1          6           0        0.006156    0.004423    0.000033
      2          9           0        0.767740    1.094507   -0.000094
      3          9           0        0.278261   -0.730741    1.071202
      4          9           0        0.277935   -0.730855   -1.071106
      5          8           0       -1.267196    0.454679   -0.000037
 ---------------------------------------------------------------------
                    Distance matrix (angstroms):
                    1          2          3          4          5
     1  C    0.000000
     2  F    1.329772   0.000000
     3  F    1.327370   2.172279   0.000000
     4  F    1.327342   2.172308   2.142308   0.000000
     5  O    1.350613   2.133154   2.222884   2.222636   0.000000
 Stoichiometry    CF3O(2)
 Framework group  C1[X(CF3O)]
 Deg. of freedom     9
 Full point group                 C1      NOp   1
 Largest Abelian subgroup         C1      NOp   1
 Largest concise Abelian subgroup C1      NOp   1
                         Standard orientation:                         
 ---------------------------------------------------------------------
 Center     Atomic      Atomic             Coordinates (Angstroms)
 Number     Number       Type             X           Y           Z
 ---------------------------------------------------------------------
      1          6           0       -0.005374   -0.000039    0.037978
      2          9           0       -0.868578    0.002678   -0.973539
      3          9           0        0.775540    1.070618   -0.038029
      4          9           0        0.773724   -1.071685   -0.042136
      5          8           0       -0.761741   -0.001783    1.156933
 ---------------------------------------------------------------------
 Rotational constants (GHZ):           6.0898537           5.8840461           5.6093680
 Standard basis: 6-311+G(2d,2p) (5D, 7F)
 There are   145 symmetry adapted cartesian basis functions of A   symmetry.
 There are   135 symmetry adapted basis functions of A   symmetry.
   135 basis functions,   210 primitive gaussians,   145 cartesian basis functions
    21 alpha electrons       20 beta electrons
       nuclear repulsion energy       194.9674326460 Hartrees.
 NAtoms=    5 NActive=    5 NUniq=    5 SFac= 1.00D+00 NAtFMM=   60 NAOKFM=F Big=F
 Integral buffers will be    131072 words long.
 Raffenetti 2 integral format.
 Two-electron integral symmetry is turned on.
 Nuclear repulsion after empirical dispersion term =      194.9671160736 Hartrees.
 One-electron integrals computed using PRISM.
 NBasis=   135 RedAO= T EigKep=  1.42D-03  NBF=   135
 NBsUse=   135 1.00D-06 EigRej= -1.00D+00 NBFU=   135
 Initial guess from the checkpoint file:  "cf3o.chk"
 B after Tr=    -0.000000    0.000000    0.000000
         Rot=    1.000000    0.000000    0.000000    0.000000 Ang=   0.00 deg.
 Initial guess <Sx>= 0.0000 <Sy>= 0.0000 <Sz>= 0.5000 <S**2>= 0.7531 S= 0.5015
 Keep R1 and R2 ints in memory in canonical form, NReq=191860627.
 Requested convergence on RMS density matrix=1.00D-08 within  32 cycles.
 Requested convergence on MAX density matrix=1.00D-06.
 Requested convergence on             energy=1.00D-06.
 No special actions if energy rises.
 SCF Done:  E(UwB97XD) =  -412.800222580     A.U. after    1 cycles
            NFock=  1  Conv=0.85D-10     -V/T= 2.0024
 <Sx>= 0.0000 <Sy>= 0.0000 <Sz>= 0.5000 <S**2>= 0.7531 S= 0.5015
 <L.S>= 0.000000000000E+00
 Annihilation of the first spin contaminant:
 S**2 before annihilation     0.7531,   after     0.7500
 QCSCF skips out because SCF is already converged.
 DoSCS=F DFT=T ScalE2(SS,OS)=  1.000000  1.000000
 Range of M.O.s used for correlation:     1   135
 NBasis=   135 NAE=    21 NBE=    20 NFC=     0 NFV=     0
 NROrb=    135 NOA=    21 NOB=    20 NVA=   114 NVB=   115

 **** Warning!!: The largest alpha MO coefficient is  0.14060500D+02


 **** Warning!!: The largest beta MO coefficient is  0.13915188D+02

 Symmetrizing basis deriv contribution to polar:
 IMax=3 JMax=2 DiffMx= 0.00D+00
 G2DrvN: will do     6 centers at a time, making    1 passes.
 Calling FoFCou, ICntrl=  3107 FMM=F I1Cent=   0 AccDes= 0.00D+00.
 End of G2Drv F.D. properties file   721 does not exist.
 End of G2Drv F.D. properties file   722 does not exist.
 End of G2Drv F.D. properties file   788 does not exist.
          IDoAtm=11111
          Differentiating once with respect to electric field.
                with respect to dipole field.
          Differentiating once with respect to nuclear coordinates.
 Keep R1 and R2 ints in memory in canonical form, NReq=191781451.
          There are    18 degrees of freedom in the 1st order CPHF.  IDoFFX=6 NUNeed=     3.
     15 vectors produced by pass  0 Test12= 2.61D-14 5.56D-09 XBig12= 1.22D+01 1.06D+00.
 AX will form    15 AO Fock derivatives at one time.
     15 vectors produced by pass  1 Test12= 2.61D-14 5.56D-09 XBig12= 2.07D+00 3.04D-01.
     15 vectors produced by pass  2 Test12= 2.61D-14 5.56D-09 XBig12= 1.60D-01 1.67D-01.
     15 vectors produced by pass  3 Test12= 2.61D-14 5.56D-09 XBig12= 4.41D-03 2.90D-02.
     15 vectors produced by pass  4 Test12= 2.61D-14 5.56D-09 XBig12= 1.01D-04 2.12D-03.
     15 vectors produced by pass  5 Test12= 2.61D-14 5.56D-09 XBig12= 1.07D-06 1.93D-04.
     15 vectors produced by pass  6 Test12= 2.61D-14 5.56D-09 XBig12= 1.48D-08 1.93D-05.
     15 vectors produced by pass  7 Test12= 2.61D-14 5.56D-09 XBig12= 1.79D-10 2.51D-06.
      6 vectors produced by pass  8 Test12= 2.61D-14 5.56D-09 XBig12= 1.68D-12 2.29D-07.
      3 vectors produced by pass  9 Test12= 2.61D-14 5.56D-09 XBig12= 1.40D-14 1.98D-08.
 InvSVY:  IOpt=1 It=  1 EMax= 1.78D-15
 Solved reduced A of dimension   129 with    15 vectors.
 Isotropic polarizability for W=    0.000000       19.79 Bohr**3.
 End of Minotr F.D. properties file   721 does not exist.
 End of Minotr F.D. properties file   722 does not exist.
 End of Minotr F.D. properties file   788 does not exist.

 **********************************************************************

            Population analysis using the SCF density.

 **********************************************************************

 Orbital symmetries:
 Alpha Orbitals:
       Occupied  (A) (A) (A) (A) (A) (A) (A) (A) (A) (A) (A) (A)
                 (A) (A) (A) (A) (A) (A) (A) (A) (A)
       Virtual   (A) (A) (A) (A) (A) (A) (A) (A) (A) (A) (A) (A)
                 (A) (A) (A) (A) (A) (A) (A) (A) (A) (A) (A) (A)
                 (A) (A) (A) (A) (A) (A) (A) (A) (A) (A) (A) (A)
                 (A) (A) (A) (A) (A) (A) (A) (A) (A) (A) (A) (A)
                 (A) (A) (A) (A) (A) (A) (A) (A) (A) (A) (A) (A)
                 (A) (A) (A) (A) (A) (A) (A) (A) (A) (A) (A) (A)
                 (A) (A) (A) (A) (A) (A) (A) (A) (A) (A) (A) (A)
                 (A) (A) (A) (A) (A) (A) (A) (A) (A) (A) (A) (A)
                 (A) (A) (A) (A) (A) (A) (A) (A) (A) (A) (A) (A)
                 (A) (A) (A) (A) (A) (A)
 Beta  Orbitals:
       Occupied  (A) (A) (A) (A) (A) (A) (A) (A) (A) (A) (A) (A)
                 (A) (A) (A) (A) (A) (A) (A) (A)
       Virtual   (A) (A) (A) (A) (A) (A) (A) (A) (A) (A) (A) (A)
                 (A) (A) (A) (A) (A) (A) (A) (A) (A) (A) (A) (A)
                 (A) (A) (A) (A) (A) (A) (A) (A) (A) (A) (A) (A)
                 (A) (A) (A) (A) (A) (A) (A) (A) (A) (A) (A) (A)
                 (A) (A) (A) (A) (A) (A) (A) (A) (A) (A) (A) (A)
                 (A) (A) (A) (A) (A) (A) (A) (A) (A) (A) (A) (A)
                 (A) (A) (A) (A) (A) (A) (A) (A) (A) (A) (A) (A)
                 (A) (A) (A) (A) (A) (A) (A) (A) (A) (A) (A) (A)
                 (A) (A) (A) (A) (A) (A) (A) (A) (A) (A) (A) (A)
                 (A) (A) (A) (A) (A) (A) (A)
 The electronic state is 2-A.
 Alpha  occ. eigenvalues --  -24.88973 -24.87632 -24.87630 -19.38749 -10.61557
 Alpha  occ. eigenvalues --   -1.47965  -1.38485  -1.37390  -1.22430  -0.82895
 Alpha  occ. eigenvalues --   -0.75051  -0.74006  -0.70445  -0.61602  -0.60389
 Alpha  occ. eigenvalues --   -0.58180  -0.56842  -0.56047  -0.54003  -0.53568
 Alpha  occ. eigenvalues --   -0.49005
 Alpha virt. eigenvalues --    0.07634   0.10276   0.10485   0.10595   0.21956
 Alpha virt. eigenvalues --    0.22985   0.23234   0.26225   0.26978   0.27944
 Alpha virt. eigenvalues --    0.30475   0.31135   0.31264   0.32425   0.35896
 Alpha virt. eigenvalues --    0.37148   0.37243   0.38268   0.38570   0.39631
 Alpha virt. eigenvalues --    0.41065   0.46379   0.48081   0.49117   0.67573
 Alpha virt. eigenvalues --    0.69185   0.70639   0.89361   0.90258   0.96410
 Alpha virt. eigenvalues --    1.04246   1.05502   1.07342   1.17315   1.18006
 Alpha virt. eigenvalues --    1.18212   1.28876   1.31610   1.38136   1.39538
 Alpha virt. eigenvalues --    1.40336   1.44821   1.51317   1.51525   1.52995
 Alpha virt. eigenvalues --    1.59493   1.62419   1.63443   1.83631   1.84333
 Alpha virt. eigenvalues --    1.94214   1.95779   2.01720   2.02605   2.03722
 Alpha virt. eigenvalues --    2.08953   2.13473   2.14836   2.14920   2.21110
 Alpha virt. eigenvalues --    2.37466   2.50909   2.55496   2.65012   2.66458
 Alpha virt. eigenvalues --    2.66784   2.99354   3.14984   3.20541   3.34396
 Alpha virt. eigenvalues --    3.37763   3.48917   3.49231   3.52038   3.81475
 Alpha virt. eigenvalues --    4.21907   4.24172   5.00684   5.04955   5.65950
 Alpha virt. eigenvalues --    6.33438   6.33707   6.41117   6.41287   6.42304
 Alpha virt. eigenvalues --    6.42594   6.56190   6.69887   6.70787   6.83248
 Alpha virt. eigenvalues --    6.85172   7.10715   7.10829   7.20411   9.06569
 Alpha virt. eigenvalues --    9.07962   9.09017   9.19669   9.19982   9.21808
 Alpha virt. eigenvalues --    9.22242   9.31709   9.35299   9.47573   9.66257
 Alpha virt. eigenvalues --    9.72811   9.76672   9.83291   9.83327  24.02505
 Alpha virt. eigenvalues --   49.92760  66.90053  66.91476  66.95300
  Beta  occ. eigenvalues --  -24.88749 -24.87595 -24.87593 -19.36605 -10.61638
  Beta  occ. eigenvalues --   -1.47574  -1.38074  -1.37302  -1.16172  -0.82210
  Beta  occ. eigenvalues --   -0.73862  -0.73854  -0.68426  -0.60098  -0.60069
  Beta  occ. eigenvalues --   -0.56683  -0.56553  -0.54505  -0.53842  -0.46470
  Beta virt. eigenvalues --   -0.15617   0.07663   0.10400   0.10564   0.10617
  Beta virt. eigenvalues --    0.22250   0.22877   0.23400   0.26396   0.28135
  Beta virt. eigenvalues --    0.28424   0.30967   0.31220   0.31402   0.33747
  Beta virt. eigenvalues --    0.36111   0.37209   0.37310   0.38267   0.38523
  Beta virt. eigenvalues --    0.39621   0.41297   0.46370   0.48076   0.49190
  Beta virt. eigenvalues --    0.67605   0.69332   0.70649   0.89635   0.91556
  Beta virt. eigenvalues --    0.96584   1.05780   1.08099   1.09579   1.18435
  Beta virt. eigenvalues --    1.18638   1.18805   1.29117   1.31703   1.38977
  Beta virt. eigenvalues --    1.39718   1.40423   1.44880   1.51528   1.51777
  Beta virt. eigenvalues --    1.53369   1.62027   1.65512   1.66731   1.85029
  Beta virt. eigenvalues --    1.86709   1.94381   1.95838   2.01870   2.02737
  Beta virt. eigenvalues --    2.03781   2.09101   2.13629   2.14920   2.15754
  Beta virt. eigenvalues --    2.21146   2.39630   2.51549   2.55967   2.65028
  Beta virt. eigenvalues --    2.66430   2.66861   2.99577   3.15288   3.21555
  Beta virt. eigenvalues --    3.34180   3.37651   3.48856   3.49254   3.52102
  Beta virt. eigenvalues --    3.81910   4.22076   4.24114   5.07208   5.11868
  Beta virt. eigenvalues --    5.68119   6.33617   6.34204   6.41479   6.41487
  Beta virt. eigenvalues --    6.42384   6.42937   6.56589   6.74516   6.77029
  Beta virt. eigenvalues --    6.89248   6.89794   7.12895   7.17638   7.24848
  Beta virt. eigenvalues --    9.06945   9.08281   9.09142   9.19894   9.20288
  Beta virt. eigenvalues --    9.22061   9.22507   9.32114   9.35569   9.47843
  Beta virt. eigenvalues --    9.66541   9.73026   9.77103   9.83381   9.83667
  Beta virt. eigenvalues --   24.02382  49.95379  66.90181  66.91502  66.95363
          Condensed to atoms (all electrons):
               1          2          3          4          5
     1  C    3.925179   0.236264   0.249379   0.249355   0.269648
     2  F    0.236264   9.042928   0.002024   0.002054  -0.005690
     3  F    0.249379   0.002024   9.064605  -0.010247  -0.004989
     4  F    0.249355   0.002054  -0.010247   9.064581  -0.005009
     5  O    0.269648  -0.005690  -0.004989  -0.005009   7.937131
          Atomic-Atomic Spin Densities.
               1          2          3          4          5
     1  C   -0.045876  -0.006949   0.002733   0.002719   0.016065
     2  F   -0.006949   0.084752  -0.000172  -0.000173  -0.018090
     3  F    0.002733  -0.000172   0.012527   0.000707  -0.003893
     4  F    0.002719  -0.000173   0.000707   0.012625  -0.003907
     5  O    0.016065  -0.018090  -0.003893  -0.003907   0.957894
 Mulliken charges and spin densities:
               1          2
     1  C    1.070176  -0.031309
     2  F   -0.277579   0.059368
     3  F   -0.300772   0.011902
     4  F   -0.300733   0.011970
     5  O   -0.191091   0.948069
 Sum of Mulliken charges =   0.00000   1.00000
 Mulliken charges and spin densities with hydrogens summed into heavy atoms:
               1          2
     1  C    1.070176  -0.031309
     2  F   -0.277579   0.059368
     3  F   -0.300772   0.011902
     4  F   -0.300733   0.011970
     5  O   -0.191091   0.948069
 APT charges:
               1
     1  C    1.832571
     2  F   -0.514084
     3  F   -0.536101
     4  F   -0.536008
     5  O   -0.246379
 Sum of APT charges =   0.00000
 APT charges with hydrogens summed into heavy atoms:
               1
     1  C    1.832571
     2  F   -0.514084
     3  F   -0.536101
     4  F   -0.536008
     5  O   -0.246379
 Electronic spatial extent (au):  <R**2>=            280.0226
 Charge=              0.0000 electrons
 Dipole moment (field-independent basis, Debye):
    X=             -0.0282    Y=             -0.0001    Z=              0.0195  Tot=              0.0343
 Quadrupole moment (field-independent basis, Debye-Ang):
   XX=            -25.9089   YY=            -26.4372   ZZ=            -25.7204
   XY=             -0.0024   XZ=              0.5307   YZ=             -0.0021
 Traceless Quadrupole moment (field-independent basis, Debye-Ang):
   XX=              0.1132   YY=             -0.4150   ZZ=              0.3018
   XY=             -0.0024   XZ=              0.5307   YZ=             -0.0021
 Octapole moment (field-independent basis, Debye-Ang**2):
  XXX=              1.4397  YYY=              0.0093  ZZZ=             -3.7652  XYY=              0.0608
  XXY=              0.0025  XXZ=             -1.3781  XZZ=              2.4918  YZZ=             -0.0025
  YYZ=             -1.6421  XYZ=             -0.0054
 Hexadecapole moment (field-independent basis, Debye-Ang**3):
 XXXX=            -91.5733 YYYY=            -84.8007 ZZZZ=            -86.4011 XXXY=             -0.0073
 XXXZ=              2.7405 YYYX=             -0.0073 YYYZ=              0.0085 ZZZX=              4.4792
 ZZZY=             -0.0054 XXYY=            -29.6559 XXZZ=            -30.6195 YYZZ=            -29.4416
 XXYZ=              0.0041 YYXZ=              1.2505 ZZXY=             -0.0038
 N-N= 1.949671160736D+02 E-N=-1.370876734322D+03  KE= 4.118005365336D+02
  Exact polarizability:  19.354   0.001  19.555  -0.761  -0.002  20.456
 Approx polarizability:  20.400   0.000  19.789  -0.376  -0.004  21.471
                          Isotropic Fermi Contact Couplings
        Atom                 a.u.       MegaHertz       Gauss      10(-4) cm-1
     1  C(13)             -0.03090     -34.74166     -12.39669     -11.58857
     2  F(19)              0.02270      95.52046      34.08408      31.86220
     3  F(19)             -0.00219      -9.20871      -3.28590      -3.07169
     4  F(19)             -0.00216      -9.09285      -3.24456      -3.03305
     5  O(17)              0.09791     -59.35238     -21.17840     -19.79782
 --------------------------------------------------------
       Center         ----  Spin Dipole Couplings  ----
                      3XX-RR        3YY-RR        3ZZ-RR
 --------------------------------------------------------
     1   Atom        0.003426     -0.035346      0.031920
     2   Atom       -0.230658     -0.261290      0.491948
     3   Atom       -0.056023     -0.012556      0.068579
     4   Atom       -0.056246     -0.013278      0.069524
     5   Atom        1.789435     -1.868390      0.078955
 --------------------------------------------------------
                        XY            XZ            YZ
 --------------------------------------------------------
     1   Atom        0.000047     -0.040492     -0.000112
     2   Atom        0.000259     -0.168616     -0.001158
     3   Atom        0.020108     -0.021152     -0.073822
     4   Atom       -0.020150     -0.021507      0.073811
     5   Atom       -0.012288      2.685768     -0.008990
 --------------------------------------------------------


 ---------------------------------------------------------------------------------
              Anisotropic Spin Dipole Couplings in Principal Axis System
 ---------------------------------------------------------------------------------

       Atom             a.u.   MegaHertz   Gauss  10(-4) cm-1        Axes

              Baa    -0.0353    -4.743    -1.692    -1.582  0.0014  1.0000  0.0025
     1 C(13)  Bbb    -0.0253    -3.389    -1.209    -1.130  0.8161 -0.0026  0.5780
              Bcc     0.0606     8.132     2.902     2.712 -0.5780 -0.0012  0.8161
 
              Baa    -0.2681  -134.630   -48.039   -44.908  0.9763 -0.0003  0.2166
     2 F(19)  Bbb    -0.2613  -131.228   -46.825   -43.773  0.0000  1.0000  0.0015
              Bcc     0.5294   265.858    94.865    88.681 -0.2166 -0.0015  0.9763
 
              Baa    -0.0653   -32.792   -11.701   -10.938  0.8045 -0.5647 -0.1843
     3 F(19)  Bbb    -0.0516   -25.933    -9.254    -8.650  0.5714  0.6507  0.5001
              Bcc     0.1169    58.725    20.955    19.589 -0.1625 -0.5076  0.8461
 
              Baa    -0.0656   -32.930   -11.750   -10.984  0.8049  0.5652 -0.1807
     4 F(19)  Bbb    -0.0519   -26.088    -9.309    -8.702 -0.5704  0.6532 -0.4979
              Bcc     0.1175    59.018    21.059    19.686 -0.1634  0.5038  0.8482
 
              Baa    -1.8845   136.358    48.656    45.484 -0.5902  0.0003  0.8073
     5 O(17)  Bbb    -1.8684   135.198    48.242    45.097  0.0024  1.0000  0.0013
              Bcc     3.7529  -271.556   -96.898   -90.581  0.8073 -0.0027  0.5902
 

 ---------------------------------------------------------------------------------

 Calling FoFJK, ICntrl=    100127 FMM=F ISym2X=0 I1Cent= 0 IOpClX= 1 NMat=1 NMatS=1 NMatT=0.
 Full mass-weighted force constant matrix:
 Low frequencies ---  -11.2633   -9.7688   -0.0009   -0.0009    0.0004    2.7426
 Low frequencies ---  282.3047  407.6007  578.7590
 Diagonal vibrational polarizability:
        7.9051224       7.6908782       4.6194782
 Harmonic frequencies (cm**-1), IR intensities (KM/Mole), Raman scattering
 activities (A**4/AMU), depolarization ratios for plane and unpolarized
 incident light, reduced masses (AMU), force constants (mDyne/A),
 and normal coordinates:
                      1                      2                      3
                      A                      A                      A
 Frequencies --    282.2829               407.6007               578.7589
 Red. masses --     17.8988                17.7021                17.6168
 Frc consts  --      0.8403                 1.7328                 3.4767
 IR Inten    --      1.8310                 1.1915                 7.3719
  Atom  AN      X      Y      Z        X      Y      Z        X      Y      Z
     1   6     0.00  -0.05   0.00    -0.11   0.00  -0.07     0.31  -0.00   0.23
     2   9    -0.00  -0.44   0.00     0.36  -0.00  -0.39     0.35   0.00   0.42
     3   9    -0.02  -0.02   0.47    -0.35   0.18   0.05    -0.16   0.40  -0.21
     4   9     0.02  -0.02  -0.47    -0.35  -0.18   0.04    -0.16  -0.40  -0.21
     5   8    -0.00   0.60   0.00     0.48   0.00   0.40    -0.27   0.00  -0.17
                      4                      5                      6
                      A                      A                      A
 Frequencies --    599.4819               621.1236               905.9412
 Red. masses --     17.7914                17.0125                18.0248
 Frc consts  --      3.7671                 3.8670                 8.7161
 IR Inten    --      1.1870                10.3371                 6.1482
  Atom  AN      X      Y      Z        X      Y      Z        X      Y      Z
     1   6     0.00   0.34   0.00    -0.19  -0.00   0.29    -0.04  -0.00   0.02
     2   9     0.00  -0.43   0.00     0.37   0.00  -0.03    -0.28   0.00  -0.33
     3   9     0.47   0.26   0.03     0.03  -0.31  -0.29     0.29   0.40  -0.03
     4   9    -0.47   0.26  -0.03     0.03   0.31  -0.28     0.29  -0.40  -0.04
     5   8    -0.00  -0.35  -0.00    -0.37  -0.00   0.50    -0.32  -0.00   0.46
                      7                      8                      9
                      A                      A                      A
 Frequencies --   1187.1635              1219.5866              1281.4501
 Red. masses --     13.2411                13.0663                12.8314
 Frc consts  --     10.9950                11.4506                12.4145
 IR Inten    --    312.5954               385.9871               295.8076
  Atom  AN      X      Y      Z        X      Y      Z        X      Y      Z
     1   6     0.59  -0.00   0.69     0.00   0.92   0.00     0.69   0.00  -0.60
     2   9    -0.21   0.00  -0.31    -0.00  -0.06  -0.00    -0.04  -0.00   0.04
     3   9    -0.10  -0.08  -0.03    -0.13  -0.24   0.02    -0.11  -0.09   0.05
     4   9    -0.10   0.08  -0.03     0.13  -0.24  -0.02    -0.11   0.09   0.05
     5   8     0.04   0.00  -0.08    -0.00  -0.06  -0.00    -0.21  -0.00   0.28

 -------------------
 - Thermochemistry -
 -------------------
 Temperature   298.150 Kelvin.  Pressure   1.00000 Atm.
 Atom     1 has atomic number  6 and mass  12.00000
 Atom     2 has atomic number  9 and mass  18.99840
 Atom     3 has atomic number  9 and mass  18.99840
 Atom     4 has atomic number  9 and mass  18.99840
 Atom     5 has atomic number  8 and mass  15.99491
 Molecular mass:    84.99012 amu.
 Principal axes and moments of inertia in atomic units:
                           1         2         3
     Eigenvalues --   296.35214 306.71772 321.73699
           X            0.99364   0.00029  -0.11259
           Y           -0.00035   1.00000  -0.00047
           Z            0.11259   0.00051   0.99364
 This molecule is an asymmetric top.
 Rotational symmetry number  1.
 Rotational temperatures (Kelvin)      0.29227     0.28239     0.26921
 Rotational constants (GHZ):           6.08985     5.88405     5.60937
 Zero-point vibrational energy      42368.1 (Joules/Mol)
                                   10.12621 (Kcal/Mol)
 Warning -- explicit consideration of   4 degrees of freedom as
           vibrations may cause significant error
 Vibrational temperatures:    406.14   586.45   832.70   862.52   893.66
          (Kelvin)           1303.45  1708.06  1754.71  1843.72
 
 Zero-point correction=                           0.016137 (Hartree/Particle)
 Thermal correction to Energy=                    0.020293
 Thermal correction to Enthalpy=                  0.021238
 Thermal correction to Gibbs Free Energy=        -0.011808
 Sum of electronic and zero-point Energies=           -412.784085
 Sum of electronic and thermal Energies=              -412.779929
 Sum of electronic and thermal Enthalpies=            -412.778985
 Sum of electronic and thermal Free Energies=         -412.812030
 
                     E (Thermal)             CV                S
                      KCal/Mol        Cal/Mol-Kelvin    Cal/Mol-Kelvin
 Total                   12.734             13.274             69.550
 Electronic               0.000              0.000              1.377
 Translational            0.889              2.981             39.233
 Rotational               0.889              2.981             24.884
 Vibrational             10.957              7.313              4.055
 Vibration     1          0.681              1.706              1.520
 Vibration     2          0.772              1.454              0.935
 Vibration     3          0.935              1.077              0.488
 Vibration     4          0.958              1.033              0.451
                       Q            Log10(Q)             Ln(Q)
 Total Bot       0.269929D+06          5.431249         12.505913
 Total V=0       0.714193D+13         12.853815         29.597004
 Vib (Bot)       0.715884D-07         -7.145157        -16.452332
 Vib (Bot)    1  0.680273D+00         -0.167317         -0.385262
 Vib (Bot)    2  0.434835D+00         -0.361676         -0.832789
 Vib (Bot)    3  0.263618D+00         -0.579025         -1.333254
 Vib (Bot)    4  0.249214D+00         -0.603428         -1.389445
 Vib (V=0)       0.189413D+01          0.277409          0.638758
 Vib (V=0)    1  0.134426D+01          0.128482          0.295842
 Vib (V=0)    2  0.116263D+01          0.065442          0.150686
 Vib (V=0)    3  0.106524D+01          0.027447          0.063199
 Vib (V=0)    4  0.105867D+01          0.024759          0.057009
 Electronic      0.200000D+01          0.301030          0.693147
 Translational   0.307969D+08          7.488507         17.242924
 Rotational      0.612167D+05          4.786870         11.022175
 ***** Axes restored to original set *****
 -------------------------------------------------------------------
 Center     Atomic                   Forces (Hartrees/Bohr)
 Number     Number              X              Y              Z
 -------------------------------------------------------------------
      1        6          -0.000267783   -0.000064616   -0.000008658
      2        9           0.000065731    0.000097879    0.000007203
      3        9           0.000009785    0.000006927    0.000037737
      4        9           0.000028084   -0.000016954   -0.000052989
      5        8           0.000164183   -0.000023236    0.000016706
 -------------------------------------------------------------------
 Cartesian Forces:  Max     0.000267783 RMS     0.000090604
 FormGI is forming the generalized inverse of G from B-inverse, IUseBI=4.

 GradGradGradGradGradGradGradGradGradGradGradGradGradGradGradGradGradGrad
 Berny optimization.
 Internal  Forces:  Max     0.000162590 RMS     0.000058573
 Search for a local minimum.
 Step number   1 out of a maximum of    2
 All quantities printed in internal units (Hartrees-Bohrs-Radians)
 Second derivative matrix not updated -- analytic derivatives used.
 The second derivative matrix:
                          R1        R2        R3        R4        A1
           R1           0.41274
           R2           0.05216   0.41140
           R3           0.05217   0.05903   0.41146
           R4           0.05207   0.05119   0.05120   0.38667
           A1           0.00577   0.01323  -0.01056  -0.00626   0.03278
           A2           0.00923  -0.00938   0.02230  -0.01701   0.00151
           A3           0.03510  -0.01814  -0.02220  -0.00106  -0.02886
           A4          -0.00084   0.01872   0.02156  -0.03200  -0.01457
           A5          -0.02307   0.01463  -0.02024   0.02522   0.00006
           A6          -0.02476  -0.01964   0.00879   0.03069   0.01051
           D1           0.01166   0.02161   0.01255  -0.03593   0.03170
           D2          -0.01627  -0.01270   0.03771  -0.00555  -0.02171
           D3           0.01953  -0.03341   0.01796  -0.00447  -0.01042
           D4           0.03579  -0.02071  -0.01976   0.00108   0.01129
                          A2        A3        A4        A5        A6
           A2           0.06875
           A3          -0.04886   0.12698
           A4           0.00367   0.03343   0.10250
           A5           0.00219  -0.04715  -0.05931   0.10763
           A6          -0.02488  -0.03759  -0.06790  -0.00290   0.12286
           D1           0.04275  -0.04262   0.04478  -0.03354  -0.04129
           D2           0.02746  -0.01850   0.02924  -0.02954   0.01232
           D3           0.03915  -0.00052  -0.01184  -0.02834   0.01362
           D4           0.01169   0.01798  -0.04107   0.00121   0.00130
                          D1        D2        D3        D4
           D1           0.08854
           D2           0.00656   0.05399
           D3           0.00259   0.02845   0.05452
           D4          -0.00397  -0.02555   0.02607   0.05162
 ITU=  0
     Eigenvalues ---    0.08429   0.09421   0.13289   0.18491   0.22529
     Eigenvalues ---    0.37055   0.38589   0.38856   0.56587
 Angle between quadratic step and forces=  33.54 degrees.
 Linear search not attempted -- first point.
 Iteration  1 RMS(Cart)=  0.00018867 RMS(Int)=  0.00000005
 Iteration  2 RMS(Cart)=  0.00000004 RMS(Int)=  0.00000003
 Variable       Old X    -DE/DX   Delta X   Delta X   Delta X     New X
                                 (Linear)    (Quad)   (Total)
    R1        2.51291   0.00012   0.00000   0.00045   0.00045   2.51336
    R2        2.50837   0.00003   0.00000   0.00005   0.00005   2.50841
    R3        2.50831   0.00006   0.00000   0.00010   0.00010   2.50841
    R4        2.55229  -0.00016   0.00000  -0.00056  -0.00056   2.55173
    A1        1.91420  -0.00000   0.00000  -0.00013  -0.00013   1.91407
    A2        1.91427  -0.00001   0.00000  -0.00018  -0.00018   1.91409
    A3        1.84074  -0.00003   0.00000  -0.00025  -0.00025   1.84048
    A4        1.87805   0.00001   0.00000   0.00008   0.00008   1.87813
    A5        1.95838  -0.00001   0.00000   0.00010   0.00010   1.95847
    A6        1.95808   0.00003   0.00000   0.00037   0.00037   1.95844
    D1        2.08132  -0.00000   0.00000  -0.00021  -0.00021   2.08111
    D2       -2.08321   0.00002   0.00000   0.00026   0.00026  -2.08295
    D3        2.08313  -0.00001   0.00000  -0.00017  -0.00017   2.08296
    D4       -2.11684  -0.00003   0.00000  -0.00043  -0.00043  -2.11728
         Item               Value     Threshold  Converged?
 Maximum Force            0.000163     0.000450     YES
 RMS     Force            0.000059     0.000300     YES
 Maximum Displacement     0.000378     0.001800     YES
 RMS     Displacement     0.000189     0.001200     YES
 Predicted change in Energy=-9.689035D-08
 Optimization completed.
    -- Stationary point found.
                           ----------------------------
                           !   Optimized Parameters   !
                           ! (Angstroms and Degrees)  !
 --------------------------                            --------------------------
 ! Name  Definition              Value          Derivative Info.                !
 --------------------------------------------------------------------------------
 ! R1    R(1,2)                  1.3298         -DE/DX =    0.0001              !
 ! R2    R(1,3)                  1.3274         -DE/DX =    0.0                 !
 ! R3    R(1,4)                  1.3273         -DE/DX =    0.0001              !
 ! R4    R(1,5)                  1.3506         -DE/DX =   -0.0002              !
 ! A1    A(2,1,3)              109.6755         -DE/DX =    0.0                 !
 ! A2    A(2,1,4)              109.6794         -DE/DX =    0.0                 !
 ! A3    A(2,1,5)              105.4664         -DE/DX =    0.0                 !
 ! A4    A(3,1,4)              107.6045         -DE/DX =    0.0                 !
 ! A5    A(3,1,5)              112.2067         -DE/DX =    0.0                 !
 ! A6    A(4,1,5)              112.1894         -DE/DX =    0.0                 !
 ! D1    D(2,1,4,3)            119.2506         -DE/DX =    0.0                 !
 ! D2    D(2,1,5,3)           -119.3594         -DE/DX =    0.0                 !
 ! D3    D(2,1,5,4)            119.3546         -DE/DX =    0.0                 !
 ! D4    D(3,1,5,4)           -121.286          -DE/DX =    0.0                 !
 --------------------------------------------------------------------------------
 GradGradGradGradGradGradGradGradGradGradGradGradGradGradGradGradGradGrad


 ----------------------------------------------------------------------

 Electric dipole moment (input orientation):
 (Debye = 10**-18 statcoulomb cm , SI units = C m)
                  (au)            (Debye)         (10**-30 SI)
   Tot        0.134819D-01      0.342675D-01      0.114304D+00
   x         -0.102281D-01     -0.259972D-01     -0.867173D-01
   y          0.878326D-02      0.223248D-01      0.744676D-01
   z         -0.357973D-04     -0.909877D-04     -0.303502D-03

 Dipole polarizability, Alpha (input orientation).
 (esu units = cm**3 , SI units = C**2 m**2 J**-1)
 Alpha(0;0):
               (au)            (10**-24 esu)      (10**-40 SI)
   iso        0.197883D+02      0.293232D+01      0.326265D+01
   aniso      0.166488D+01      0.246710D+00      0.274502D+00
   xx         0.207571D+02      0.307589D+01      0.342239D+01
   yx        -0.396117D+00     -0.586984D-01     -0.653108D-01
   yy         0.190527D+02      0.282333D+01      0.314137D+01
   zx         0.472549D-03      0.700246D-04      0.779128D-04
   zy         0.755438D-03      0.111944D-03      0.124555D-03
   zz         0.195550D+02      0.289776D+01      0.322419D+01

 ----------------------------------------------------------------------

 Dipole orientation:
     6          0.00911006          0.01052548         -0.00338014
     9          1.63842789          1.90721186          0.24681177
     9          1.07377862         -1.85143952         -1.30394288
     9         -1.99790891          0.78559616         -1.29286629
     8         -0.58697250         -0.69310683          2.37648661

 Electric dipole moment (dipole orientation):
 (Debye = 10**-18 statcoulomb cm , SI units = C m)
                  (au)            (Debye)         (10**-30 SI)
   Tot        0.134819D-01      0.342675D-01      0.114304D+00
   x          0.000000D+00      0.000000D+00      0.000000D+00
   y          0.000000D+00      0.000000D+00      0.000000D+00
   z          0.134819D-01      0.342675D-01      0.114304D+00

 Dipole polarizability, Alpha (dipole orientation).
 (esu units = cm**3 , SI units = C**2 m**2 J**-1)
 Alpha(0;0):
               (au)            (10**-24 esu)      (10**-40 SI)
   iso        0.197883D+02      0.293232D+01      0.326265D+01
   aniso      0.166488D+01      0.246710D+00      0.274502D+00
   xx         0.194815D+02      0.288686D+01      0.321207D+01
   yx        -0.844264D-01     -0.125107D-01     -0.139200D-01
   yy         0.194581D+02      0.288339D+01      0.320821D+01
   zx        -0.507961D+00     -0.752720D-01     -0.837514D-01
   zy        -0.595271D+00     -0.882101D-01     -0.981469D-01
   zz         0.204253D+02      0.302671D+01      0.336767D+01

 ----------------------------------------------------------------------
 1\1\GINC-CCLEARTI\Freq\UwB97XD\6-311+G(2d,2p)\C1F3O1(2)\RAPPE\17-Sep-2
 025\0\\#N Geom=AllCheck Guess=TCheck SCRF=Check GenChk UwB97XD/6-311+G
 (2d,2p) Freq\\Title Card Required\\0,2\C,0.0061560265,0.0044232628,0.0
 000334219\F,0.7677404784,1.094507165,-0.0000938296\F,0.2782610775,-0.7
 307411857,1.0712021614\F,0.2779353226,-0.7308546974,-1.0711058628\O,-1
 .267195905,0.4546794554,-0.0000368909\\Version=EM64M-G16RevA.03\State=
 2-A\HF=-412.8002226\S2=0.753074\S2-1=0.\S2A=0.750007\RMSD=8.495e-11\RM
 SF=9.060e-05\ZeroPoint=0.0161371\Thermal=0.0202935\Dipole=-0.0102281,0
 .0087833,-0.0000358\DipoleDeriv=1.5235953,-0.085395,0.0002868,-0.09490
 09,2.02417,-0.000346,0.0003174,-0.000156,1.9499475,-0.5147639,-0.29309
 74,-0.000283,-0.2159255,-0.6839071,0.0001103,-0.0000316,-0.0000209,-0.
 3435797,-0.3436339,0.1091094,-0.2433773,0.1148445,-0.5173034,0.3104047
 ,-0.1131704,0.2936351,-0.7473653,-0.3434459,0.1093505,0.2434423,0.1147
 682,-0.5173237,-0.3105854,0.1129189,-0.2936887,-0.7472534,-0.3217516,0
 .1600325,-0.0000688,0.0812138,-0.3056357,0.0004164,-0.0000343,0.000230
 5,-0.1117491\Polar=20.7571238,-0.3961167,19.052747,0.0004725,0.0007554
 ,19.5550244\Quadrupole=0.0232062,0.2853662,-0.3085724,0.3786703,-0.000
 0452,0.0006251\PG=C01 [X(C1F3O1)]\NImag=0\\0.56245339,-0.04570809,0.52
 207414,0.00001418,-0.00002839,0.53796738,-0.16217511,-0.10750311,-0.00
 002455,0.19005889,-0.08093194,-0.18962001,0.00002566,0.16221682,0.2947
 6917,0.00000711,0.00000071,-0.07755683,-0.00003140,-0.00003082,0.06861
 842,-0.08696859,0.03441789,-0.03996881,0.01511409,-0.02330759,0.006410
 66,0.06958800,0.02331569,-0.13224074,0.08307740,-0.01110365,-0.0526979
 6,0.04628396,-0.04011795,0.18215371,-0.03311657,0.08359567,-0.19822209
 ,0.00950022,0.03395274,-0.00876722,0.04968970,-0.14592725,0.30189128,-
 0.08693806,0.03451701,0.03997940,0.01520793,-0.02333557,-0.00638539,0.
 03151105,-0.00353548,-0.00140049,0.06948302,0.02330526,-0.13228664,-0.
 08312542,-0.01113093,-0.05269653,-0.04628752,-0.00355293,0.01827743,0.
 00881927,-0.04009180,0.18220484,0.03310340,-0.08365385,-0.19825601,-0.
 00951701,-0.03393658,-0.00875226,0.00137639,-0.00883611,-0.09158634,-0
 .04964824,0.14598564,0.30192310,-0.22637162,0.08427629,-0.00000023,-0.
 05820581,-0.03464172,-0.00000098,-0.02924456,0.03144139,-0.02467285,-0
 .02926395,0.03147040,0.02468547,0.34308593,0.08001907,-0.06792675,0.00
 005075,-0.03247913,0.00024534,0.00003367,0.03256058,-0.01549244,0.0195
 5957,0.03244583,-0.01549910,-0.01955910,-0.11254636,0.09867296,-0.0000
 0812,0.00008586,-0.06393246,0.00007274,-0.00001100,0.02645789,-0.01750
 794,0.02540201,-0.00331563,0.01745473,-0.02539197,-0.00332849,-0.00001
 141,-0.00008490,0.04411870\\0.00026778,0.00006462,0.00000866,-0.000065
 73,-0.00009788,-0.00000720,-0.00000978,-0.00000693,-0.00003774,-0.0000
 2808,0.00001695,0.00005299,-0.00016418,0.00002324,-0.00001671\\\@


 FROM WHENCE IT HAPPENS, THAT THEY WHICH TRUST TO BOOKS, DO AS THEY THAT CAST UP MANY LITTLE SUMMS INTO GREATER,
 WITHOUT CONSIDERING WETHER THOSE LITTLE SUMMES WERE RIGHTLY CAST UP OR NOT...
 AND AT LAST FINDING THE ERROUR VISIBLE, AND NOT MISTRUSTING THEIR FIRST GROUNDS,
 KNOW NOT WHICH WAY TO CLEERE THEMSELVES...
 BUT SPEND TIME IN FLUTTERING OVER THEIR BOOKES....
 AS BIRDS THAT ENTERING BY THE CHIMNEY, AND FINDING THEMSELVES INCLOSED IN A CHAMBER,
 FLUTTER AT THE FALSE LIGHT OF A GLASSE WINDOW,
 FOR WANT OF WIT TO CONSIDER WHICH WAY THEY CAME IN....
           LEVIATHAN
 Job cpu time:       0 days  0 hours 17 minutes 56.8 seconds.
 Elapsed time:       0 days  0 hours  0 minutes 45.6 seconds.
 File lengths (MBytes):  RWF=     27 Int=      0 D2E=      0 Chk=      3 Scr=      1
 Normal termination of Gaussian 16 at Wed Sep 17 15:34:21 2025.
