 Entering Gaussian System, Link 0=/applications/g16/g16/g16
 Initial command:
 /applications/g16/g16/l1.exe "/scratch/g98/Gau-25797.inp" -scrdir="/scratch/g98/"
 Entering Link 1 = /applications/g16/g16/l1.exe PID=     25798.
  
 Copyright (c) 1988,1990,1992,1993,1995,1998,2003,2009,2016,
            Gaussian, Inc.  All Rights Reserved.
  
 This is part of the Gaussian(R) 16 program.  It is based on
 the Gaussian(R) 09 system (copyright 2009, Gaussian, Inc.),
 the Gaussian(R) 03 system (copyright 2003, Gaussian, Inc.),
 the Gaussian(R) 98 system (copyright 1998, Gaussian, Inc.),
 the Gaussian(R) 94 system (copyright 1995, Gaussian, Inc.),
 the Gaussian 92(TM) system (copyright 1992, Gaussian, Inc.),
 the Gaussian 90(TM) system (copyright 1990, Gaussian, Inc.),
 the Gaussian 88(TM) system (copyright 1988, Gaussian, Inc.),
 the Gaussian 86(TM) system (copyright 1986, Carnegie Mellon
 University), and the Gaussian 82(TM) system (copyright 1983,
 Carnegie Mellon University). Gaussian is a federally registered
 trademark of Gaussian, Inc.
  
 This software contains proprietary and confidential information,
 including trade secrets, belonging to Gaussian, Inc.
  
 This software is provided under written license and may be
 used, copied, transmitted, or stored only in accord with that
 written license.
  
 The following legend is applicable only to US Government
 contracts under FAR:
  
                    RESTRICTED RIGHTS LEGEND
  
 Use, reproduction and disclosure by the US Government is
 subject to restrictions as set forth in subparagraphs (a)
 and (c) of the Commercial Computer Software - Restricted
 Rights clause in FAR 52.227-19.
  
 Gaussian, Inc.
 340 Quinnipiac St., Bldg. 40, Wallingford CT 06492
  
  
 ---------------------------------------------------------------
 Warning -- This program may not be used in any manner that
 competes with the business of Gaussian, Inc. or will provide
 assistance to any competitor of Gaussian, Inc.  The licensee
 of this program is prohibited from giving any competitor of
 Gaussian, Inc. access to this program.  By using this program,
 the user acknowledges that Gaussian, Inc. is engaged in the
 business of creating and licensing software in the field of
 computational chemistry and represents and warrants to the
 licensee that it is not a competitor of Gaussian, Inc. and that
 it will not use this program in any manner prohibited above.
 ---------------------------------------------------------------
  

 Cite this work as:
 Gaussian 16, Revision A.03,
 M. J. Frisch, G. W. Trucks, H. B. Schlegel, G. E. Scuseria, 
 M. A. Robb, J. R. Cheeseman, G. Scalmani, V. Barone, 
 G. A. Petersson, H. Nakatsuji, X. Li, M. Caricato, A. V. Marenich, 
 J. Bloino, B. G. Janesko, R. Gomperts, B. Mennucci, H. P. Hratchian, 
 J. V. Ortiz, A. F. Izmaylov, J. L. Sonnenberg, D. Williams-Young, 
 F. Ding, F. Lipparini, F. Egidi, J. Goings, B. Peng, A. Petrone, 
 T. Henderson, D. Ranasinghe, V. G. Zakrzewski, J. Gao, N. Rega, 
 G. Zheng, W. Liang, M. Hada, M. Ehara, K. Toyota, R. Fukuda, 
 J. Hasegawa, M. Ishida, T. Nakajima, Y. Honda, O. Kitao, H. Nakai, 
 T. Vreven, K. Throssell, J. A. Montgomery, Jr., J. E. Peralta, 
 F. Ogliaro, M. J. Bearpark, J. J. Heyd, E. N. Brothers, K. N. Kudin, 
 V. N. Staroverov, T. A. Keith, R. Kobayashi, J. Normand, 
 K. Raghavachari, A. P. Rendell, J. C. Burant, S. S. Iyengar, 
 J. Tomasi, M. Cossi, J. M. Millam, M. Klene, C. Adamo, R. Cammi, 
 J. W. Ochterski, R. L. Martin, K. Morokuma, O. Farkas, 
 J. B. Foresman, and D. J. Fox, Gaussian, Inc., Wallingford CT, 2016.
 
 ******************************************
 Gaussian 16:  EM64M-G16RevA.03 25-Dec-2016
                 5-Jul-2022 
 ******************************************
 %mem=48GB
 %nprocshared=24
 Will use up to   24 processors via shared memory.
 %chk=frd_903.chk
 --------------------------------------------------
 # opt wb97xd/6-311+g(2d,2p) geom=connectivity freq
 --------------------------------------------------
 1/18=20,19=15,26=3,38=1,57=2/1,3;
 2/9=110,12=2,17=6,18=5,40=1/2;
 3/5=4,6=6,7=212,11=2,25=1,30=1,71=1,74=-58/1,2,3;
 4//1;
 5/5=2,38=5/2;
 6/7=2,8=2,9=2,10=2,28=1/1;
 7//1,2,3,16;
 1/18=20,19=15,26=3/3(2);
 2/9=110/2;
 99//99;
 2/9=110/2;
 3/5=4,6=6,7=212,11=2,25=1,30=1,71=1,74=-58/1,2,3;
 4/5=5,16=3,69=1/1;
 5/5=2,38=5/2;
 7//1,2,3,16;
 1/18=20,19=15,26=3/3(-5);
 2/9=110/2;
 6/7=2,8=2,9=2,10=2,19=2,28=1/1;
 99/9=1/99;
 -------------------
 Title Card Required
 -------------------
 Symbolic Z-matrix:
 Charge =  0 Multiplicity = 1
 C                     3.24529   0.05181   0.04773 
 F                     4.13681  -0.83883   0.46176 
 F                     3.55694   0.42913  -1.18341 
 F                     3.29093   1.10817   0.85015 
 C                     1.83638  -0.60192   0.08384 
 F                     1.84661  -1.64902  -0.7479 
 F                     1.61284  -1.02957   1.33262 
 F                     0.86611   0.82116  -1.53441 
 F                     0.57987   1.3543    0.54266 
 C                     0.65876   0.32978  -0.31871 
 O                    -0.48331  -0.4335   -0.30193 
 C                    -1.64216   0.02681   0.27182 
 C                    -2.03744   1.48232  -0.11959 
 O                    -1.99865   1.83328  -1.2533 
 O                    -2.43849   2.24752   0.88435 
 H                    -2.35519   1.77572   1.72324 
 C                    -2.74621  -0.97183  -0.1631 
 F                    -1.56418  -0.06734   1.64029 
 F                    -2.85726  -1.01901  -1.4773 
 F                    -2.46776  -2.18401   0.29443 
 F                    -3.90856  -0.57564   0.35798 
 

 GradGradGradGradGradGradGradGradGradGradGradGradGradGradGradGradGradGrad
 Berny optimization.
 Initialization pass.
                           ----------------------------
                           !    Initial Parameters    !
                           ! (Angstroms and Degrees)  !
 --------------------------                            --------------------------
 ! Name  Definition              Value          Derivative Info.                !
 --------------------------------------------------------------------------------
 ! R1    R(1,2)                  1.3265         estimate D2E/DX2                !
 ! R2    R(1,3)                  1.3248         estimate D2E/DX2                !
 ! R3    R(1,4)                  1.3273         estimate D2E/DX2                !
 ! R4    R(1,5)                  1.5536         estimate D2E/DX2                !
 ! R5    R(5,6)                  1.3373         estimate D2E/DX2                !
 ! R6    R(5,7)                  1.3388         estimate D2E/DX2                !
 ! R7    R(5,10)                 1.5546         estimate D2E/DX2                !
 ! R8    R(8,10)                 1.3275         estimate D2E/DX2                !
 ! R9    R(9,10)                 1.3408         estimate D2E/DX2                !
 ! R10   R(10,11)                1.3738         estimate D2E/DX2                !
 ! R11   R(11,12)                1.3726         estimate D2E/DX2                !
 ! R12   R(12,13)                1.5582         estimate D2E/DX2                !
 ! R13   R(12,17)                1.5509         estimate D2E/DX2                !
 ! R14   R(12,18)                1.3739         estimate D2E/DX2                !
 ! R15   R(13,14)                1.1874         estimate D2E/DX2                !
 ! R16   R(13,15)                1.3245         estimate D2E/DX2                !
 ! R17   R(15,16)                0.9661         estimate D2E/DX2                !
 ! R18   R(17,19)                1.3197         estimate D2E/DX2                !
 ! R19   R(17,20)                1.3252         estimate D2E/DX2                !
 ! R20   R(17,21)                1.334          estimate D2E/DX2                !
 ! A1    A(2,1,3)              108.855          estimate D2E/DX2                !
 ! A2    A(2,1,4)              108.8179         estimate D2E/DX2                !
 ! A3    A(2,1,5)              108.6465         estimate D2E/DX2                !
 ! A4    A(3,1,4)              109.0884         estimate D2E/DX2                !
 ! A5    A(3,1,5)              110.7788         estimate D2E/DX2                !
 ! A6    A(4,1,5)              110.6107         estimate D2E/DX2                !
 ! A7    A(1,5,6)              107.9438         estimate D2E/DX2                !
 ! A8    A(1,5,7)              107.9092         estimate D2E/DX2                !
 ! A9    A(1,5,10)             115.3879         estimate D2E/DX2                !
 ! A10   A(6,5,7)              109.3486         estimate D2E/DX2                !
 ! A11   A(6,5,10)             108.3011         estimate D2E/DX2                !
 ! A12   A(7,5,10)             107.8475         estimate D2E/DX2                !
 ! A13   A(5,10,8)             109.9154         estimate D2E/DX2                !
 ! A14   A(5,10,9)             109.643          estimate D2E/DX2                !
 ! A15   A(5,10,11)            107.0733         estimate D2E/DX2                !
 ! A16   A(8,10,9)             108.3398         estimate D2E/DX2                !
 ! A17   A(8,10,11)            110.285          estimate D2E/DX2                !
 ! A18   A(9,10,11)            111.5789         estimate D2E/DX2                !
 ! A19   A(10,11,12)           121.377          estimate D2E/DX2                !
 ! A20   A(11,12,13)           114.9882         estimate D2E/DX2                !
 ! A21   A(11,12,17)           105.5368         estimate D2E/DX2                !
 ! A22   A(11,12,18)           110.2091         estimate D2E/DX2                !
 ! A23   A(13,12,17)           110.5144         estimate D2E/DX2                !
 ! A24   A(13,12,18)           109.1841         estimate D2E/DX2                !
 ! A25   A(17,12,18)           105.9976         estimate D2E/DX2                !
 ! A26   A(12,13,14)           120.5066         estimate D2E/DX2                !
 ! A27   A(12,13,15)           115.2185         estimate D2E/DX2                !
 ! A28   A(14,13,15)           124.2515         estimate D2E/DX2                !
 ! A29   A(13,15,16)           110.4836         estimate D2E/DX2                !
 ! A30   A(12,17,19)           111.2334         estimate D2E/DX2                !
 ! A31   A(12,17,20)           110.034          estimate D2E/DX2                !
 ! A32   A(12,17,21)           108.6325         estimate D2E/DX2                !
 ! A33   A(19,17,20)           109.1949         estimate D2E/DX2                !
 ! A34   A(19,17,21)           109.0429         estimate D2E/DX2                !
 ! A35   A(20,17,21)           108.6559         estimate D2E/DX2                !
 ! D1    D(2,1,5,6)            -61.1275         estimate D2E/DX2                !
 ! D2    D(2,1,5,7)             56.9484         estimate D2E/DX2                !
 ! D3    D(2,1,5,10)           177.605          estimate D2E/DX2                !
 ! D4    D(3,1,5,6)             58.4002         estimate D2E/DX2                !
 ! D5    D(3,1,5,7)            176.4762         estimate D2E/DX2                !
 ! D6    D(3,1,5,10)           -62.8673         estimate D2E/DX2                !
 ! D7    D(4,1,5,6)            179.4912         estimate D2E/DX2                !
 ! D8    D(4,1,5,7)            -62.4328         estimate D2E/DX2                !
 ! D9    D(4,1,5,10)            58.2238         estimate D2E/DX2                !
 ! D10   D(1,5,10,8)            56.8307         estimate D2E/DX2                !
 ! D11   D(1,5,10,9)           -62.1595         estimate D2E/DX2                !
 ! D12   D(1,5,10,11)          176.6333         estimate D2E/DX2                !
 ! D13   D(6,5,10,8)           -64.2434         estimate D2E/DX2                !
 ! D14   D(6,5,10,9)           176.7663         estimate D2E/DX2                !
 ! D15   D(6,5,10,11)           55.5592         estimate D2E/DX2                !
 ! D16   D(7,5,10,8)           177.5208         estimate D2E/DX2                !
 ! D17   D(7,5,10,9)            58.5306         estimate D2E/DX2                !
 ! D18   D(7,5,10,11)          -62.6766         estimate D2E/DX2                !
 ! D19   D(5,10,11,12)         135.2305         estimate D2E/DX2                !
 ! D20   D(8,10,11,12)        -105.2041         estimate D2E/DX2                !
 ! D21   D(9,10,11,12)          15.255          estimate D2E/DX2                !
 ! D22   D(10,11,12,13)         46.6591         estimate D2E/DX2                !
 ! D23   D(10,11,12,17)        168.7233         estimate D2E/DX2                !
 ! D24   D(10,11,12,18)        -77.2504         estimate D2E/DX2                !
 ! D25   D(11,12,13,14)         46.0488         estimate D2E/DX2                !
 ! D26   D(11,12,13,15)       -135.6375         estimate D2E/DX2                !
 ! D27   D(17,12,13,14)        -73.2862         estimate D2E/DX2                !
 ! D28   D(17,12,13,15)        105.0275         estimate D2E/DX2                !
 ! D29   D(18,12,13,14)        170.4985         estimate D2E/DX2                !
 ! D30   D(18,12,13,15)        -11.1878         estimate D2E/DX2                !
 ! D31   D(11,12,17,19)        -59.6172         estimate D2E/DX2                !
 ! D32   D(11,12,17,20)         61.5225         estimate D2E/DX2                !
 ! D33   D(11,12,17,21)       -179.6441         estimate D2E/DX2                !
 ! D34   D(13,12,17,19)         65.2843         estimate D2E/DX2                !
 ! D35   D(13,12,17,20)       -173.5761         estimate D2E/DX2                !
 ! D36   D(13,12,17,21)        -54.7426         estimate D2E/DX2                !
 ! D37   D(18,12,17,19)       -176.5343         estimate D2E/DX2                !
 ! D38   D(18,12,17,20)        -55.3947         estimate D2E/DX2                !
 ! D39   D(18,12,17,21)         63.4388         estimate D2E/DX2                !
 ! D40   D(12,13,15,16)          4.118          estimate D2E/DX2                !
 ! D41   D(14,13,15,16)       -177.6397         estimate D2E/DX2                !
 --------------------------------------------------------------------------------
 Trust Radius=3.00D-01 FncErr=1.00D-07 GrdErr=1.00D-06 EigMax=2.50D+02 EigMin=1.00D-04
 Number of steps in this run=    106 maximum allowed number of steps=    126.
 GradGradGradGradGradGradGradGradGradGradGradGradGradGradGradGradGradGrad

                          Input orientation:                          
 ---------------------------------------------------------------------
 Center     Atomic      Atomic             Coordinates (Angstroms)
 Number     Number       Type             X           Y           Z
 ---------------------------------------------------------------------
      1          6           0        3.245287    0.051812    0.047734
      2          9           0        4.136812   -0.838831    0.461758
      3          9           0        3.556940    0.429126   -1.183409
      4          9           0        3.290934    1.108171    0.850151
      5          6           0        1.836375   -0.601920    0.083835
      6          9           0        1.846609   -1.649019   -0.747904
      7          9           0        1.612837   -1.029569    1.332615
      8          9           0        0.866113    0.821159   -1.534406
      9          9           0        0.579865    1.354304    0.542657
     10          6           0        0.658761    0.329777   -0.318708
     11          8           0       -0.483314   -0.433502   -0.301933
     12          6           0       -1.642162    0.026806    0.271819
     13          6           0       -2.037441    1.482318   -0.119592
     14          8           0       -1.998654    1.833284   -1.253302
     15          8           0       -2.438493    2.247520    0.884354
     16          1           0       -2.355188    1.775716    1.723239
     17          6           0       -2.746211   -0.971833   -0.163096
     18          9           0       -1.564175   -0.067337    1.640291
     19          9           0       -2.857260   -1.019010   -1.477297
     20          9           0       -2.467756   -2.184006    0.294434
     21          9           0       -3.908562   -0.575641    0.357981
 ---------------------------------------------------------------------
                    Distance matrix (angstroms):
                    1          2          3          4          5
     1  C    0.000000
     2  F    1.326453   0.000000
     3  F    1.324842   2.156511   0.000000
     4  F    1.327347   2.158049   2.160377   0.000000
     5  C    1.553609   2.343280   2.372616   2.372213   0.000000
     6  F    2.341403   2.713801   2.726460   3.498850   1.337277
     7  F    2.342050   2.676793   3.498243   2.760202   1.338770
     8  F    2.958975   4.175848   2.741795   3.412953   2.363317
     9  F    3.007642   4.179504   3.563458   2.739531   2.369841
    10  C    2.627101   3.751215   3.026057   2.983364   1.554630
    11  O    3.776276   4.700328   4.224308   4.236626   2.357570
    12  C    4.892647   5.846533   5.413891   5.083233   3.539895
    13  C    5.475542   6.621714   5.791202   5.428809   4.403621
    14  O    5.689047   6.908370   5.730722   5.738471   4.735568
    15  O    6.150319   7.275904   6.597531   5.841714   5.199484
    16  H    6.094627   7.111487   6.724222   5.752095   5.090187
    17  C    6.081969   6.912607   6.537082   6.465308   4.604118
    18  F    5.067678   5.872427   5.869035   5.057492   3.777840
    19  F    6.380710   7.260127   6.582206   6.909573   4.964001
    20  F    6.139919   6.742241   6.731229   6.656558   4.590522
    21  F    7.188011   8.050347   7.688898   7.410141   5.751534
                    6          7          8          9         10
     6  F    0.000000
     7  F    2.183329   0.000000
     8  F    2.771595   3.493222   0.000000
     9  F    3.505729   2.715495   2.163417   0.000000
    10  C    2.347515   2.341997   1.327544   1.340832   0.000000
    11  O    2.665504   2.724131   2.216781   2.244979   1.373758
    12  C    4.002468   3.582769   3.191377   2.602500   2.394736
    13  C    5.028508   4.662940   3.296886   2.702823   2.938963
    14  O    5.212284   5.284483   3.051279   3.178624   3.193095
    15  O    6.017423   5.230060   4.336511   3.166240   3.836415
    16  H    5.957387   4.875185   4.679766   3.191535   3.917164
    17  C    4.679164   4.608881   4.259600   4.119682   3.648594
    18  F    4.454059   3.333761   4.095659   2.796922   2.989452
    19  F    4.801594   5.279913   4.153672   4.639683   3.940045
    20  F    4.470618   4.365980   4.846685   4.676457   4.058344
    21  F    5.957946   5.625105   5.322565   4.889250   4.705117
                   11         12         13         14         15
    11  O    0.000000
    12  C    1.372590   0.000000
    13  C    2.473646   1.558192   0.000000
    14  O    2.887850   2.390908   1.187426   0.000000
    15  O    3.523901   2.437399   1.324494   2.221401   0.000000
    16  H    3.533536   2.381956   1.892900   2.998371   0.966057
    17  C    2.330189   1.550921   2.554820   3.100979   3.399423
    18  F    2.252681   1.373922   2.392196   3.489128   2.587361
    19  F    2.712917   2.372678   2.961774   2.987132   4.052528
    20  F    2.712550   2.360044   3.714636   4.330608   4.470714
    21  F    3.491134   2.346686   2.822121   3.470865   3.226207
                   16         17         18         19         20
    16  H    0.000000
    17  C    3.355620   0.000000
    18  F    2.007343   2.338274   0.000000
    19  F    4.278551   1.319728   3.506723   0.000000
    20  F    4.211123   1.325230   2.666098   2.155913   0.000000
    21  F    3.131418   1.333997   2.720081   2.161032   2.160277
                   21
    21  F    0.000000
 Stoichiometry    C6HF11O3
 Framework group  C1[X(C6HF11O3)]
 Deg. of freedom    57
 Full point group                 C1      NOp   1
 Largest Abelian subgroup         C1      NOp   1
 Largest concise Abelian subgroup C1      NOp   1
                         Standard orientation:                         
 ---------------------------------------------------------------------
 Center     Atomic      Atomic             Coordinates (Angstroms)
 Number     Number       Type             X           Y           Z
 ---------------------------------------------------------------------
      1          6           0       -3.245287    0.051812   -0.047734
      2          9           0       -4.136812   -0.838831   -0.461758
      3          9           0       -3.556940    0.429126    1.183409
      4          9           0       -3.290934    1.108171   -0.850151
      5          6           0       -1.836375   -0.601920   -0.083835
      6          9           0       -1.846609   -1.649019    0.747904
      7          9           0       -1.612837   -1.029569   -1.332615
      8          9           0       -0.866113    0.821159    1.534406
      9          9           0       -0.579865    1.354304   -0.542657
     10          6           0       -0.658761    0.329777    0.318708
     11          8           0        0.483314   -0.433502    0.301933
     12          6           0        1.642162    0.026806   -0.271819
     13          6           0        2.037441    1.482318    0.119592
     14          8           0        1.998654    1.833284    1.253302
     15          8           0        2.438493    2.247520   -0.884354
     16          1           0        2.355188    1.775716   -1.723239
     17          6           0        2.746211   -0.971833    0.163096
     18          9           0        1.564175   -0.067337   -1.640291
     19          9           0        2.857260   -1.019010    1.477297
     20          9           0        2.467756   -2.184006   -0.294434
     21          9           0        3.908562   -0.575641   -0.357981
 ---------------------------------------------------------------------
 Rotational constants (GHZ):           0.6821806           0.2190551           0.2032092
 Standard basis: 6-311+G(2d,2p) (5D, 7F)
 There are   589 symmetry adapted cartesian basis functions of A   symmetry.
 There are   549 symmetry adapted basis functions of A   symmetry.
   549 basis functions,   851 primitive gaussians,   589 cartesian basis functions
    80 alpha electrons       80 beta electrons
       nuclear repulsion energy      2039.2391642816 Hartrees.
 NAtoms=   21 NActive=   21 NUniq=   21 SFac= 1.00D+00 NAtFMM=   60 NAOKFM=F Big=F
 Integral buffers will be    131072 words long.
 Raffenetti 2 integral format.
 Two-electron integral symmetry is turned on.
 Nuclear repulsion after empirical dispersion term =     2039.2249115618 Hartrees.
 One-electron integrals computed using PRISM.
 NBasis=   549 RedAO= T EigKep=  8.38D-06  NBF=   549
 NBsUse=   549 1.00D-06 EigRej= -1.00D+00 NBFU=   549
 ExpMin= 4.38D-02 ExpMax= 1.14D+04 ExpMxC= 1.72D+03 IAcc=3 IRadAn=         5 AccDes= 0.00D+00
 Harris functional with IExCor= 4639 and IRadAn=       5 diagonalized for initial guess.
 HarFok:  IExCor= 4639 AccDes= 0.00D+00 IRadAn=         5 IDoV= 1 UseB2=F ITyADJ=14
 ICtDFT=  3500011 ScaDFX=  1.000000  1.000000  1.000000  1.000000
 FoFCou: FMM=F IPFlag=           0 FMFlag=      100000 FMFlg1=           0
         NFxFlg=           0 DoJE=T BraDBF=F KetDBF=T FulRan=T
         wScrn=  0.000000 ICntrl=       500 IOpCl=  0 I1Cent=   200000004 NGrid=           0
         NMat0=    1 NMatS0=      1 NMatT0=    0 NMatD0=    1 NMtDS0=    0 NMtDT0=    0
 Petite list used in FoFCou.
 Requested convergence on RMS density matrix=1.00D-08 within 128 cycles.
 Requested convergence on MAX density matrix=1.00D-06.
 Requested convergence on             energy=1.00D-06.
 No special actions if energy rises.
 SCF Done:  E(RwB97XD) =  -1553.25529210     A.U. after   14 cycles
            NFock= 14  Conv=0.51D-08     -V/T= 2.0026

 **********************************************************************

            Population analysis using the SCF density.

 **********************************************************************

 Orbital symmetries:
       Occupied  (A) (A) (A) (A) (A) (A) (A) (A) (A) (A) (A) (A)
                 (A) (A) (A) (A) (A) (A) (A) (A) (A) (A) (A) (A)
                 (A) (A) (A) (A) (A) (A) (A) (A) (A) (A) (A) (A)
                 (A) (A) (A) (A) (A) (A) (A) (A) (A) (A) (A) (A)
                 (A) (A) (A) (A) (A) (A) (A) (A) (A) (A) (A) (A)
                 (A) (A) (A) (A) (A) (A) (A) (A) (A) (A) (A) (A)
                 (A) (A) (A) (A) (A) (A) (A) (A)
       Virtual   (A) (A) (A) (A) (A) (A) (A) (A) (A) (A) (A) (A)
                 (A) (A) (A) (A) (A) (A) (A) (A) (A) (A) (A) (A)
                 (A) (A) (A) (A) (A) (A) (A) (A) (A) (A) (A) (A)
                 (A) (A) (A) (A) (A) (A) (A) (A) (A) (A) (A) (A)
                 (A) (A) (A) (A) (A) (A) (A) (A) (A) (A) (A) (A)
                 (A) (A) (A) (A) (A) (A) (A) (A) (A) (A) (A) (A)
                 (A) (A) (A) (A) (A) (A) (A) (A) (A) (A) (A) (A)
                 (A) (A) (A) (A) (A) (A) (A) (A) (A) (A) (A) (A)
                 (A) (A) (A) (A) (A) (A) (A) (A) (A) (A) (A) (A)
                 (A) (A) (A) (A) (A) (A) (A) (A) (A) (A) (A) (A)
                 (A) (A) (A) (A) (A) (A) (A) (A) (A) (A) (A) (A)
                 (A) (A) (A) (A) (A) (A) (A) (A) (A) (A) (A) (A)
                 (A) (A) (A) (A) (A) (A) (A) (A) (A) (A) (A) (A)
                 (A) (A) (A) (A) (A) (A) (A) (A) (A) (A) (A) (A)
                 (A) (A) (A) (A) (A) (A) (A) (A) (A) (A) (A) (A)
                 (A) (A) (A) (A) (A) (A) (A) (A) (A) (A) (A) (A)
                 (A) (A) (A) (A) (A) (A) (A) (A) (A) (A) (A) (A)
                 (A) (A) (A) (A) (A) (A) (A) (A) (A) (A) (A) (A)
                 (A) (A) (A) (A) (A) (A) (A) (A) (A) (A) (A) (A)
                 (A) (A) (A) (A) (A) (A) (A) (A) (A) (A) (A) (A)
                 (A) (A) (A) (A) (A) (A) (A) (A) (A) (A) (A) (A)
                 (A) (A) (A) (A) (A) (A) (A) (A) (A) (A) (A) (A)
                 (A) (A) (A) (A) (A) (A) (A) (A) (A) (A) (A) (A)
                 (A) (A) (A) (A) (A) (A) (A) (A) (A) (A) (A) (A)
                 (A) (A) (A) (A) (A) (A) (A) (A) (A) (A) (A) (A)
                 (A) (A) (A) (A) (A) (A) (A) (A) (A) (A) (A) (A)
                 (A) (A) (A) (A) (A) (A) (A) (A) (A) (A) (A) (A)
                 (A) (A) (A) (A) (A) (A) (A) (A) (A) (A) (A) (A)
                 (A) (A) (A) (A) (A) (A) (A) (A) (A) (A) (A) (A)
                 (A) (A) (A) (A) (A) (A) (A) (A) (A) (A) (A) (A)
                 (A) (A) (A) (A) (A) (A) (A) (A) (A) (A) (A) (A)
                 (A) (A) (A) (A) (A) (A) (A) (A) (A) (A) (A) (A)
                 (A) (A) (A) (A) (A) (A) (A) (A) (A) (A) (A) (A)
                 (A) (A) (A) (A) (A) (A) (A) (A) (A) (A) (A) (A)
                 (A) (A) (A) (A) (A) (A) (A) (A) (A) (A) (A) (A)
                 (A) (A) (A) (A) (A) (A) (A) (A) (A) (A) (A) (A)
                 (A) (A) (A) (A) (A) (A) (A) (A) (A) (A) (A) (A)
                 (A) (A) (A) (A) (A) (A) (A) (A) (A) (A) (A) (A)
                 (A) (A) (A) (A) (A) (A) (A) (A) (A) (A) (A) (A)
                 (A)
 The electronic state is 1-A.
 Alpha  occ. eigenvalues --  -24.89516 -24.88508 -24.88487 -24.88421 -24.88351
 Alpha  occ. eigenvalues --  -24.88305 -24.88282 -24.88281 -24.88216 -24.88197
 Alpha  occ. eigenvalues --  -24.88177 -19.36865 -19.34507 -19.28436 -10.58881
 Alpha  occ. eigenvalues --  -10.58786 -10.58075 -10.53199 -10.51628 -10.47401
 Alpha  occ. eigenvalues --   -1.47948  -1.47537  -1.45915  -1.43346  -1.40468
 Alpha  occ. eigenvalues --   -1.38949  -1.38135  -1.38098  -1.38080  -1.37980
 Alpha  occ. eigenvalues --   -1.37207  -1.26954  -1.26114  -1.18410  -0.97415
 Alpha  occ. eigenvalues --   -0.93300  -0.86847  -0.82963  -0.81654  -0.78521
 Alpha  occ. eigenvalues --   -0.76982  -0.76125  -0.75256  -0.74791  -0.74332
 Alpha  occ. eigenvalues --   -0.74235  -0.73085  -0.72524  -0.71971  -0.70489
 Alpha  occ. eigenvalues --   -0.69761  -0.64457  -0.61786  -0.61693  -0.61089
 Alpha  occ. eigenvalues --   -0.60716  -0.60609  -0.60324  -0.60050  -0.59433
 Alpha  occ. eigenvalues --   -0.58965  -0.58831  -0.58290  -0.57564  -0.57120
 Alpha  occ. eigenvalues --   -0.56966  -0.56471  -0.56321  -0.55600  -0.55188
 Alpha  occ. eigenvalues --   -0.55034  -0.54307  -0.54265  -0.53780  -0.53036
 Alpha  occ. eigenvalues --   -0.50791  -0.49219  -0.47120  -0.45448  -0.41185
 Alpha virt. eigenvalues --    0.01885   0.05445   0.07436   0.08117   0.08501
 Alpha virt. eigenvalues --    0.09034   0.09308   0.10015   0.11228   0.11661
 Alpha virt. eigenvalues --    0.12038   0.12482   0.13103   0.13256   0.14146
 Alpha virt. eigenvalues --    0.14404   0.15077   0.15386   0.16189   0.16530
 Alpha virt. eigenvalues --    0.17469   0.17851   0.18942   0.19497   0.20001
 Alpha virt. eigenvalues --    0.20649   0.21068   0.21745   0.22991   0.23684
 Alpha virt. eigenvalues --    0.23936   0.24555   0.25228   0.26037   0.26387
 Alpha virt. eigenvalues --    0.26728   0.27233   0.27422   0.28810   0.28910
 Alpha virt. eigenvalues --    0.30009   0.30341   0.30817   0.31063   0.31320
 Alpha virt. eigenvalues --    0.32431   0.32581   0.33184   0.33427   0.34229
 Alpha virt. eigenvalues --    0.34964   0.35241   0.35550   0.35642   0.35984
 Alpha virt. eigenvalues --    0.36625   0.37284   0.37505   0.38467   0.38757
 Alpha virt. eigenvalues --    0.39399   0.39548   0.40315   0.40666   0.41125
 Alpha virt. eigenvalues --    0.41827   0.42047   0.42321   0.42484   0.43404
 Alpha virt. eigenvalues --    0.43809   0.44142   0.44314   0.44692   0.44906
 Alpha virt. eigenvalues --    0.45408   0.45889   0.46906   0.47612   0.47923
 Alpha virt. eigenvalues --    0.48274   0.48691   0.49298   0.49369   0.49995
 Alpha virt. eigenvalues --    0.50538   0.52186   0.52528   0.53055   0.53079
 Alpha virt. eigenvalues --    0.54275   0.54752   0.55813   0.56952   0.58280
 Alpha virt. eigenvalues --    0.59255   0.59931   0.62524   0.63836   0.64247
 Alpha virt. eigenvalues --    0.65674   0.66129   0.66874   0.67514   0.68262
 Alpha virt. eigenvalues --    0.70456   0.71044   0.71873   0.72848   0.74508
 Alpha virt. eigenvalues --    0.75446   0.75795   0.77042   0.78923   0.79607
 Alpha virt. eigenvalues --    0.80968   0.82177   0.82311   0.84369   0.85693
 Alpha virt. eigenvalues --    0.86163   0.89164   0.90210   0.91214   0.93849
 Alpha virt. eigenvalues --    0.96783   0.98978   1.00220   1.01381   1.02873
 Alpha virt. eigenvalues --    1.05067   1.07305   1.08434   1.09431   1.10901
 Alpha virt. eigenvalues --    1.11677   1.13019   1.14099   1.14248   1.15225
 Alpha virt. eigenvalues --    1.15728   1.17265   1.19375   1.19458   1.22056
 Alpha virt. eigenvalues --    1.22339   1.23325   1.26338   1.26525   1.27471
 Alpha virt. eigenvalues --    1.29329   1.30115   1.32839   1.34733   1.34973
 Alpha virt. eigenvalues --    1.36001   1.36643   1.37105   1.37849   1.39630
 Alpha virt. eigenvalues --    1.39962   1.42726   1.42907   1.43806   1.44460
 Alpha virt. eigenvalues --    1.45168   1.45329   1.45664   1.46705   1.47571
 Alpha virt. eigenvalues --    1.47821   1.48721   1.48726   1.49090   1.49985
 Alpha virt. eigenvalues --    1.50216   1.50642   1.50754   1.51262   1.52885
 Alpha virt. eigenvalues --    1.53448   1.53852   1.54592   1.55046   1.55721
 Alpha virt. eigenvalues --    1.56535   1.56941   1.57547   1.58110   1.59594
 Alpha virt. eigenvalues --    1.60273   1.62405   1.62550   1.64001   1.64610
 Alpha virt. eigenvalues --    1.66398   1.67552   1.69234   1.69571   1.72622
 Alpha virt. eigenvalues --    1.73121   1.75495   1.79057   1.81654   1.83591
 Alpha virt. eigenvalues --    1.86443   1.88929   1.90627   1.93279   1.93534
 Alpha virt. eigenvalues --    1.95909   1.98103   2.00482   2.01078   2.02542
 Alpha virt. eigenvalues --    2.03852   2.05229   2.05311   2.06616   2.07966
 Alpha virt. eigenvalues --    2.09521   2.09772   2.10524   2.11095   2.11410
 Alpha virt. eigenvalues --    2.12111   2.14009   2.15347   2.16861   2.16955
 Alpha virt. eigenvalues --    2.17610   2.18924   2.19984   2.20393   2.20878
 Alpha virt. eigenvalues --    2.21021   2.23483   2.25849   2.27859   2.29696
 Alpha virt. eigenvalues --    2.30871   2.32384   2.32444   2.35243   2.36285
 Alpha virt. eigenvalues --    2.37448   2.38462   2.40696   2.41665   2.46312
 Alpha virt. eigenvalues --    2.46508   2.47735   2.50361   2.51659   2.52280
 Alpha virt. eigenvalues --    2.53369   2.54659   2.57145   2.61039   2.62283
 Alpha virt. eigenvalues --    2.64561   2.66105   2.67424   2.69898   2.71226
 Alpha virt. eigenvalues --    2.71979   2.73441   2.73993   2.74192   2.76004
 Alpha virt. eigenvalues --    2.78220   2.78829   2.79569   2.83618   2.85974
 Alpha virt. eigenvalues --    2.87041   2.88079   2.91621   2.96630   3.00508
 Alpha virt. eigenvalues --    3.02283   3.07729   3.11494   3.14179   3.17784
 Alpha virt. eigenvalues --    3.20925   3.25009   3.27674   3.30039   3.39274
 Alpha virt. eigenvalues --    3.41638   3.43808   3.44996   3.45950   3.47780
 Alpha virt. eigenvalues --    3.48440   3.49627   3.50154   3.53436   3.54386
 Alpha virt. eigenvalues --    3.55383   3.56262   3.58526   3.59279   3.60022
 Alpha virt. eigenvalues --    3.62518   3.63771   3.64532   3.67318   3.67651
 Alpha virt. eigenvalues --    3.68894   3.71267   3.72760   3.73712   3.75894
 Alpha virt. eigenvalues --    3.77556   3.79691   3.84481   3.85547   3.89025
 Alpha virt. eigenvalues --    3.90191   3.92683   4.07123   4.12973   4.20218
 Alpha virt. eigenvalues --    4.27823   4.28634   4.30833   4.31858   4.32276
 Alpha virt. eigenvalues --    4.33012   4.35791   4.37310   4.37673   4.39099
 Alpha virt. eigenvalues --    4.44261   4.51243   5.12777   5.21015   5.30105
 Alpha virt. eigenvalues --    5.33886   5.50719   5.57744   5.92034   6.03155
 Alpha virt. eigenvalues --    6.36492   6.40265   6.42593   6.43393   6.44880
 Alpha virt. eigenvalues --    6.45651   6.46011   6.46570   6.46959   6.48185
 Alpha virt. eigenvalues --    6.48523   6.49770   6.50003   6.50184   6.51729
 Alpha virt. eigenvalues --    6.52166   6.53588   6.53692   6.54423   6.55244
 Alpha virt. eigenvalues --    6.57553   6.59216   6.61165   6.64148   6.65392
 Alpha virt. eigenvalues --    6.66319   6.72555   6.75784   6.82403   6.87335
 Alpha virt. eigenvalues --    6.88200   6.88606   6.89956   6.90935   6.94608
 Alpha virt. eigenvalues --    6.95590   6.96775   7.05834   7.11174   7.15324
 Alpha virt. eigenvalues --    7.16258   7.20395   7.24499   7.30361   7.32066
 Alpha virt. eigenvalues --    7.43765   7.47958   7.55273   7.63903   9.08297
 Alpha virt. eigenvalues --    9.08697   9.08979   9.10516   9.10867   9.10999
 Alpha virt. eigenvalues --    9.11663   9.12412   9.15216   9.16270   9.18371
 Alpha virt. eigenvalues --    9.18975   9.20692   9.20939   9.21028   9.21993
 Alpha virt. eigenvalues --    9.22745   9.23675   9.24254   9.25185   9.25619
 Alpha virt. eigenvalues --    9.26008   9.27183   9.27963   9.29299   9.29367
 Alpha virt. eigenvalues --    9.33945   9.34391   9.35243   9.36773   9.42407
 Alpha virt. eigenvalues --    9.44302   9.44464   9.45647   9.52038   9.52103
 Alpha virt. eigenvalues --    9.53956   9.64889   9.65800   9.68390   9.68771
 Alpha virt. eigenvalues --    9.69950   9.73164   9.74363   9.75482   9.76502
 Alpha virt. eigenvalues --    9.77058   9.78025   9.80371   9.81196   9.87799
 Alpha virt. eigenvalues --    9.90163   9.90270   9.90774   9.91918  23.93998
 Alpha virt. eigenvalues --   23.97776  24.02977  24.04657  24.12137  24.21874
 Alpha virt. eigenvalues --   50.08484  50.13503  50.19610  66.92722  66.93982
 Alpha virt. eigenvalues --   66.94904  66.95699  66.97201  66.97317  66.98481
 Alpha virt. eigenvalues --   67.00183  67.03035  67.03647  67.04650
          Condensed to atoms (all electrons):
               1          2          3          4          5          6
     1  C    5.253704   0.231575   0.266718   0.247456  -0.959237  -0.139922
     2  F    0.231575   9.119155  -0.006473  -0.004570  -0.161437   0.021498
     3  F    0.266718  -0.006473   9.051326   0.018412  -0.096060   0.017703
     4  F    0.247456  -0.004570   0.018412   9.065310  -0.115713  -0.000162
     5  C   -0.959237  -0.161437  -0.096060  -0.115713  10.057830   0.361139
     6  F   -0.139922   0.021498   0.017703  -0.000162   0.361139   9.063749
     7  F   -0.127499   0.023805  -0.001011   0.018001   0.299982   0.001669
     8  F   -0.010688   0.000804   0.006293  -0.007114  -0.070239   0.015810
     9  F    0.015976  -0.000026  -0.004739   0.002708  -0.107541  -0.000646
    10  C    0.300770   0.057459   0.018626   0.060963  -3.830498  -0.115358
    11  O    0.039504  -0.000835   0.001602   0.002283  -0.190499   0.043968
    12  C   -0.248155   0.003494   0.006085  -0.001244   0.715640  -0.012203
    13  C    0.005561  -0.000350   0.000515   0.001945  -0.493705   0.002138
    14  O    0.004843  -0.000008   0.000062  -0.000035   0.015464  -0.000049
    15  O    0.000497   0.000000   0.000006  -0.000019   0.002854  -0.000029
    16  H    0.000837  -0.000001  -0.000002   0.000016  -0.001797   0.000001
    17  C    0.035961   0.000010   0.000019  -0.000791   0.081254   0.006617
    18  F    0.003296  -0.000002   0.000026  -0.000178  -0.018436  -0.000832
    19  F   -0.000234  -0.000001   0.000003  -0.000001  -0.001568   0.000071
    20  F    0.000442   0.000000  -0.000000   0.000003  -0.008152  -0.000346
    21  F    0.000531  -0.000000   0.000000   0.000000   0.001458   0.000001
               7          8          9         10         11         12
     1  C   -0.127499  -0.010688   0.015976   0.300770   0.039504  -0.248155
     2  F    0.023805   0.000804  -0.000026   0.057459  -0.000835   0.003494
     3  F   -0.001011   0.006293  -0.004739   0.018626   0.001602   0.006085
     4  F    0.018001  -0.007114   0.002708   0.060963   0.002283  -0.001244
     5  C    0.299982  -0.070239  -0.107541  -3.830498  -0.190499   0.715640
     6  F    0.001669   0.015810  -0.000646  -0.115358   0.043968  -0.012203
     7  F    9.058634   0.001258   0.017650  -0.050402   0.039299  -0.029506
     8  F    0.001258   9.031992   0.037675   0.232310   0.007004   0.000997
     9  F    0.017650   0.037675   9.051534   0.319666  -0.050575  -0.092941
    10  C   -0.050402   0.232310   0.319666   9.610662   0.343480  -1.903220
    11  O    0.039299   0.007004  -0.050575   0.343480   8.326309  -0.069427
    12  C   -0.029506   0.000997  -0.092941  -1.903220  -0.069427  10.016892
    13  C    0.006900  -0.005758   0.023148   0.567155   0.030798  -1.102849
    14  O    0.000008   0.003187   0.000484   0.024056  -0.005304  -0.072055
    15  O   -0.000036  -0.000161   0.015048   0.006125   0.007976   0.020650
    16  H   -0.000006  -0.000034  -0.003045   0.003407   0.002035  -0.036417
    17  C    0.002997   0.010955   0.033727  -0.262112  -0.164168  -1.224867
    18  F    0.003446   0.001876   0.020274   0.034684  -0.058721   0.188893
    19  F    0.000051  -0.000142  -0.000142  -0.012797   0.023355   0.032159
    20  F   -0.000487   0.000000  -0.000166   0.010708   0.029869  -0.113095
    21  F   -0.000017  -0.000132   0.000193   0.019746  -0.003683  -0.009897
              13         14         15         16         17         18
     1  C    0.005561   0.004843   0.000497   0.000837   0.035961   0.003296
     2  F   -0.000350  -0.000008   0.000000  -0.000001   0.000010  -0.000002
     3  F    0.000515   0.000062   0.000006  -0.000002   0.000019   0.000026
     4  F    0.001945  -0.000035  -0.000019   0.000016  -0.000791  -0.000178
     5  C   -0.493705   0.015464   0.002854  -0.001797   0.081254  -0.018436
     6  F    0.002138  -0.000049  -0.000029   0.000001   0.006617  -0.000832
     7  F    0.006900   0.000008  -0.000036  -0.000006   0.002997   0.003446
     8  F   -0.005758   0.003187  -0.000161  -0.000034   0.010955   0.001876
     9  F    0.023148   0.000484   0.015048  -0.003045   0.033727   0.020274
    10  C    0.567155   0.024056   0.006125   0.003407  -0.262112   0.034684
    11  O    0.030798  -0.005304   0.007976   0.002035  -0.164168  -0.058721
    12  C   -1.102849  -0.072055   0.020650  -0.036417  -1.224867   0.188893
    13  C    6.218502   0.381603   0.252716   0.041069  -0.275491  -0.069466
    14  O    0.381603   7.976673  -0.064777  -0.005301   0.020312   0.017077
    15  O    0.252716  -0.064777   7.872330   0.229844  -0.048667  -0.028688
    16  H    0.041069  -0.005301   0.229844   0.479548   0.007289   0.031748
    17  C   -0.275491   0.020312  -0.048667   0.007289   5.988531  -0.080549
    18  F   -0.069466   0.017077  -0.028688   0.031748  -0.080549   9.216433
    19  F   -0.006188  -0.005155  -0.001660  -0.000153   0.225247   0.004748
    20  F    0.044356   0.000643  -0.000427  -0.000523   0.231398   0.027705
    21  F    0.002773  -0.003784   0.008352  -0.003059   0.155534   0.031191
              19         20         21
     1  C   -0.000234   0.000442   0.000531
     2  F   -0.000001   0.000000  -0.000000
     3  F    0.000003  -0.000000   0.000000
     4  F   -0.000001   0.000003   0.000000
     5  C   -0.001568  -0.008152   0.001458
     6  F    0.000071  -0.000346   0.000001
     7  F    0.000051  -0.000487  -0.000017
     8  F   -0.000142   0.000000  -0.000132
     9  F   -0.000142  -0.000166   0.000193
    10  C   -0.012797   0.010708   0.019746
    11  O    0.023355   0.029869  -0.003683
    12  C    0.032159  -0.113095  -0.009897
    13  C   -0.006188   0.044356   0.002773
    14  O   -0.005155   0.000643  -0.003784
    15  O   -0.001660  -0.000427   0.008352
    16  H   -0.000153  -0.000523  -0.003059
    17  C    0.225247   0.231398   0.155534
    18  F    0.004748   0.027705   0.031191
    19  F    9.000176  -0.005004   0.004627
    20  F   -0.005004   9.067198  -0.004313
    21  F    0.004627  -0.004313   9.089339
 Mulliken charges:
               1
     1  C    1.078063
     2  F   -0.284101
     3  F   -0.279111
     4  F   -0.287272
     5  C    0.519261
     6  F   -0.264818
     7  F   -0.264737
     8  F   -0.255895
     9  F   -0.278264
    10  C    0.564571
    11  O   -0.354272
    12  C   -0.068935
    13  C    0.374627
    14  O   -0.287944
    15  O   -0.271933
    16  H    0.254546
    17  C    1.256794
    18  F   -0.324524
    19  F   -0.257390
    20  F   -0.279808
    21  F   -0.288860
 Sum of Mulliken charges =  -0.00000
 Mulliken charges with hydrogens summed into heavy atoms:
               1
     1  C    1.078063
     2  F   -0.284101
     3  F   -0.279111
     4  F   -0.287272
     5  C    0.519261
     6  F   -0.264818
     7  F   -0.264737
     8  F   -0.255895
     9  F   -0.278264
    10  C    0.564571
    11  O   -0.354272
    12  C   -0.068935
    13  C    0.374627
    14  O   -0.287944
    15  O   -0.017387
    17  C    1.256794
    18  F   -0.324524
    19  F   -0.257390
    20  F   -0.279808
    21  F   -0.288860
 Electronic spatial extent (au):  <R**2>=           5014.0267
 Charge=             -0.0000 electrons
 Dipole moment (field-independent basis, Debye):
    X=             -0.0450    Y=             -0.3982    Z=             -2.3999  Tot=              2.4332
 Quadrupole moment (field-independent basis, Debye-Ang):
   XX=           -106.7493   YY=           -111.4126   ZZ=           -106.5285
   XY=             -2.0222   XZ=             -5.6765   YZ=             -5.2813
 Traceless Quadrupole moment (field-independent basis, Debye-Ang):
   XX=              1.4809   YY=             -3.1825   ZZ=              1.7016
   XY=             -2.0222   XZ=             -5.6765   YZ=             -5.2813
 Octapole moment (field-independent basis, Debye-Ang**2):
  XXX=            -16.0373  YYY=            -24.4932  ZZZ=            -14.7817  XYY=            -15.3736
  XXY=             -7.3385  XXZ=            -11.4664  XZZ=             -1.2076  YZZ=             -1.5780
  YYZ=             -8.2565  XYZ=            -11.0429
 Hexadecapole moment (field-independent basis, Debye-Ang**3):
 XXXX=          -3800.1441 YYYY=           -956.3862 ZZZZ=           -523.4308 XXXY=            -52.3934
 XXXZ=            -24.6729 YYYX=            -67.8068 YYYZ=            -12.5674 ZZZX=            -31.0836
 ZZZY=            -25.7813 XXYY=           -810.5133 XXZZ=           -713.7936 YYZZ=           -239.9862
 XXYZ=            -24.6191 YYXZ=            -16.5664 ZZXY=             -2.2751
 N-N= 2.039224911562D+03 E-N=-7.762548701224D+03  KE= 1.549204009073D+03
 Calling FoFJK, ICntrl=      2127 FMM=F ISym2X=0 I1Cent= 0 IOpClX= 0 NMat=1 NMatS=1 NMatT=0.
 ***** Axes restored to original set *****
 -------------------------------------------------------------------
 Center     Atomic                   Forces (Hartrees/Bohr)
 Number     Number              X              Y              Z
 -------------------------------------------------------------------
      1        6          -0.000002905   -0.000010391   -0.000009612
      2        9           0.000000355    0.000008924   -0.000001727
      3        9           0.000026919    0.000004097   -0.000010996
      4        9           0.000015250    0.000010424    0.000014875
      5        6          -0.000008768   -0.000028046   -0.000011488
      6        9          -0.000003669    0.000009521    0.000017278
      7        9           0.000015090   -0.000019578    0.000001472
      8        9          -0.000014234    0.000027253   -0.000058932
      9        9           0.000019368   -0.000033449   -0.000043367
     10        6          -0.000023935   -0.000032723    0.000055720
     11        8           0.000070600    0.000070190   -0.000033394
     12        6           0.000030901   -0.000135962    0.000416627
     13        6           0.000027531    0.000026308   -0.000799919
     14        8           0.000051071   -0.000074114   -0.000111092
     15        8           0.000264838   -0.001686038    0.002905384
     16        1          -0.000381984    0.001719236   -0.002002973
     17        6           0.000088022   -0.000031061   -0.000063440
     18        9          -0.000064771    0.000125374   -0.000222276
     19        9          -0.000005730    0.000010258   -0.000044762
     20        9          -0.000014238    0.000016560   -0.000023919
     21        9          -0.000089711    0.000023217    0.000026540
 -------------------------------------------------------------------
 Cartesian Forces:  Max     0.002905384 RMS     0.000555554

 GradGradGradGradGradGradGradGradGradGradGradGradGradGradGradGradGradGrad
 Berny optimization.
 FormGI is forming the generalized inverse of G from B-inverse, IUseBI=4.
 Internal  Forces:  Max     0.002613716 RMS     0.000300122
 Search for a local minimum.
 Step number   1 out of a maximum of  106
 All quantities printed in internal units (Hartrees-Bohrs-Radians)
 Mixed Optimization -- En-DIIS/RFO-DIIS
 Second derivative matrix not updated -- first step.
 ITU=  0
     Eigenvalues ---    0.00230   0.00230   0.00230   0.00230   0.00887
     Eigenvalues ---    0.02039   0.02054   0.02691   0.05035   0.06158
     Eigenvalues ---    0.06948   0.07901   0.08268   0.08479   0.08491
     Eigenvalues ---    0.08615   0.08877   0.08914   0.10593   0.13386
     Eigenvalues ---    0.16000   0.16897   0.18802   0.19369   0.21146
     Eigenvalues ---    0.21733   0.24994   0.25000   0.25000   0.25000
     Eigenvalues ---    0.25000   0.25000   0.25000   0.25000   0.25000
     Eigenvalues ---    0.25000   0.25000   0.26966   0.27261   0.27347
     Eigenvalues ---    0.27573   0.50230   0.50261   0.50482   0.54191
     Eigenvalues ---    0.57019   0.57482   0.57819   0.58571   0.60090
     Eigenvalues ---    0.60137   0.60351   0.60647   0.60741   0.60825
     Eigenvalues ---    0.61999   1.11404
 RFO step:  Lambda=-2.12221599D-05 EMin= 2.30000000D-03
 Linear search not attempted -- first point.
 Iteration  1 RMS(Cart)=  0.00209668 RMS(Int)=  0.00000440
 Iteration  2 RMS(Cart)=  0.00000518 RMS(Int)=  0.00000007
 Iteration  3 RMS(Cart)=  0.00000000 RMS(Int)=  0.00000007
 Variable       Old X    -DE/DX   Delta X   Delta X   Delta X     New X
                                 (Linear)    (Quad)   (Total)
    R1        2.50663  -0.00001   0.00000  -0.00001  -0.00001   2.50662
    R2        2.50359   0.00002   0.00000   0.00003   0.00003   2.50362
    R3        2.50832   0.00002   0.00000   0.00003   0.00003   2.50835
    R4        2.93590   0.00004   0.00000   0.00015   0.00015   2.93605
    R5        2.52709  -0.00002   0.00000  -0.00003  -0.00003   2.52706
    R6        2.52991   0.00001   0.00000   0.00001   0.00001   2.52992
    R7        2.93783   0.00005   0.00000   0.00017   0.00017   2.93800
    R8        2.50869   0.00006   0.00000   0.00010   0.00010   2.50880
    R9        2.53380  -0.00005   0.00000  -0.00010  -0.00010   2.53371
   R10        2.59603  -0.00001   0.00000  -0.00003  -0.00003   2.59600
   R11        2.59382   0.00011   0.00000   0.00022   0.00022   2.59403
   R12        2.94456  -0.00000   0.00000  -0.00000  -0.00000   2.94456
   R13        2.93082   0.00003   0.00000   0.00012   0.00012   2.93094
   R14        2.59634  -0.00023   0.00000  -0.00047  -0.00047   2.59587
   R15        2.24391   0.00009   0.00000   0.00008   0.00008   2.24399
   R16        2.50293   0.00074   0.00000   0.00121   0.00121   2.50414
   R17        1.82558  -0.00261   0.00000  -0.00482  -0.00482   1.82076
   R18        2.49392   0.00004   0.00000   0.00007   0.00007   2.49400
   R19        2.50432  -0.00003   0.00000  -0.00004  -0.00004   2.50428
   R20        2.52089   0.00010   0.00000   0.00016   0.00016   2.52105
    A1        1.89988  -0.00002   0.00000  -0.00010  -0.00010   1.89978
    A2        1.89923  -0.00002   0.00000  -0.00011  -0.00011   1.89912
    A3        1.89624  -0.00000   0.00000  -0.00004  -0.00004   1.89620
    A4        1.90395  -0.00002   0.00000  -0.00000  -0.00000   1.90395
    A5        1.93345   0.00004   0.00000   0.00017   0.00017   1.93362
    A6        1.93052   0.00001   0.00000   0.00007   0.00007   1.93059
    A7        1.88397  -0.00000   0.00000  -0.00003  -0.00003   1.88395
    A8        1.88337  -0.00002   0.00000  -0.00007  -0.00007   1.88330
    A9        2.01390   0.00002   0.00000   0.00012   0.00012   2.01402
   A10        1.90849  -0.00001   0.00000  -0.00013  -0.00013   1.90837
   A11        1.89021  -0.00001   0.00000  -0.00004  -0.00004   1.89018
   A12        1.88229   0.00001   0.00000   0.00012   0.00012   1.88241
   A13        1.91839   0.00001   0.00000  -0.00002  -0.00002   1.91837
   A14        1.91363   0.00000   0.00000   0.00008   0.00008   1.91371
   A15        1.86878   0.00001   0.00000   0.00006   0.00006   1.86884
   A16        1.89089  -0.00001   0.00000  -0.00008  -0.00008   1.89081
   A17        1.92484  -0.00003   0.00000  -0.00024  -0.00024   1.92459
   A18        1.94742   0.00002   0.00000   0.00020   0.00020   1.94762
   A19        2.11843   0.00026   0.00000   0.00103   0.00103   2.11946
   A20        2.00692   0.00006   0.00000   0.00008   0.00008   2.00700
   A21        1.84197  -0.00007   0.00000  -0.00048  -0.00048   1.84148
   A22        1.92351   0.00006   0.00000   0.00089   0.00089   1.92440
   A23        1.92884  -0.00008   0.00000  -0.00073  -0.00073   1.92811
   A24        1.90562  -0.00007   0.00000  -0.00038  -0.00038   1.90524
   A25        1.85001   0.00010   0.00000   0.00068   0.00068   1.85068
   A26        2.10324  -0.00006   0.00000  -0.00024  -0.00024   2.10300
   A27        2.01094  -0.00014   0.00000  -0.00056  -0.00056   2.01039
   A28        2.16860   0.00020   0.00000   0.00080   0.00080   2.16940
   A29        1.92830   0.00098   0.00000   0.00615   0.00615   1.93445
   A30        1.94139  -0.00002   0.00000  -0.00012  -0.00012   1.94127
   A31        1.92046   0.00003   0.00000   0.00015   0.00015   1.92060
   A32        1.89600   0.00002   0.00000   0.00008   0.00008   1.89608
   A33        1.90581  -0.00001   0.00000  -0.00003  -0.00003   1.90578
   A34        1.90316  -0.00001   0.00000  -0.00009  -0.00009   1.90306
   A35        1.89640  -0.00001   0.00000   0.00002   0.00002   1.89643
    D1       -1.06688   0.00000   0.00000  -0.00035  -0.00035  -1.06723
    D2        0.99394  -0.00001   0.00000  -0.00055  -0.00055   0.99338
    D3        3.09979   0.00000   0.00000  -0.00037  -0.00037   3.09942
    D4        1.01928  -0.00000   0.00000  -0.00039  -0.00039   1.01888
    D5        3.08009  -0.00002   0.00000  -0.00059  -0.00059   3.07950
    D6       -1.09724  -0.00000   0.00000  -0.00041  -0.00041  -1.09765
    D7        3.13271   0.00001   0.00000  -0.00024  -0.00024   3.13248
    D8       -1.08966  -0.00000   0.00000  -0.00044  -0.00044  -1.09009
    D9        1.01620   0.00001   0.00000  -0.00025  -0.00025   1.01594
   D10        0.99188   0.00001   0.00000  -0.00016  -0.00016   0.99173
   D11       -1.08489   0.00001   0.00000  -0.00010  -0.00010  -1.08499
   D12        3.08283  -0.00002   0.00000  -0.00043  -0.00043   3.08241
   D13       -1.12126   0.00000   0.00000  -0.00018  -0.00018  -1.12144
   D14        3.08515   0.00001   0.00000  -0.00012  -0.00012   3.08503
   D15        0.96969  -0.00002   0.00000  -0.00045  -0.00045   0.96924
   D16        3.09832   0.00001   0.00000  -0.00007  -0.00007   3.09825
   D17        1.02155   0.00001   0.00000  -0.00002  -0.00002   1.02153
   D18       -1.09391  -0.00002   0.00000  -0.00034  -0.00034  -1.09426
   D19        2.36022   0.00003   0.00000   0.00123   0.00123   2.36144
   D20       -1.83616   0.00003   0.00000   0.00110   0.00110  -1.83506
   D21        0.26625   0.00001   0.00000   0.00097   0.00097   0.26722
   D22        0.81435   0.00002   0.00000  -0.00033  -0.00033   0.81403
   D23        2.94478  -0.00009   0.00000  -0.00155  -0.00155   2.94323
   D24       -1.34827   0.00002   0.00000  -0.00060  -0.00060  -1.34887
   D25        0.80370  -0.00005   0.00000   0.00188   0.00188   0.80558
   D26       -2.36732  -0.00005   0.00000   0.00217   0.00217  -2.36515
   D27       -1.27909   0.00005   0.00000   0.00300   0.00300  -1.27609
   D28        1.83307   0.00005   0.00000   0.00329   0.00329   1.83637
   D29        2.97576   0.00001   0.00000   0.00282   0.00282   2.97858
   D30       -0.19526   0.00002   0.00000   0.00311   0.00311  -0.19215
   D31       -1.04052   0.00003   0.00000  -0.00058  -0.00058  -1.04110
   D32        1.07377   0.00002   0.00000  -0.00061  -0.00061   1.07316
   D33       -3.13538   0.00004   0.00000  -0.00044  -0.00044  -3.13582
   D34        1.13943   0.00001   0.00000  -0.00124  -0.00124   1.13818
   D35       -3.02947   0.00001   0.00000  -0.00127  -0.00127  -3.03074
   D36       -0.95544   0.00002   0.00000  -0.00110  -0.00110  -0.95654
   D37       -3.08111  -0.00006   0.00000  -0.00168  -0.00168  -3.08279
   D38       -0.96682  -0.00006   0.00000  -0.00171  -0.00171  -0.96853
   D39        1.10722  -0.00004   0.00000  -0.00155  -0.00155   1.10567
   D40        0.07187   0.00003   0.00000   0.00104   0.00104   0.07291
   D41       -3.10040   0.00003   0.00000   0.00132   0.00132  -3.09908
         Item               Value     Threshold  Converged?
 Maximum Force            0.002614     0.000450     NO 
 RMS     Force            0.000300     0.000300     NO 
 Maximum Displacement     0.012446     0.001800     NO 
 RMS     Displacement     0.002095     0.001200     NO 
 Predicted change in Energy=-1.061104D-05
 GradGradGradGradGradGradGradGradGradGradGradGradGradGradGradGradGradGrad

                          Input orientation:                          
 ---------------------------------------------------------------------
 Center     Atomic      Atomic             Coordinates (Angstroms)
 Number     Number       Type             X           Y           Z
 ---------------------------------------------------------------------
      1          6           0        3.245976    0.051369    0.046896
      2          9           0        4.137478   -0.839326    0.460841
      3          9           0        3.557152    0.427940   -1.184612
      4          9           0        3.292581    1.108105    0.848788
      5          6           0        1.836828   -0.601974    0.084286
      6          9           0        1.846119   -1.649255   -0.747207
      7          9           0        1.614349   -1.029455    1.333319
      8          9           0        0.865503    0.821110   -1.533468
      9          9           0        0.580818    1.354568    0.543668
     10          6           0        0.658970    0.329890   -0.317506
     11          8           0       -0.483176   -0.433244   -0.300145
     12          6           0       -1.642778    0.026548    0.272768
     13          6           0       -2.038868    1.481649   -0.119351
     14          8           0       -2.001395    1.831470   -1.253502
     15          8           0       -2.438703    2.247473    0.885452
     16          1           0       -2.355395    1.782302    1.725106
     17          6           0       -2.745766   -0.972398   -0.164355
     18          9           0       -1.566859   -0.066883    1.641157
     19          9           0       -2.855454   -1.018003   -1.478763
     20          9           0       -2.467032   -2.184965    0.291895
     21          9           0       -3.909033   -0.577597    0.355956
 ---------------------------------------------------------------------
                    Distance matrix (angstroms):
                    1          2          3          4          5
     1  C    0.000000
     2  F    1.326447   0.000000
     3  F    1.324857   2.156445   0.000000
     4  F    1.327364   2.157971   2.160402   0.000000
     5  C    1.553691   2.343314   2.372834   2.372352   0.000000
     6  F    2.341436   2.713981   2.726480   3.498926   1.337260
     7  F    2.342066   2.676480   3.498351   2.760506   1.338775
     8  F    2.959173   4.176139   2.742491   3.412949   2.363423
     9  F    3.008020   4.179697   3.564290   2.739983   2.369948
    10  C    2.627350   3.751388   3.026706   2.983583   1.554721
    11  O    3.776488   4.700472   4.224709   4.236997   2.357684
    12  C    4.894033   5.847775   5.415196   5.085208   3.540935
    13  C    5.477492   6.623504   5.793145   5.431499   4.404994
    14  O    5.691634   6.910708   5.733419   5.741869   4.737434
    15  O    6.151555   7.277003   6.598950   5.843554   5.200132
    16  H    6.098187   7.115385   6.727478   5.755181   5.094290
    17  C    6.082245   6.912860   6.536716   6.466575   4.604259
    18  F    5.071394   5.876161   5.872419   5.061877   3.780906
    19  F    6.379549   7.259138   6.580182   6.909136   4.963236
    20  F    6.140006   6.742317   6.730389   6.657896   4.590443
    21  F    7.189247   8.051449   7.689497   7.412673   5.752331
                    6          7          8          9         10
     6  F    0.000000
     7  F    2.183222   0.000000
     8  F    2.771735   3.493398   0.000000
     9  F    3.505752   2.715751   2.163359   0.000000
    10  C    2.347548   2.342177   1.327598   1.340781   0.000000
    11  O    2.665363   2.724570   2.216624   2.245078   1.373743
    12  C    4.002633   3.584521   3.191441   2.604113   2.395513
    13  C    5.028905   4.664964   3.297183   2.705272   2.940092
    14  O    5.212978   5.286789   3.052591   3.181993   3.195054
    15  O    6.017455   5.231259   4.336296   3.167270   3.836640
    16  H    5.961597   4.880404   4.681493   3.193759   3.920224
    17  C    4.677955   4.610519   4.258217   4.120950   3.648512
    18  F    4.456075   3.337873   4.096726   2.799557   2.991338
    19  F    4.799837   5.280822   4.151006   4.639751   3.939100
    20  F    4.468779   4.367773   4.845020   4.677720   4.058047
    21  F    5.957113   5.627358   5.321889   4.891549   4.705712
                   11         12         13         14         15
    11  O    0.000000
    12  C    1.372704   0.000000
    13  C    2.473799   1.558192   0.000000
    14  O    2.888392   2.390784   1.187467   0.000000
    15  O    3.523630   2.437495   1.325135   2.222481   0.000000
    16  H    3.537724   2.387421   1.895416   2.999973   0.963505
    17  C    2.329902   1.550984   2.554227   3.098711   3.400581
    18  F    2.253274   1.373675   2.391680   3.488785   2.586009
    19  F    2.712709   2.372663   2.960249   2.983230   4.052966
    20  F    2.711959   2.360201   3.714365   4.328605   4.472093
    21  F    3.491103   2.346875   2.822043   3.468868   3.228507
                   16         17         18         19         20
    16  H    0.000000
    17  C    3.363156   0.000000
    18  F    2.012044   2.338729   0.000000
    19  F    4.284454   1.319766   3.506995   0.000000
    20  F    4.219687   1.325207   2.667788   2.155899   0.000000
    21  F    3.139663   1.334084   2.719991   2.161060   2.160347
                   21
    21  F    0.000000
 Stoichiometry    C6HF11O3
 Framework group  C1[X(C6HF11O3)]
 Deg. of freedom    57
 Full point group                 C1      NOp   1
 Largest Abelian subgroup         C1      NOp   1
 Largest concise Abelian subgroup C1      NOp   1
                         Standard orientation:                         
 ---------------------------------------------------------------------
 Center     Atomic      Atomic             Coordinates (Angstroms)
 Number     Number       Type             X           Y           Z
 ---------------------------------------------------------------------
      1          6           0       -3.245943    0.051941   -0.046736
      2          9           0       -4.137535   -0.838148   -0.461790
      3          9           0       -3.557011    0.426916    1.185286
      4          9           0       -3.292528    1.109732   -0.847237
      5          6           0       -1.836843   -0.601451   -0.085078
      6          9           0       -1.846152   -1.649821    0.745041
      7          9           0       -1.614477   -1.027307   -1.334685
      8          9           0       -0.865311    0.819441    1.534479
      9          9           0       -0.580727    1.355605   -0.541975
     10          6           0       -0.658893    0.329803    0.317859
     11          8           0        0.483198   -0.433387    0.299420
     12          6           0        1.642795    0.027076   -0.272966
     13          6           0        2.039012    1.481633    0.121036
     14          8           0        2.001638    1.829968    1.255648
     15          8           0        2.438833    2.248747   -0.882788
     16          1           0        2.355437    1.784685   -1.723045
     17          6           0        2.745742   -0.972520    0.162771
     18          9           0        1.566777   -0.064553   -1.641472
     19          9           0        2.855514   -1.019858    1.477111
     20          9           0        2.466892   -2.184467   -0.295051
     21          9           0        3.909001   -0.577117   -0.357098
 ---------------------------------------------------------------------
 Rotational constants (GHZ):           0.6821044           0.2189803           0.2031533
 Standard basis: 6-311+G(2d,2p) (5D, 7F)
 There are   589 symmetry adapted cartesian basis functions of A   symmetry.
 There are   549 symmetry adapted basis functions of A   symmetry.
   549 basis functions,   851 primitive gaussians,   589 cartesian basis functions
    80 alpha electrons       80 beta electrons
       nuclear repulsion energy      2039.0356297153 Hartrees.
 NAtoms=   21 NActive=   21 NUniq=   21 SFac= 1.00D+00 NAtFMM=   60 NAOKFM=F Big=F
 Integral buffers will be    131072 words long.
 Raffenetti 2 integral format.
 Two-electron integral symmetry is turned on.
 Nuclear repulsion after empirical dispersion term =     2039.0213801786 Hartrees.
 One-electron integrals computed using PRISM.
 NBasis=   549 RedAO= T EigKep=  8.36D-06  NBF=   549
 NBsUse=   549 1.00D-06 EigRej= -1.00D+00 NBFU=   549
 Initial guess from the checkpoint file:  "frd_903.chk"
 B after Tr=    -0.000000   -0.000000    0.000000
         Rot=    1.000000   -0.000573   -0.000016    0.000076 Ang=  -0.07 deg.
 Requested convergence on RMS density matrix=1.00D-08 within 128 cycles.
 Requested convergence on MAX density matrix=1.00D-06.
 Requested convergence on             energy=1.00D-06.
 No special actions if energy rises.
 SCF Done:  E(RwB97XD) =  -1553.25530257     A.U. after    8 cycles
            NFock=  8  Conv=0.92D-08     -V/T= 2.0026
 Calling FoFJK, ICntrl=      2127 FMM=F ISym2X=0 I1Cent= 0 IOpClX= 0 NMat=1 NMatS=1 NMatT=0.
 ***** Axes restored to original set *****
 -------------------------------------------------------------------
 Center     Atomic                   Forces (Hartrees/Bohr)
 Number     Number              X              Y              Z
 -------------------------------------------------------------------
      1        6           0.000016491    0.000001245   -0.000005089
      2        9          -0.000003898   -0.000012987    0.000000160
      3        9          -0.000013063    0.000003494    0.000000597
      4        9          -0.000014701    0.000011282    0.000002824
      5        6          -0.000018865   -0.000027916   -0.000020834
      6        9           0.000004784    0.000008894   -0.000003674
      7        9          -0.000000674    0.000010515    0.000002552
      8        9           0.000020118    0.000036556   -0.000054237
      9        9          -0.000023245   -0.000030141   -0.000015523
     10        6          -0.000098949   -0.000039750    0.000046179
     11        8           0.000122169    0.000007019    0.000085841
     12        6          -0.000091570    0.000023772    0.000330816
     13        6           0.000109835   -0.000084708   -0.000149796
     14        8          -0.000060313    0.000088656    0.000260091
     15        8          -0.000002904   -0.000039130    0.000091890
     16        1          -0.000011135    0.000077754   -0.000276216
     17        6           0.000029123   -0.000008701   -0.000023357
     18        9           0.000069583   -0.000027683   -0.000267497
     19        9          -0.000001064   -0.000008437   -0.000014388
     20        9          -0.000010656    0.000006317    0.000003037
     21        9          -0.000021067    0.000003951    0.000006627
 -------------------------------------------------------------------
 Cartesian Forces:  Max     0.000330816 RMS     0.000085103

 GradGradGradGradGradGradGradGradGradGradGradGradGradGradGradGradGradGrad
 Berny optimization.
 Using GEDIIS/GDIIS optimizer.
 FormGI is forming the generalized inverse of G from B-inverse, IUseBI=4.
 Internal  Forces:  Max     0.000280917 RMS     0.000061398
 Search for a local minimum.
 Step number   2 out of a maximum of  106
 All quantities printed in internal units (Hartrees-Bohrs-Radians)
 Mixed Optimization -- En-DIIS/RFO-DIIS
 Swapping is turned off.
 Update second derivatives using D2CorX and points    1    2
 DE= -1.05D-05 DEPred=-1.06D-05 R= 9.86D-01
 TightC=F SS=  1.41D+00  RLast= 1.17D-02 DXNew= 5.0454D-01 3.5247D-02
 Trust test= 9.86D-01 RLast= 1.17D-02 DXMaxT set to 3.00D-01
 ITU=  1  0
     Eigenvalues ---    0.00230   0.00230   0.00230   0.00235   0.00888
     Eigenvalues ---    0.02025   0.02049   0.02696   0.05034   0.06138
     Eigenvalues ---    0.06951   0.07993   0.08280   0.08479   0.08492
     Eigenvalues ---    0.08614   0.08877   0.08914   0.10578   0.13388
     Eigenvalues ---    0.16716   0.16926   0.18841   0.19371   0.21166
     Eigenvalues ---    0.21730   0.24897   0.25000   0.25000   0.25000
     Eigenvalues ---    0.25000   0.25000   0.25000   0.25000   0.25000
     Eigenvalues ---    0.25000   0.26210   0.26982   0.27287   0.27367
     Eigenvalues ---    0.27568   0.45231   0.50260   0.50490   0.52515
     Eigenvalues ---    0.57025   0.57482   0.57819   0.58566   0.60086
     Eigenvalues ---    0.60136   0.60351   0.60646   0.60741   0.61904
     Eigenvalues ---    0.62013   1.11951
 En-DIIS/RFO-DIIS/Sim-DIIS IScMMF=       -3 using points:     2    1
 RFO step:  Lambda=-1.64180216D-06.
 DidBck=T Rises=F RFO-DIIS coefs:    0.27976    0.72024
 Iteration  1 RMS(Cart)=  0.00255649 RMS(Int)=  0.00000440
 Iteration  2 RMS(Cart)=  0.00000644 RMS(Int)=  0.00000009
 Iteration  3 RMS(Cart)=  0.00000000 RMS(Int)=  0.00000009
 Variable       Old X    -DE/DX   Delta X   Delta X   Delta X     New X
                                 (Linear)    (Quad)   (Total)
    R1        2.50662   0.00001   0.00001   0.00000   0.00001   2.50663
    R2        2.50362  -0.00000  -0.00002   0.00002  -0.00000   2.50361
    R3        2.50835   0.00001  -0.00002   0.00004   0.00002   2.50837
    R4        2.93605  -0.00001  -0.00011   0.00008  -0.00003   2.93602
    R5        2.52706  -0.00001   0.00002  -0.00004  -0.00001   2.52704
    R6        2.52992  -0.00000  -0.00001   0.00001   0.00000   2.52992
    R7        2.93800  -0.00003  -0.00012   0.00004  -0.00008   2.93792
    R8        2.50880   0.00007  -0.00007   0.00019   0.00012   2.50891
    R9        2.53371  -0.00003   0.00007  -0.00013  -0.00006   2.53365
   R10        2.59600  -0.00013   0.00002  -0.00028  -0.00026   2.59574
   R11        2.59403  -0.00002  -0.00016   0.00014  -0.00001   2.59402
   R12        2.94456   0.00005   0.00000   0.00019   0.00019   2.94474
   R13        2.93094   0.00002  -0.00009   0.00015   0.00006   2.93100
   R14        2.59587  -0.00026   0.00034  -0.00089  -0.00055   2.59532
   R15        2.24399  -0.00022  -0.00006  -0.00014  -0.00019   2.24379
   R16        2.50414  -0.00011  -0.00087   0.00078  -0.00009   2.50405
   R17        1.82076  -0.00028   0.00347  -0.00436  -0.00089   1.81987
   R18        2.49400   0.00001  -0.00005   0.00008   0.00003   2.49402
   R19        2.50428  -0.00001   0.00003  -0.00004  -0.00001   2.50427
   R20        2.52105   0.00002  -0.00012   0.00017   0.00005   2.52110
    A1        1.89978   0.00002   0.00007   0.00000   0.00007   1.89986
    A2        1.89912   0.00002   0.00008   0.00001   0.00009   1.89921
    A3        1.89620  -0.00001   0.00003  -0.00005  -0.00002   1.89618
    A4        1.90395   0.00001   0.00000  -0.00001  -0.00001   1.90394
    A5        1.93362  -0.00001  -0.00012   0.00007  -0.00005   1.93357
    A6        1.93059  -0.00002  -0.00005  -0.00003  -0.00008   1.93051
    A7        1.88395   0.00001   0.00002   0.00001   0.00003   1.88397
    A8        1.88330   0.00001   0.00005  -0.00006  -0.00001   1.88329
    A9        2.01402  -0.00003  -0.00009  -0.00007  -0.00016   2.01386
   A10        1.90837   0.00000   0.00009   0.00001   0.00010   1.90847
   A11        1.89018   0.00001   0.00003   0.00004   0.00006   1.89024
   A12        1.88241   0.00000  -0.00008   0.00008  -0.00001   1.88240
   A13        1.91837  -0.00001   0.00001  -0.00002  -0.00001   1.91836
   A14        1.91371   0.00002  -0.00006   0.00015   0.00009   1.91380
   A15        1.86884   0.00000  -0.00004   0.00006   0.00002   1.86886
   A16        1.89081  -0.00000   0.00006  -0.00007  -0.00002   1.89079
   A17        1.92459   0.00002   0.00018  -0.00004   0.00013   1.92472
   A18        1.94762  -0.00003  -0.00014  -0.00007  -0.00022   1.94740
   A19        2.11946  -0.00011  -0.00074   0.00037  -0.00037   2.11909
   A20        2.00700  -0.00003  -0.00005  -0.00024  -0.00029   2.00671
   A21        1.84148   0.00002   0.00035  -0.00040  -0.00005   1.84143
   A22        1.92440  -0.00004  -0.00064   0.00022  -0.00042   1.92398
   A23        1.92811   0.00001   0.00052  -0.00040   0.00012   1.92824
   A24        1.90524   0.00004   0.00027   0.00007   0.00034   1.90558
   A25        1.85068   0.00002  -0.00049   0.00082   0.00033   1.85102
   A26        2.10300   0.00017   0.00017   0.00046   0.00063   2.10363
   A27        2.01039   0.00005   0.00040  -0.00027   0.00013   2.01052
   A28        2.16940  -0.00021  -0.00058  -0.00022  -0.00080   2.16860
   A29        1.93445  -0.00012  -0.00443   0.00416  -0.00027   1.93418
   A30        1.94127   0.00001   0.00009  -0.00004   0.00004   1.94131
   A31        1.92060   0.00000  -0.00011   0.00013   0.00002   1.92062
   A32        1.89608   0.00000  -0.00006   0.00007   0.00001   1.89609
   A33        1.90578  -0.00001   0.00002  -0.00004  -0.00002   1.90576
   A34        1.90306  -0.00000   0.00007  -0.00007  -0.00001   1.90306
   A35        1.89643  -0.00001  -0.00002  -0.00004  -0.00006   1.89637
    D1       -1.06723  -0.00000   0.00026  -0.00025   0.00001  -1.06722
    D2        0.99338   0.00001   0.00040  -0.00026   0.00014   0.99352
    D3        3.09942  -0.00000   0.00027  -0.00026   0.00001   3.09943
    D4        1.01888   0.00000   0.00028  -0.00023   0.00005   1.01893
    D5        3.07950   0.00001   0.00043  -0.00025   0.00018   3.07968
    D6       -1.09765   0.00000   0.00030  -0.00024   0.00006  -1.09760
    D7        3.13248  -0.00001   0.00017  -0.00022  -0.00005   3.13243
    D8       -1.09009   0.00000   0.00031  -0.00023   0.00008  -1.09001
    D9        1.01594  -0.00001   0.00018  -0.00023  -0.00004   1.01590
   D10        0.99173  -0.00000   0.00011   0.00020   0.00031   0.99203
   D11       -1.08499  -0.00001   0.00007   0.00020   0.00028  -1.08471
   D12        3.08241   0.00002   0.00031   0.00017   0.00048   3.08288
   D13       -1.12144   0.00000   0.00013   0.00020   0.00033  -1.12110
   D14        3.08503  -0.00000   0.00009   0.00021   0.00030   3.08533
   D15        0.96924   0.00002   0.00032   0.00018   0.00050   0.96974
   D16        3.09825  -0.00001   0.00005   0.00013   0.00018   3.09843
   D17        1.02153  -0.00001   0.00001   0.00014   0.00015   1.02168
   D18       -1.09426   0.00001   0.00025   0.00010   0.00035  -1.09391
   D19        2.36144   0.00002  -0.00088   0.00146   0.00058   2.36202
   D20       -1.83506   0.00001  -0.00079   0.00145   0.00066  -1.83440
   D21        0.26722   0.00000  -0.00070   0.00128   0.00059   0.26781
   D22        0.81403  -0.00003   0.00024  -0.00150  -0.00126   0.81276
   D23        2.94323  -0.00003   0.00112  -0.00244  -0.00132   2.94190
   D24       -1.34887  -0.00002   0.00043  -0.00159  -0.00116  -1.35003
   D25        0.80558   0.00001  -0.00135  -0.00306  -0.00441   0.80117
   D26       -2.36515   0.00000  -0.00156  -0.00406  -0.00562  -2.37077
   D27       -1.27609   0.00001  -0.00216  -0.00208  -0.00424  -1.28032
   D28        1.83637  -0.00001  -0.00237  -0.00308  -0.00545   1.83092
   D29        2.97858  -0.00004  -0.00203  -0.00288  -0.00491   2.97367
   D30       -0.19215  -0.00005  -0.00224  -0.00388  -0.00613  -0.19828
   D31       -1.04110   0.00000   0.00042   0.00147   0.00189  -1.03921
   D32        1.07316   0.00000   0.00044   0.00147   0.00191   1.07507
   D33       -3.13582  -0.00000   0.00032   0.00154   0.00186  -3.13396
   D34        1.13818  -0.00002   0.00089   0.00068   0.00158   1.13976
   D35       -3.03074  -0.00002   0.00091   0.00069   0.00160  -3.02914
   D36       -0.95654  -0.00002   0.00079   0.00075   0.00155  -0.95499
   D37       -3.08279   0.00004   0.00121   0.00102   0.00224  -3.08055
   D38       -0.96853   0.00004   0.00123   0.00103   0.00226  -0.96627
   D39        1.10567   0.00003   0.00111   0.00110   0.00221   1.10788
   D40        0.07291  -0.00001  -0.00075   0.00109   0.00035   0.07326
   D41       -3.09908  -0.00001  -0.00095   0.00006  -0.00089  -3.09996
         Item               Value     Threshold  Converged?
 Maximum Force            0.000281     0.000450     YES
 RMS     Force            0.000061     0.000300     YES
 Maximum Displacement     0.014678     0.001800     NO 
 RMS     Displacement     0.002556     0.001200     NO 
 Predicted change in Energy=-8.210341D-07
 GradGradGradGradGradGradGradGradGradGradGradGradGradGradGradGradGradGrad

                          Input orientation:                          
 ---------------------------------------------------------------------
 Center     Atomic      Atomic             Coordinates (Angstroms)
 Number     Number       Type             X           Y           Z
 ---------------------------------------------------------------------
      1          6           0        3.246107    0.051595    0.046053
      2          9           0        4.138120   -0.838735    0.459698
      3          9           0        3.556623    0.428337   -1.185567
      4          9           0        3.292396    1.108377    0.847919
      5          6           0        1.837271   -0.602358    0.083906
      6          9           0        1.846712   -1.649634   -0.747582
      7          9           0        1.615341   -1.029789    1.333054
      8          9           0        0.864946    0.820165   -1.533751
      9          9           0        0.580991    1.353998    0.543400
     10          6           0        0.659066    0.329150   -0.317527
     11          8           0       -0.482848   -0.434062   -0.299263
     12          6           0       -1.642142    0.026463    0.273668
     13          6           0       -2.036848    1.482019   -0.118552
     14          8           0       -1.994849    1.833752   -1.251845
     15          8           0       -2.442474    2.246332    0.885014
     16          1           0       -2.363162    1.780245    1.724007
     17          6           0       -2.745806   -0.971659   -0.163752
     18          9           0       -1.565768   -0.067285    1.641718
     19          9           0       -2.853885   -1.018680   -1.478259
     20          9           0       -2.469185   -2.184037    0.294260
     21          9           0       -3.909289   -0.574869    0.354623
 ---------------------------------------------------------------------
                    Distance matrix (angstroms):
                    1          2          3          4          5
     1  C    0.000000
     2  F    1.326452   0.000000
     3  F    1.324856   2.156504   0.000000
     4  F    1.327374   2.158057   2.160402   0.000000
     5  C    1.553675   2.343287   2.372776   2.372282   0.000000
     6  F    2.341440   2.713969   2.726461   3.498893   1.337254
     7  F    2.342042   2.676502   3.498308   2.760367   1.338775
     8  F    2.959123   4.176057   2.742240   3.412907   2.363431
     9  F    3.007732   4.179503   3.563784   2.739485   2.369959
    10  C    2.627167   3.751246   3.026411   2.983268   1.554679
    11  O    3.776269   4.700332   4.224523   4.236463   2.357561
    12  C    4.893610   5.847615   5.414612   5.084287   3.540868
    13  C    5.475657   6.621971   5.791000   5.429044   4.403910
    14  O    5.685793   6.905424   5.726991   5.734993   4.733288
    15  O    6.154728   7.280298   6.601634   5.846799   5.203175
    16  H    6.104724   7.122092   6.733285   5.762315   5.100036
    17  C    6.082276   6.913377   6.536413   6.466059   4.604597
    18  F    5.070939   5.875938   5.871803   5.061034   3.780709
    19  F    6.378002   7.257836   6.578308   6.907406   4.961918
    20  F    6.142005   6.744900   6.732366   6.659005   4.592551
    21  F    7.189392   8.052419   7.688852   7.412215   5.752999
                    6          7          8          9         10
     6  F    0.000000
     7  F    2.183297   0.000000
     8  F    2.771612   3.493421   0.000000
     9  F    3.505780   2.715856   2.163369   0.000000
    10  C    2.347560   2.342135   1.327661   1.340748   0.000000
    11  O    2.665606   2.724288   2.216664   2.244770   1.373607
    12  C    4.003044   3.584573   3.190959   2.603349   2.395139
    13  C    5.028416   4.664206   3.295642   2.703267   2.938818
    14  O    5.210169   5.283469   3.047173   3.176165   3.190618
    15  O    6.020053   5.234460   4.338596   3.170852   3.839433
    16  H    5.966227   4.886473   4.685662   3.200556   3.925226
    17  C    4.678860   4.611226   4.257354   4.120233   3.648137
    18  F    4.456187   3.337835   4.096284   2.799093   2.990935
    19  F    4.798709   5.279923   4.148992   4.638435   3.937610
    20  F    4.471911   4.369752   4.845956   4.677963   4.059107
    21  F    5.958316   5.629016   5.320282   4.890683   4.705200
                   11         12         13         14         15
    11  O    0.000000
    12  C    1.372697   0.000000
    13  C    2.473649   1.558291   0.000000
    14  O    2.887308   2.391211   1.187365   0.000000
    15  O    3.525218   2.437641   1.325086   2.221882   0.000000
    16  H    3.540107   2.387279   1.894846   2.999036   0.963035
    17  C    2.329882   1.551018   2.554446   3.101325   3.398144
    18  F    2.252698   1.373383   2.391820   3.488661   2.587283
    19  F    2.711757   2.372740   2.961393   2.987571   4.051497
    20  F    2.712972   2.360241   3.714471   4.331059   4.469662
    21  F    3.491116   2.346936   2.821474   3.470919   3.223667
                   16         17         18         19         20
    16  H    0.000000
    17  C    3.359022   0.000000
    18  F    2.013945   2.338825   0.000000
    19  F    4.281273   1.319781   3.506944   0.000000
    20  F    4.215561   1.325200   2.666917   2.155893   0.000000
    21  F    3.132456   1.334110   2.721460   2.161089   2.160317
                   21
    21  F    0.000000
 Stoichiometry    C6HF11O3
 Framework group  C1[X(C6HF11O3)]
 Deg. of freedom    57
 Full point group                 C1      NOp   1
 Largest Abelian subgroup         C1      NOp   1
 Largest concise Abelian subgroup C1      NOp   1
                         Standard orientation:                         
 ---------------------------------------------------------------------
 Center     Atomic      Atomic             Coordinates (Angstroms)
 Number     Number       Type             X           Y           Z
 ---------------------------------------------------------------------
      1          6           0       -3.245745    0.052337   -0.047057
      2          9           0       -4.137778   -0.837486   -0.461747
      3          9           0       -3.556561    0.428045    1.184803
      4          9           0       -3.291632    1.109833   -0.848007
      5          6           0       -1.837002   -0.601806   -0.085075
      6          9           0       -1.846853   -1.649812    0.745488
      7          9           0       -1.614775   -1.028172   -1.334533
      8          9           0       -0.864924    0.819137    1.534118
      9          9           0       -0.580277    1.354754   -0.542479
     10          6           0       -0.658767    0.329161    0.317523
     11          8           0        0.483032   -0.434217    0.298919
     12          6           0        1.642566    0.026628   -0.273267
     13          6           0        2.037389    1.481775    0.120349
     14          8           0        1.995114    1.832518    1.253940
     15          8           0        2.443429    2.246907   -0.882425
     16          1           0        2.364288    1.781572   -1.721851
     17          6           0        2.745943   -0.972054    0.163597
     18          9           0        1.566577   -0.065903   -1.641421
     19          9           0        2.853631   -1.020250    1.478093
     20          9           0        2.469264   -2.183985   -0.295563
     21          9           0        3.909641   -0.574992   -0.354090
 ---------------------------------------------------------------------
 Rotational constants (GHZ):           0.6822407           0.2189960           0.2031670
 Standard basis: 6-311+G(2d,2p) (5D, 7F)
 There are   589 symmetry adapted cartesian basis functions of A   symmetry.
 There are   549 symmetry adapted basis functions of A   symmetry.
   549 basis functions,   851 primitive gaussians,   589 cartesian basis functions
    80 alpha electrons       80 beta electrons
       nuclear repulsion energy      2039.1258251221 Hartrees.
 NAtoms=   21 NActive=   21 NUniq=   21 SFac= 1.00D+00 NAtFMM=   60 NAOKFM=F Big=F
 Integral buffers will be    131072 words long.
 Raffenetti 2 integral format.
 Two-electron integral symmetry is turned on.
 Nuclear repulsion after empirical dispersion term =     2039.1115748916 Hartrees.
 One-electron integrals computed using PRISM.
 NBasis=   549 RedAO= T EigKep=  8.37D-06  NBF=   549
 NBsUse=   549 1.00D-06 EigRej= -1.00D+00 NBFU=   549
 Initial guess from the checkpoint file:  "frd_903.chk"
 B after Tr=     0.000000    0.000000   -0.000000
         Rot=    1.000000    0.000188    0.000129   -0.000008 Ang=   0.03 deg.
 Requested convergence on RMS density matrix=1.00D-08 within 128 cycles.
 Requested convergence on MAX density matrix=1.00D-06.
 Requested convergence on             energy=1.00D-06.
 No special actions if energy rises.
 SCF Done:  E(RwB97XD) =  -1553.25530294     A.U. after    9 cycles
            NFock=  9  Conv=0.76D-08     -V/T= 2.0026
 Calling FoFJK, ICntrl=      2127 FMM=F ISym2X=0 I1Cent= 0 IOpClX= 0 NMat=1 NMatS=1 NMatT=0.
 ***** Axes restored to original set *****
 -------------------------------------------------------------------
 Center     Atomic                   Forces (Hartrees/Bohr)
 Number     Number              X              Y              Z
 -------------------------------------------------------------------
      1        6          -0.000015069   -0.000001014   -0.000006700
      2        9           0.000005753    0.000006350   -0.000002288
      3        9           0.000008707   -0.000002146    0.000006002
      4        9           0.000013894   -0.000005019    0.000002491
      5        6           0.000003818    0.000011816   -0.000017810
      6        9          -0.000004836   -0.000000509    0.000007184
      7        9          -0.000000383   -0.000007632   -0.000002494
      8        9           0.000044427    0.000002179   -0.000016498
      9        9           0.000030438    0.000003809    0.000025545
     10        6          -0.000065851    0.000007321   -0.000022161
     11        8           0.000068761   -0.000047501    0.000018198
     12        6           0.000021095    0.000042939    0.000166228
     13        6          -0.000106355   -0.000064711   -0.000146732
     14        8           0.000013601    0.000007391    0.000046098
     15        8           0.000012568    0.000079561   -0.000108450
     16        1           0.000026543   -0.000077298    0.000181058
     17        6           0.000020379   -0.000022514   -0.000003088
     18        9          -0.000045188    0.000023598   -0.000128907
     19        9          -0.000001745    0.000029058   -0.000003914
     20        9          -0.000001308    0.000013215   -0.000006013
     21        9          -0.000029248    0.000001107    0.000012251
 -------------------------------------------------------------------
 Cartesian Forces:  Max     0.000181058 RMS     0.000051424

 GradGradGradGradGradGradGradGradGradGradGradGradGradGradGradGradGradGrad
 Berny optimization.
 Using GEDIIS/GDIIS optimizer.
 FormGI is forming the generalized inverse of G from B-inverse, IUseBI=4.
 Internal  Forces:  Max     0.000195722 RMS     0.000035535
 Search for a local minimum.
 Step number   3 out of a maximum of  106
 All quantities printed in internal units (Hartrees-Bohrs-Radians)
 Mixed Optimization -- En-DIIS/RFO-DIIS
 Swapping is turned off.
 Update second derivatives using D2CorX and points    1    2    3
 DE= -3.72D-07 DEPred=-8.21D-07 R= 4.53D-01
 Trust test= 4.53D-01 RLast= 1.43D-02 DXMaxT set to 3.00D-01
 ITU=  0  1  0
     Eigenvalues ---    0.00230   0.00230   0.00230   0.00322   0.00975
     Eigenvalues ---    0.01938   0.02116   0.02716   0.05037   0.06108
     Eigenvalues ---    0.06964   0.08188   0.08292   0.08478   0.08521
     Eigenvalues ---    0.08616   0.08877   0.08926   0.10622   0.13386
     Eigenvalues ---    0.16324   0.17105   0.18685   0.19369   0.20926
     Eigenvalues ---    0.21464   0.23237   0.25000   0.25000   0.25000
     Eigenvalues ---    0.25000   0.25000   0.25000   0.25000   0.25000
     Eigenvalues ---    0.25014   0.26783   0.27236   0.27322   0.27564
     Eigenvalues ---    0.28443   0.41188   0.50339   0.51011   0.56941
     Eigenvalues ---    0.57251   0.57482   0.57835   0.58941   0.60135
     Eigenvalues ---    0.60318   0.60351   0.60703   0.60763   0.61996
     Eigenvalues ---    0.62146   1.10945
 En-DIIS/RFO-DIIS/Sim-DIIS IScMMF=       -3 using points:     3    2    1
 RFO step:  Lambda=-7.18852189D-07.
 DidBck=T Rises=F RFO-DIIS coefs:    0.54543    0.62076   -0.16619
 Iteration  1 RMS(Cart)=  0.00133542 RMS(Int)=  0.00000124
 Iteration  2 RMS(Cart)=  0.00000184 RMS(Int)=  0.00000009
 Iteration  3 RMS(Cart)=  0.00000000 RMS(Int)=  0.00000009
 Variable       Old X    -DE/DX   Delta X   Delta X   Delta X     New X
                                 (Linear)    (Quad)   (Total)
    R1        2.50663  -0.00000  -0.00001   0.00001  -0.00000   2.50663
    R2        2.50361  -0.00000   0.00001  -0.00001  -0.00000   2.50361
    R3        2.50837  -0.00000  -0.00000   0.00000   0.00000   2.50837
    R4        2.93602   0.00001   0.00004  -0.00002   0.00002   2.93604
    R5        2.52704  -0.00000  -0.00000  -0.00000  -0.00000   2.52704
    R6        2.52992   0.00000   0.00000  -0.00000   0.00000   2.52992
    R7        2.93792   0.00000   0.00007  -0.00007  -0.00000   2.93791
    R8        2.50891   0.00002  -0.00004   0.00007   0.00003   2.50894
    R9        2.53365   0.00002   0.00001  -0.00000   0.00001   2.53366
   R10        2.59574   0.00003   0.00011  -0.00011   0.00000   2.59574
   R11        2.59402   0.00009   0.00004   0.00004   0.00008   2.59410
   R12        2.94474  -0.00003  -0.00009   0.00005  -0.00004   2.94471
   R13        2.93100  -0.00000  -0.00001   0.00001  -0.00000   2.93100
   R14        2.59532  -0.00013   0.00017  -0.00035  -0.00018   2.59514
   R15        2.24379  -0.00004   0.00010  -0.00014  -0.00004   2.24376
   R16        2.50405   0.00004   0.00024  -0.00023   0.00001   2.50406
   R17        1.81987   0.00020  -0.00040   0.00054   0.00015   1.82002
   R18        2.49402   0.00000  -0.00000   0.00000   0.00000   2.49403
   R19        2.50427  -0.00001  -0.00000  -0.00001  -0.00001   2.50425
   R20        2.52110   0.00003   0.00000   0.00002   0.00003   2.52113
    A1        1.89986  -0.00001  -0.00005   0.00002  -0.00003   1.89983
    A2        1.89921  -0.00002  -0.00006   0.00003  -0.00003   1.89918
    A3        1.89618   0.00001   0.00000   0.00000   0.00001   1.89619
    A4        1.90394  -0.00001   0.00000  -0.00001  -0.00000   1.90394
    A5        1.93357   0.00001   0.00005  -0.00003   0.00002   1.93359
    A6        1.93051   0.00002   0.00005  -0.00002   0.00003   1.93054
    A7        1.88397  -0.00000  -0.00002   0.00001  -0.00000   1.88397
    A8        1.88329  -0.00000  -0.00001   0.00001   0.00000   1.88329
    A9        2.01386   0.00002   0.00009  -0.00005   0.00004   2.01390
   A10        1.90847  -0.00000  -0.00007   0.00004  -0.00003   1.90844
   A11        1.89024  -0.00001  -0.00003   0.00002  -0.00002   1.89022
   A12        1.88240  -0.00000   0.00002  -0.00002  -0.00000   1.88240
   A13        1.91836  -0.00004   0.00000  -0.00013  -0.00013   1.91824
   A14        1.91380  -0.00002  -0.00003  -0.00003  -0.00006   1.91375
   A15        1.86886  -0.00004  -0.00000  -0.00009  -0.00010   1.86877
   A16        1.89079   0.00002  -0.00001   0.00005   0.00005   1.89084
   A17        1.92472   0.00005  -0.00010   0.00024   0.00014   1.92486
   A18        1.94740   0.00004   0.00013  -0.00004   0.00009   1.94749
   A19        2.11909   0.00010   0.00034  -0.00019   0.00015   2.11924
   A20        2.00671   0.00005   0.00015   0.00001   0.00015   2.00686
   A21        1.84143  -0.00001  -0.00006   0.00004  -0.00002   1.84141
   A22        1.92398  -0.00000   0.00034  -0.00031   0.00003   1.92402
   A23        1.92824  -0.00006  -0.00018   0.00000  -0.00017   1.92806
   A24        1.90558  -0.00000  -0.00022   0.00022   0.00000   1.90558
   A25        1.85102   0.00001  -0.00004   0.00003  -0.00001   1.85101
   A26        2.10363   0.00005  -0.00033   0.00050   0.00018   2.10381
   A27        2.01052  -0.00007  -0.00015   0.00005  -0.00010   2.01042
   A28        2.16860   0.00002   0.00049  -0.00052  -0.00003   2.16858
   A29        1.93418   0.00003   0.00114  -0.00115  -0.00001   1.93417
   A30        1.94131  -0.00003  -0.00004  -0.00003  -0.00007   1.94124
   A31        1.92062   0.00000   0.00002   0.00000   0.00002   1.92064
   A32        1.89609   0.00002   0.00001   0.00002   0.00003   1.89612
   A33        1.90576   0.00002   0.00000   0.00005   0.00005   1.90581
   A34        1.90306   0.00000  -0.00001  -0.00001  -0.00002   1.90304
   A35        1.89637  -0.00001   0.00003  -0.00004  -0.00000   1.89636
    D1       -1.06722   0.00000  -0.00006   0.00024   0.00018  -1.06704
    D2        0.99352  -0.00000  -0.00015   0.00030   0.00015   0.99367
    D3        3.09943   0.00000  -0.00007   0.00024   0.00017   3.09961
    D4        1.01893  -0.00000  -0.00009   0.00025   0.00016   1.01910
    D5        3.07968  -0.00001  -0.00018   0.00031   0.00013   3.07981
    D6       -1.09760  -0.00000  -0.00009   0.00025   0.00016  -1.09744
    D7        3.13243   0.00001  -0.00002   0.00021   0.00020   3.13262
    D8       -1.09001   0.00000  -0.00011   0.00027   0.00016  -1.08985
    D9        1.01590   0.00001  -0.00002   0.00021   0.00019   1.01609
   D10        0.99203  -0.00001  -0.00017  -0.00006  -0.00023   0.99180
   D11       -1.08471   0.00001  -0.00014  -0.00004  -0.00018  -1.08489
   D12        3.08288  -0.00000  -0.00029   0.00009  -0.00019   3.08269
   D13       -1.12110  -0.00001  -0.00018  -0.00006  -0.00024  -1.12135
   D14        3.08533   0.00000  -0.00016  -0.00003  -0.00019   3.08514
   D15        0.96974  -0.00001  -0.00030   0.00009  -0.00021   0.96954
   D16        3.09843  -0.00000  -0.00010  -0.00011  -0.00020   3.09823
   D17        1.02168   0.00001  -0.00007  -0.00008  -0.00015   1.02153
   D18       -1.09391   0.00000  -0.00022   0.00005  -0.00017  -1.09407
   D19        2.36202   0.00002  -0.00006   0.00042   0.00036   2.36239
   D20       -1.83440  -0.00003  -0.00012   0.00035   0.00023  -1.83417
   D21        0.26781   0.00005  -0.00010   0.00054   0.00044   0.26825
   D22        0.81276   0.00004   0.00052  -0.00024   0.00028   0.81305
   D23        2.94190  -0.00001   0.00034  -0.00020   0.00014   2.94205
   D24       -1.35003   0.00000   0.00043  -0.00029   0.00014  -1.34989
   D25        0.80117  -0.00002   0.00232  -0.00058   0.00174   0.80291
   D26       -2.37077   0.00001   0.00292   0.00056   0.00348  -2.36729
   D27       -1.28032  -0.00000   0.00242  -0.00064   0.00179  -1.27854
   D28        1.83092   0.00003   0.00302   0.00051   0.00353   1.83445
   D29        2.97367   0.00002   0.00270  -0.00081   0.00189   2.97556
   D30       -0.19828   0.00005   0.00330   0.00034   0.00364  -0.19464
   D31       -1.03921  -0.00002  -0.00096  -0.00036  -0.00132  -1.04053
   D32        1.07507  -0.00001  -0.00097  -0.00032  -0.00129   1.07378
   D33       -3.13396  -0.00001  -0.00092  -0.00035  -0.00127  -3.13523
   D34        1.13976   0.00001  -0.00092  -0.00033  -0.00125   1.13851
   D35       -3.02914   0.00001  -0.00094  -0.00029  -0.00122  -3.03036
   D36       -0.95499   0.00002  -0.00089  -0.00031  -0.00120  -0.95619
   D37       -3.08055  -0.00002  -0.00130  -0.00005  -0.00134  -3.08190
   D38       -0.96627  -0.00002  -0.00131  -0.00000  -0.00132  -0.96758
   D39        1.10788  -0.00001  -0.00126  -0.00003  -0.00129   1.10659
   D40        0.07326  -0.00000   0.00001  -0.00070  -0.00069   0.07257
   D41       -3.09996   0.00003   0.00062   0.00051   0.00113  -3.09883
         Item               Value     Threshold  Converged?
 Maximum Force            0.000196     0.000450     YES
 RMS     Force            0.000036     0.000300     YES
 Maximum Displacement     0.008005     0.001800     NO 
 RMS     Displacement     0.001336     0.001200     NO 
 Predicted change in Energy=-3.492179D-07
 GradGradGradGradGradGradGradGradGradGradGradGradGradGradGradGradGradGrad

                          Input orientation:                          
 ---------------------------------------------------------------------
 Center     Atomic      Atomic             Coordinates (Angstroms)
 Number     Number       Type             X           Y           Z
 ---------------------------------------------------------------------
      1          6           0        3.245945    0.051607    0.046328
      2          9           0        4.137914   -0.838897    0.459692
      3          9           0        3.556406    0.428573   -1.185235
      4          9           0        3.292466    1.108208    0.848421
      5          6           0        1.837039   -0.602214    0.084183
      6          9           0        1.846360   -1.649446   -0.747358
      7          9           0        1.615112   -1.029726    1.333303
      8          9           0        0.865021    0.820597   -1.533273
      9          9           0        0.580812    1.354047    0.544000
     10          6           0        0.658874    0.329384   -0.317157
     11          8           0       -0.482979   -0.433927   -0.299099
     12          6           0       -1.642594    0.026395    0.273450
     13          6           0       -2.037899    1.481661   -0.119166
     14          8           0       -1.997621    1.832822   -1.252679
     15          8           0       -2.440096    2.247161    0.884884
     16          1           0       -2.358926    1.781635    1.724098
     17          6           0       -2.745835   -0.972139   -0.164091
     18          9           0       -1.566609   -0.067051    1.641447
     19          9           0       -2.854567   -1.018186   -1.478580
     20          9           0       -2.468178   -2.184671    0.292869
     21          9           0       -3.909329   -0.576509    0.355185
 ---------------------------------------------------------------------
                    Distance matrix (angstroms):
                    1          2          3          4          5
     1  C    0.000000
     2  F    1.326452   0.000000
     3  F    1.324854   2.156483   0.000000
     4  F    1.327374   2.158034   2.160399   0.000000
     5  C    1.553684   2.343300   2.372798   2.372314   0.000000
     6  F    2.341444   2.713887   2.726565   3.498913   1.337251
     7  F    2.342051   2.676591   3.498327   2.760324   1.338775
     8  F    2.958932   4.175842   2.741964   3.412868   2.363339
     9  F    3.007816   4.179603   3.563834   2.739740   2.369914
    10  C    2.627208   3.751279   3.026399   2.983446   1.554677
    11  O    3.776233   4.700257   4.224426   4.236622   2.357479
    12  C    4.893877   5.847879   5.414713   5.084853   3.541019
    13  C    5.476445   6.622743   5.791524   5.430330   4.404433
    14  O    5.688157   6.907611   5.729196   5.738006   4.735105
    15  O    6.152617   7.278376   6.599295   5.844725   5.201340
    16  H    6.101023   7.118626   6.729498   5.758346   5.096879
    17  C    6.082249   6.913238   6.536281   6.466382   4.604477
    18  F    5.071406   5.876553   5.872058   5.061693   3.781044
    19  F    6.378561   7.258363   6.578734   6.908147   4.962502
    20  F    6.141085   6.743841   6.731230   6.658582   4.591581
    21  F    7.189428   8.052198   7.688972   7.412652   5.752812
                    6          7          8          9         10
     6  F    0.000000
     7  F    2.183273   0.000000
     8  F    2.771606   3.493363   0.000000
     9  F    3.505736   2.715722   2.163424   0.000000
    10  C    2.347545   2.342134   1.327676   1.340753   0.000000
    11  O    2.665378   2.724279   2.216782   2.244843   1.373608
    12  C    4.002911   3.584875   3.191103   2.603727   2.395281
    13  C    5.028511   4.664892   3.296005   2.704389   2.939307
    14  O    5.211308   5.285199   3.049271   3.178930   3.192568
    15  O    6.018427   5.232951   4.336631   3.168555   3.837497
    16  H    5.963626   4.883589   4.682723   3.196486   3.922100
    17  C    4.678375   4.611221   4.257563   4.120572   3.648209
    18  F    4.456312   3.338420   4.096290   2.799166   2.990997
    19  F    4.799155   5.280611   4.149632   4.638981   3.938161
    20  F    4.470322   4.369172   4.845271   4.677813   4.058455
    21  F    5.957747   5.628639   5.320959   4.891224   4.705440
                   11         12         13         14         15
    11  O    0.000000
    12  C    1.372741   0.000000
    13  C    2.473789   1.558272   0.000000
    14  O    2.888184   2.391295   1.187345   0.000000
    15  O    3.524253   2.437553   1.325092   2.221854   0.000000
    16  H    3.538533   2.387127   1.894905   2.999060   0.963112
    17  C    2.329896   1.551016   2.554276   3.100428   3.399664
    18  F    2.252681   1.373288   2.391732   3.488732   2.586686
    19  F    2.712372   2.372686   2.960437   2.985571   4.052189
    20  F    2.712295   2.360250   3.714418   4.330172   4.471287
    21  F    3.491174   2.346969   2.821936   3.470551   3.226816
                   16         17         18         19         20
    16  H    0.000000
    17  C    3.361283   0.000000
    18  F    2.013016   2.338744   0.000000
    19  F    4.282733   1.319783   3.506859   0.000000
    20  F    4.218048   1.325194   2.667546   2.155926   0.000000
    21  F    3.136641   1.334125   2.720727   2.161087   2.160321
                   21
    21  F    0.000000
 Stoichiometry    C6HF11O3
 Framework group  C1[X(C6HF11O3)]
 Deg. of freedom    57
 Full point group                 C1      NOp   1
 Largest Abelian subgroup         C1      NOp   1
 Largest concise Abelian subgroup C1      NOp   1
                         Standard orientation:                         
 ---------------------------------------------------------------------
 Center     Atomic      Atomic             Coordinates (Angstroms)
 Number     Number       Type             X           Y           Z
 ---------------------------------------------------------------------
      1          6           0       -3.245765    0.052133   -0.046723
      2          9           0       -4.137753   -0.837863   -0.461139
      3          9           0       -3.556334    0.427799    1.185210
      4          9           0       -3.292124    1.109598   -0.847686
      5          6           0       -1.836901   -0.601747   -0.085125
      6          9           0       -1.846387   -1.649870    0.745290
      7          9           0       -1.614869   -1.027934   -1.334680
      8          9           0       -0.864959    0.819258    1.533961
      9          9           0       -0.580486    1.354917   -0.542707
     10          6           0       -0.658714    0.329336    0.317342
     11          8           0        0.483087   -0.434037    0.298589
     12          6           0        1.642797    0.026817   -0.273340
     13          6           0        2.038162    1.481633    0.120881
     14          8           0        1.997786    1.831581    1.254765
     15          8           0        2.440523    2.248182   -0.882303
     16          1           0        2.359411    1.783561   -1.722025
     17          6           0        2.745919   -0.972264    0.163249
     18          9           0        1.566954   -0.065155   -1.641444
     19          9           0        2.854504   -1.019729    1.477701
     20          9           0        2.468226   -2.184285   -0.295041
     21          9           0        3.909498   -0.576159   -0.355474
 ---------------------------------------------------------------------
 Rotational constants (GHZ):           0.6821599           0.2189979           0.2031636
 Standard basis: 6-311+G(2d,2p) (5D, 7F)
 There are   589 symmetry adapted cartesian basis functions of A   symmetry.
 There are   549 symmetry adapted basis functions of A   symmetry.
   549 basis functions,   851 primitive gaussians,   589 cartesian basis functions
    80 alpha electrons       80 beta electrons
       nuclear repulsion energy      2039.1012973181 Hartrees.
 NAtoms=   21 NActive=   21 NUniq=   21 SFac= 1.00D+00 NAtFMM=   60 NAOKFM=F Big=F
 Integral buffers will be    131072 words long.
 Raffenetti 2 integral format.
 Two-electron integral symmetry is turned on.
 Nuclear repulsion after empirical dispersion term =     2039.0870475626 Hartrees.
 One-electron integrals computed using PRISM.
 NBasis=   549 RedAO= T EigKep=  8.36D-06  NBF=   549
 NBsUse=   549 1.00D-06 EigRej= -1.00D+00 NBFU=   549
 Initial guess from the checkpoint file:  "frd_903.chk"
 B after Tr=     0.000000   -0.000000    0.000000
         Rot=    1.000000   -0.000064   -0.000069   -0.000013 Ang=  -0.01 deg.
 Requested convergence on RMS density matrix=1.00D-08 within 128 cycles.
 Requested convergence on MAX density matrix=1.00D-06.
 Requested convergence on             energy=1.00D-06.
 No special actions if energy rises.
 SCF Done:  E(RwB97XD) =  -1553.25530321     A.U. after    8 cycles
            NFock=  8  Conv=0.75D-08     -V/T= 2.0026
 Calling FoFJK, ICntrl=      2127 FMM=F ISym2X=0 I1Cent= 0 IOpClX= 0 NMat=1 NMatS=1 NMatT=0.
 ***** Axes restored to original set *****
 -------------------------------------------------------------------
 Center     Atomic                   Forces (Hartrees/Bohr)
 Number     Number              X              Y              Z
 -------------------------------------------------------------------
      1        6          -0.000004605   -0.000001214   -0.000005570
      2        9           0.000002006    0.000000833   -0.000000198
      3        9           0.000005725   -0.000001293    0.000003074
      4        9           0.000002013   -0.000001882    0.000001545
      5        6           0.000004209    0.000000717   -0.000012341
      6        9           0.000000563    0.000000116    0.000001847
      7        9           0.000001151   -0.000005899    0.000002598
      8        9          -0.000002325    0.000017561   -0.000009167
      9        9           0.000003238    0.000004447    0.000000179
     10        6          -0.000029005   -0.000024180   -0.000000133
     11        8           0.000068724   -0.000011061    0.000004013
     12        6          -0.000076990    0.000001256    0.000100249
     13        6           0.000119733    0.000042096   -0.000049697
     14        8          -0.000044984   -0.000028821    0.000001653
     15        8          -0.000046730    0.000045463   -0.000059227
     16        1           0.000002473   -0.000053596    0.000109188
     17        6           0.000011476   -0.000014615   -0.000009236
     18        9          -0.000009029    0.000011691   -0.000077870
     19        9           0.000000780    0.000005559   -0.000001888
     20        9          -0.000003307    0.000005539   -0.000003164
     21        9          -0.000005115    0.000007284    0.000004143
 -------------------------------------------------------------------
 Cartesian Forces:  Max     0.000119733 RMS     0.000034252

 GradGradGradGradGradGradGradGradGradGradGradGradGradGradGradGradGradGrad
 Berny optimization.
 Using GEDIIS/GDIIS optimizer.
 FormGI is forming the generalized inverse of G from B-inverse, IUseBI=4.
 Internal  Forces:  Max     0.000119548 RMS     0.000018948
 Search for a local minimum.
 Step number   4 out of a maximum of  106
 All quantities printed in internal units (Hartrees-Bohrs-Radians)
 Mixed Optimization -- En-DIIS/RFO-DIIS
 Swapping is turned off.
 Update second derivatives using D2CorX and points    1    2    3    4
 DE= -2.69D-07 DEPred=-3.49D-07 R= 7.71D-01
 Trust test= 7.71D-01 RLast= 8.09D-03 DXMaxT set to 3.00D-01
 ITU=  0  0  1  0
     Eigenvalues ---    0.00229   0.00230   0.00231   0.00258   0.01731
     Eigenvalues ---    0.01996   0.02268   0.02936   0.05037   0.06077
     Eigenvalues ---    0.06960   0.08180   0.08296   0.08467   0.08510
     Eigenvalues ---    0.08607   0.08878   0.08920   0.10693   0.13385
     Eigenvalues ---    0.16363   0.17590   0.18744   0.19369   0.20975
     Eigenvalues ---    0.21535   0.23190   0.25000   0.25000   0.25000
     Eigenvalues ---    0.25000   0.25000   0.25000   0.25000   0.25001
     Eigenvalues ---    0.25410   0.26807   0.27273   0.27334   0.27562
     Eigenvalues ---    0.28095   0.40719   0.50501   0.50945   0.55534
     Eigenvalues ---    0.57042   0.57489   0.57818   0.58534   0.59928
     Eigenvalues ---    0.60137   0.60352   0.60641   0.60740   0.61988
     Eigenvalues ---    0.62542   1.10574
 En-DIIS/RFO-DIIS/Sim-DIIS IScMMF=       -3 using points:     4    3    2    1
 RFO step:  Lambda=-3.58621879D-07.
 DidBck=T Rises=F RFO-DIIS coefs:    0.40901    0.24546    0.56429   -0.21876
 Iteration  1 RMS(Cart)=  0.00038429 RMS(Int)=  0.00000017
 Iteration  2 RMS(Cart)=  0.00000016 RMS(Int)=  0.00000005
 Variable       Old X    -DE/DX   Delta X   Delta X   Delta X     New X
                                 (Linear)    (Quad)   (Total)
    R1        2.50663   0.00000  -0.00001   0.00001   0.00000   2.50663
    R2        2.50361  -0.00000   0.00001  -0.00001  -0.00000   2.50361
    R3        2.50837   0.00000  -0.00000   0.00000   0.00000   2.50838
    R4        2.93604   0.00000   0.00003  -0.00003   0.00001   2.93605
    R5        2.52704  -0.00000  -0.00000  -0.00000  -0.00000   2.52703
    R6        2.52992   0.00000   0.00000   0.00000   0.00000   2.52992
    R7        2.93791   0.00001   0.00007  -0.00006   0.00001   2.93792
    R8        2.50894   0.00001  -0.00004   0.00007   0.00003   2.50898
    R9        2.53366   0.00000  -0.00001   0.00000  -0.00000   2.53366
   R10        2.59574  -0.00002   0.00008  -0.00012  -0.00004   2.59570
   R11        2.59410   0.00006   0.00000   0.00007   0.00007   2.59418
   R12        2.94471  -0.00000  -0.00004   0.00005   0.00000   2.94471
   R13        2.93100  -0.00000   0.00001  -0.00000   0.00000   2.93100
   R14        2.59514  -0.00008   0.00019  -0.00039  -0.00019   2.59494
   R15        2.24376  -0.00001   0.00011  -0.00015  -0.00004   2.24372
   R16        2.50406   0.00005   0.00029  -0.00027   0.00002   2.50408
   R17        1.82002   0.00012  -0.00083   0.00089   0.00006   1.82007
   R18        2.49403   0.00000   0.00000   0.00000   0.00001   2.49403
   R19        2.50425  -0.00001   0.00000  -0.00001  -0.00001   2.50424
   R20        2.52113   0.00001   0.00000   0.00002   0.00002   2.52115
    A1        1.89983  -0.00001  -0.00003   0.00002  -0.00001   1.89982
    A2        1.89918  -0.00000  -0.00004   0.00003  -0.00001   1.89917
    A3        1.89619   0.00000  -0.00000   0.00000  -0.00000   1.89619
    A4        1.90394  -0.00000   0.00000  -0.00000  -0.00000   1.90394
    A5        1.93359   0.00001   0.00004  -0.00002   0.00002   1.93361
    A6        1.93054   0.00000   0.00002  -0.00002   0.00000   1.93055
    A7        1.88397  -0.00000  -0.00001   0.00001   0.00000   1.88397
    A8        1.88329  -0.00000  -0.00001   0.00000  -0.00001   1.88328
    A9        2.01390   0.00001   0.00006  -0.00004   0.00002   2.01392
   A10        1.90844  -0.00000  -0.00005   0.00003  -0.00001   1.90843
   A11        1.89022  -0.00000  -0.00002   0.00003   0.00000   1.89023
   A12        1.88240  -0.00000   0.00003  -0.00003  -0.00000   1.88240
   A13        1.91824   0.00000   0.00007  -0.00012  -0.00005   1.91819
   A14        1.91375   0.00000   0.00002  -0.00003  -0.00001   1.91374
   A15        1.86877  -0.00000   0.00006  -0.00010  -0.00004   1.86873
   A16        1.89084  -0.00001  -0.00004   0.00004  -0.00000   1.89084
   A17        1.92486   0.00000  -0.00018   0.00025   0.00007   1.92493
   A18        1.94749   0.00000   0.00007  -0.00005   0.00002   1.94751
   A19        2.11924   0.00002   0.00026  -0.00021   0.00005   2.11929
   A20        2.00686   0.00000   0.00003   0.00000   0.00003   2.00689
   A21        1.84141  -0.00000  -0.00008   0.00005  -0.00002   1.84139
   A22        1.92402   0.00000   0.00032  -0.00033  -0.00001   1.92401
   A23        1.92806  -0.00001  -0.00010   0.00002  -0.00008   1.92798
   A24        1.90558  -0.00000  -0.00020   0.00023   0.00003   1.90561
   A25        1.85101   0.00001   0.00004   0.00002   0.00005   1.85106
   A26        2.10381  -0.00000  -0.00038   0.00050   0.00013   2.10394
   A27        2.01042  -0.00003  -0.00011   0.00002  -0.00009   2.01033
   A28        2.16858   0.00003   0.00047  -0.00054  -0.00008   2.16850
   A29        1.93417   0.00002   0.00144  -0.00145  -0.00001   1.93417
   A30        1.94124  -0.00001  -0.00000  -0.00003  -0.00003   1.94121
   A31        1.92064   0.00001   0.00001   0.00001   0.00002   1.92067
   A32        1.89612  -0.00001  -0.00000  -0.00000  -0.00000   1.89611
   A33        1.90581   0.00000  -0.00003   0.00006   0.00003   1.90584
   A34        1.90304   0.00000  -0.00001  -0.00000  -0.00001   1.90303
   A35        1.89636   0.00000   0.00003  -0.00003  -0.00000   1.89636
    D1       -1.06704   0.00000  -0.00019   0.00016  -0.00002  -1.06707
    D2        0.99367  -0.00000  -0.00025   0.00021  -0.00004   0.99362
    D3        3.09961  -0.00000  -0.00019   0.00015  -0.00004   3.09956
    D4        1.01910   0.00000  -0.00020   0.00018  -0.00003   1.01907
    D5        3.07981  -0.00000  -0.00027   0.00022  -0.00005   3.07976
    D6       -1.09744  -0.00000  -0.00020   0.00016  -0.00005  -1.09748
    D7        3.13262   0.00000  -0.00015   0.00014  -0.00001   3.13261
    D8       -1.08985  -0.00000  -0.00022   0.00019  -0.00003  -1.08988
    D9        1.01609   0.00000  -0.00015   0.00012  -0.00003   1.01606
   D10        0.99180  -0.00000  -0.00000   0.00001   0.00001   0.99181
   D11       -1.08489   0.00000  -0.00001   0.00006   0.00005  -1.08484
   D12        3.08269   0.00000  -0.00014   0.00019   0.00005   3.08274
   D13       -1.12135  -0.00000  -0.00001   0.00000  -0.00001  -1.12136
   D14        3.08514   0.00000  -0.00002   0.00005   0.00003   3.08517
   D15        0.96954  -0.00000  -0.00015   0.00018   0.00003   0.96957
   D16        3.09823  -0.00000   0.00004  -0.00004   0.00001   3.09823
   D17        1.02153   0.00000   0.00003   0.00001   0.00004   1.02158
   D18       -1.09407   0.00000  -0.00010   0.00014   0.00005  -1.09403
   D19        2.36239   0.00001  -0.00015   0.00061   0.00047   2.36285
   D20       -1.83417   0.00002  -0.00012   0.00055   0.00043  -1.83374
   D21        0.26825   0.00001  -0.00025   0.00074   0.00049   0.26873
   D22        0.81305  -0.00000   0.00020  -0.00027  -0.00007   0.81298
   D23        2.94205  -0.00001   0.00003  -0.00020  -0.00017   2.94188
   D24       -1.34989  -0.00000   0.00019  -0.00031  -0.00012  -1.35001
   D25        0.80291   0.00002   0.00091   0.00048   0.00139   0.80430
   D26       -2.36729  -0.00002   0.00036  -0.00028   0.00008  -2.36721
   D27       -1.27854   0.00003   0.00107   0.00040   0.00146  -1.27708
   D28        1.83445  -0.00002   0.00052  -0.00037   0.00015   1.83460
   D29        2.97556   0.00002   0.00120   0.00023   0.00143   2.97699
   D30       -0.19464  -0.00002   0.00065  -0.00053   0.00012  -0.19452
   D31       -1.04053   0.00000  -0.00000  -0.00034  -0.00034  -1.04087
   D32        1.07378   0.00000  -0.00003  -0.00028  -0.00031   1.07347
   D33       -3.13523   0.00001   0.00001  -0.00031  -0.00030  -3.13553
   D34        1.13851  -0.00000  -0.00008  -0.00029  -0.00037   1.13814
   D35       -3.03036   0.00000  -0.00011  -0.00023  -0.00034  -3.03070
   D36       -0.95619   0.00000  -0.00007  -0.00026  -0.00033  -0.95652
   D37       -3.08190  -0.00001  -0.00035   0.00000  -0.00034  -3.08224
   D38       -0.96758  -0.00000  -0.00038   0.00006  -0.00031  -0.96790
   D39        1.10659  -0.00000  -0.00034   0.00003  -0.00031   1.10628
   D40        0.07257   0.00002   0.00051   0.00017   0.00068   0.07325
   D41       -3.09883  -0.00003  -0.00007  -0.00061  -0.00068  -3.09951
         Item               Value     Threshold  Converged?
 Maximum Force            0.000120     0.000450     YES
 RMS     Force            0.000019     0.000300     YES
 Maximum Displacement     0.002503     0.001800     NO 
 RMS     Displacement     0.000384     0.001200     YES
 Predicted change in Energy=-1.324866D-07
 GradGradGradGradGradGradGradGradGradGradGradGradGradGradGradGradGradGrad

                          Input orientation:                          
 ---------------------------------------------------------------------
 Center     Atomic      Atomic             Coordinates (Angstroms)
 Number     Number       Type             X           Y           Z
 ---------------------------------------------------------------------
      1          6           0        3.246063    0.051525    0.046305
      2          9           0        4.138048   -0.839058    0.459466
      3          9           0        3.556454    0.428666   -1.185221
      4          9           0        3.292686    1.108002    0.848556
      5          6           0        1.837141   -0.602273    0.084183
      6          9           0        1.846361   -1.649367   -0.747529
      7          9           0        1.615345   -1.030004    1.333253
      8          9           0        0.865009    0.820802   -1.532937
      9          9           0        0.581015    1.353941    0.544456
     10          6           0        0.658936    0.329405   -0.316864
     11          8           0       -0.482883   -0.433916   -0.298747
     12          6           0       -1.642639    0.026480    0.273554
     13          6           0       -2.037971    1.481659   -0.119361
     14          8           0       -1.998946    1.832353   -1.253040
     15          8           0       -2.440257    2.247248    0.884600
     16          1           0       -2.358526    1.782009    1.723954
     17          6           0       -2.745779   -0.972107   -0.164122
     18          9           0       -1.566891   -0.066779    1.641473
     19          9           0       -2.854492   -1.017940   -1.478624
     20          9           0       -2.468032   -2.184676    0.292668
     21          9           0       -3.909325   -0.576646    0.355198
 ---------------------------------------------------------------------
                    Distance matrix (angstroms):
                    1          2          3          4          5
     1  C    0.000000
     2  F    1.326453   0.000000
     3  F    1.324852   2.156472   0.000000
     4  F    1.327376   2.158025   2.160398   0.000000
     5  C    1.553688   2.343304   2.372816   2.372323   0.000000
     6  F    2.341446   2.713902   2.726575   3.498918   1.337249
     7  F    2.342047   2.676564   3.498333   2.760340   1.338777
     8  F    2.958921   4.175834   2.741998   3.412859   2.363316
     9  F    3.007811   4.179588   3.563868   2.739731   2.369911
    10  C    2.627230   3.751295   3.026468   2.983464   1.554680
    11  O    3.776209   4.700216   4.224468   4.236596   2.357434
    12  C    4.894045   5.848081   5.414826   5.085051   3.541195
    13  C    5.476655   6.622988   5.791584   5.430689   4.404622
    14  O    5.689443   6.908821   5.730393   5.739578   4.736152
    15  O    6.152900   7.278744   6.599390   5.845153   5.201594
    16  H    6.100861   7.118595   6.729177   5.758194   5.096790
    17  C    6.082292   6.913294   6.536279   6.466485   4.604519
    18  F    5.071793   5.877064   5.872336   5.062046   3.781447
    19  F    6.378553   7.258361   6.578676   6.908198   4.962517
    20  F    6.141024   6.743797   6.731132   6.658574   4.591512
    21  F    7.189548   8.052325   7.689044   7.412854   5.752911
                    6          7          8          9         10
     6  F    0.000000
     7  F    2.183262   0.000000
     8  F    2.771580   3.493356   0.000000
     9  F    3.505736   2.715739   2.163435   0.000000
    10  C    2.347549   2.342135   1.327694   1.340753   0.000000
    11  O    2.665352   2.724208   2.216835   2.244840   1.373586
    12  C    4.003022   3.585189   3.191027   2.603877   2.395329
    13  C    5.028514   4.665325   3.295789   2.704819   2.939388
    14  O    5.211938   5.286312   3.050216   3.180576   3.193683
    15  O    6.018517   5.233506   4.336360   3.168877   3.837530
    16  H    5.963525   4.883821   4.682140   3.196147   3.921743
    17  C    4.678332   4.611387   4.257461   4.120697   3.648198
    18  F    4.456703   3.339076   4.096195   2.799177   2.991045
    19  F    4.799085   5.280742   4.149532   4.639114   3.938172
    20  F    4.470185   4.369216   4.845090   4.677809   4.058332
    21  F    5.957739   5.628863   5.320920   4.891435   4.705486
                   11         12         13         14         15
    11  O    0.000000
    12  C    1.372780   0.000000
    13  C    2.473844   1.558273   0.000000
    14  O    2.888788   2.391364   1.187323   0.000000
    15  O    3.524240   2.437496   1.325103   2.221801   0.000000
    16  H    3.538316   2.387056   1.894934   2.999054   0.963142
    17  C    2.329908   1.551018   2.554206   3.099758   3.399620
    18  F    2.252625   1.373185   2.391675   3.488779   2.586570
    19  F    2.712512   2.372663   2.960118   2.984462   4.051897
    20  F    2.712148   2.360265   3.714396   4.329640   4.471366
    21  F    3.491206   2.346976   2.822020   3.469763   3.226888
                   16         17         18         19         20
    16  H    0.000000
    17  C    3.361540   0.000000
    18  F    2.012835   2.338711   0.000000
    19  F    4.282779   1.319786   3.506797   0.000000
    20  F    4.218431   1.325188   2.667737   2.155945   0.000000
    21  F    3.137152   1.334137   2.720563   2.161091   2.160323
                   21
    21  F    0.000000
 Stoichiometry    C6HF11O3
 Framework group  C1[X(C6HF11O3)]
 Deg. of freedom    57
 Full point group                 C1      NOp   1
 Largest Abelian subgroup         C1      NOp   1
 Largest concise Abelian subgroup C1      NOp   1
                         Standard orientation:                         
 ---------------------------------------------------------------------
 Center     Atomic      Atomic             Coordinates (Angstroms)
 Number     Number       Type             X           Y           Z
 ---------------------------------------------------------------------
      1          6           0       -3.245898    0.052239   -0.046582
      2          9           0       -4.137961   -0.837784   -0.460780
      3          9           0       -3.556334    0.428078    1.185330
      4          9           0       -3.292330    1.109594   -0.847687
      5          6           0       -1.837054   -0.601691   -0.085067
      6          9           0       -1.846465   -1.649689    0.745504
      7          9           0       -1.615217   -1.028091   -1.334585
      8          9           0       -0.864867    0.819503    1.533674
      9          9           0       -0.580651    1.354867   -0.543116
     10          6           0       -0.658763    0.329403    0.317083
     11          8           0        0.482963   -0.434039    0.298221
     12          6           0        1.642818    0.026837   -0.273492
     13          6           0        2.038301    1.481538    0.121035
     14          8           0        1.999234    1.831003    1.255092
     15          8           0        2.440757    2.248170   -0.882062
     16          1           0        2.359031    1.783854   -1.721927
     17          6           0        2.745802   -0.972363    0.163179
     18          9           0        1.567161   -0.064924   -1.641518
     19          9           0        2.854411   -1.019639    1.477638
     20          9           0        2.467939   -2.184400   -0.294951
     21          9           0        3.909436   -0.576481   -0.355624
 ---------------------------------------------------------------------
 Rotational constants (GHZ):           0.6821830           0.2189815           0.2031508
 Standard basis: 6-311+G(2d,2p) (5D, 7F)
 There are   589 symmetry adapted cartesian basis functions of A   symmetry.
 There are   549 symmetry adapted basis functions of A   symmetry.
   549 basis functions,   851 primitive gaussians,   589 cartesian basis functions
    80 alpha electrons       80 beta electrons
       nuclear repulsion energy      2039.0763764636 Hartrees.
 NAtoms=   21 NActive=   21 NUniq=   21 SFac= 1.00D+00 NAtFMM=   60 NAOKFM=F Big=F
 Integral buffers will be    131072 words long.
 Raffenetti 2 integral format.
 Two-electron integral symmetry is turned on.
 Nuclear repulsion after empirical dispersion term =     2039.0621271558 Hartrees.
 One-electron integrals computed using PRISM.
 NBasis=   549 RedAO= T EigKep=  8.35D-06  NBF=   549
 NBsUse=   549 1.00D-06 EigRej= -1.00D+00 NBFU=   549
 Initial guess from the checkpoint file:  "frd_903.chk"
 B after Tr=    -0.000000    0.000000    0.000000
         Rot=    1.000000    0.000006   -0.000016    0.000031 Ang=   0.00 deg.
 Requested convergence on RMS density matrix=1.00D-08 within 128 cycles.
 Requested convergence on MAX density matrix=1.00D-06.
 Requested convergence on             energy=1.00D-06.
 No special actions if energy rises.
 SCF Done:  E(RwB97XD) =  -1553.25530327     A.U. after    7 cycles
            NFock=  7  Conv=0.68D-08     -V/T= 2.0026
 Calling FoFJK, ICntrl=      2127 FMM=F ISym2X=0 I1Cent= 0 IOpClX= 0 NMat=1 NMatS=1 NMatT=0.
 ***** Axes restored to original set *****
 -------------------------------------------------------------------
 Center     Atomic                   Forces (Hartrees/Bohr)
 Number     Number              X              Y              Z
 -------------------------------------------------------------------
      1        6          -0.000000078   -0.000001047   -0.000003850
      2        9           0.000000201   -0.000001145   -0.000000038
      3        9           0.000002131   -0.000000460    0.000001508
      4        9          -0.000000551   -0.000000876    0.000001069
      5        6           0.000004728   -0.000003151   -0.000008672
      6        9           0.000001075    0.000000585   -0.000000656
      7        9           0.000001163   -0.000003874    0.000004013
      8        9          -0.000016515    0.000021881   -0.000003871
      9        9          -0.000009581    0.000012629   -0.000003896
     10        6          -0.000015049   -0.000038654    0.000001104
     11        8           0.000066132   -0.000013782   -0.000003674
     12        6          -0.000027503    0.000024539    0.000044910
     13        6          -0.000049201    0.000000231   -0.000025808
     14        8           0.000038829   -0.000013784   -0.000026525
     15        8           0.000000978    0.000047405   -0.000019019
     16        1           0.000003293   -0.000035606    0.000082882
     17        6          -0.000010452    0.000001670   -0.000021249
     18        9           0.000001094    0.000001381   -0.000022974
     19        9           0.000002650   -0.000006873    0.000005628
     20        9           0.000000510    0.000006257   -0.000002026
     21        9           0.000006144    0.000002672    0.000001143
 -------------------------------------------------------------------
 Cartesian Forces:  Max     0.000082882 RMS     0.000021229

 GradGradGradGradGradGradGradGradGradGradGradGradGradGradGradGradGradGrad
 Berny optimization.
 Using GEDIIS/GDIIS optimizer.
 FormGI is forming the generalized inverse of G from B-inverse, IUseBI=4.
 Internal  Forces:  Max     0.000087990 RMS     0.000015883
 Search for a local minimum.
 Step number   5 out of a maximum of  106
 All quantities printed in internal units (Hartrees-Bohrs-Radians)
 Mixed Optimization -- En-DIIS/RFO-DIIS
 Swapping is turned off.
 Update second derivatives using D2CorX and points    1    2    3    4    5
 DE= -5.88D-08 DEPred=-1.32D-07 R= 4.44D-01
 Trust test= 4.44D-01 RLast= 2.98D-03 DXMaxT set to 3.00D-01
 ITU=  0  0  0  1  0
     Eigenvalues ---    0.00229   0.00230   0.00231   0.00358   0.01289
     Eigenvalues ---    0.02143   0.02706   0.04563   0.05045   0.06016
     Eigenvalues ---    0.06963   0.08184   0.08303   0.08498   0.08530
     Eigenvalues ---    0.08587   0.08878   0.08972   0.10699   0.13382
     Eigenvalues ---    0.16383   0.17810   0.19184   0.19369   0.20883
     Eigenvalues ---    0.21620   0.23420   0.24998   0.25000   0.25000
     Eigenvalues ---    0.25000   0.25000   0.25000   0.25000   0.25078
     Eigenvalues ---    0.26860   0.27062   0.27324   0.27513   0.28516
     Eigenvalues ---    0.29176   0.38117   0.50984   0.51227   0.53751
     Eigenvalues ---    0.57050   0.57495   0.57816   0.58560   0.59870
     Eigenvalues ---    0.60137   0.60352   0.60636   0.60740   0.62001
     Eigenvalues ---    0.64809   1.11998
 En-DIIS/RFO-DIIS/Sim-DIIS IScMMF=       -3 using points:     5    4    3    2    1
 RFO step:  Lambda=-1.26189066D-07.
 DidBck=F Rises=F RFO-DIIS coefs:    1.02565    0.37699   -0.09264   -0.25142   -0.05858
 Iteration  1 RMS(Cart)=  0.00045200 RMS(Int)=  0.00000009
 Iteration  2 RMS(Cart)=  0.00000015 RMS(Int)=  0.00000002
 Variable       Old X    -DE/DX   Delta X   Delta X   Delta X     New X
                                 (Linear)    (Quad)   (Total)
    R1        2.50663   0.00000   0.00000  -0.00000   0.00000   2.50663
    R2        2.50361  -0.00000  -0.00000  -0.00000  -0.00000   2.50360
    R3        2.50838   0.00000   0.00001  -0.00001   0.00000   2.50838
    R4        2.93605   0.00000   0.00001   0.00000   0.00001   2.93605
    R5        2.52703  -0.00000  -0.00001   0.00000  -0.00000   2.52703
    R6        2.52992   0.00001   0.00000   0.00001   0.00001   2.52993
    R7        2.93792   0.00001  -0.00002   0.00004   0.00003   2.93795
    R8        2.50898   0.00001   0.00006  -0.00002   0.00004   2.50902
    R9        2.53366   0.00001  -0.00002   0.00003   0.00001   2.53366
   R10        2.59570  -0.00003  -0.00008   0.00001  -0.00008   2.59563
   R11        2.59418   0.00004   0.00004   0.00007   0.00011   2.59429
   R12        2.94471  -0.00000   0.00004  -0.00004  -0.00000   2.94471
   R13        2.93100   0.00000   0.00003  -0.00002   0.00001   2.93101
   R14        2.59494  -0.00002  -0.00028   0.00008  -0.00020   2.59475
   R15        2.24372   0.00002  -0.00007   0.00005  -0.00002   2.24369
   R16        2.50408   0.00005   0.00005   0.00003   0.00007   2.50415
   R17        1.82007   0.00009  -0.00050   0.00061   0.00011   1.82019
   R18        2.49403  -0.00001   0.00001  -0.00002  -0.00000   2.49403
   R19        2.50424  -0.00001  -0.00001  -0.00000  -0.00001   2.50423
   R20        2.52115  -0.00000   0.00004  -0.00002   0.00002   2.52117
    A1        1.89982  -0.00000   0.00001  -0.00002  -0.00001   1.89981
    A2        1.89917   0.00000   0.00001  -0.00002  -0.00001   1.89916
    A3        1.89619  -0.00000  -0.00001   0.00000  -0.00000   1.89618
    A4        1.90394  -0.00000  -0.00000   0.00001   0.00000   1.90394
    A5        1.93361   0.00000   0.00000   0.00003   0.00003   1.93364
    A6        1.93055  -0.00000  -0.00001   0.00001  -0.00000   1.93054
    A7        1.88397  -0.00000   0.00001  -0.00001  -0.00000   1.88397
    A8        1.88328  -0.00000  -0.00001  -0.00001  -0.00002   1.88326
    A9        2.01392   0.00000  -0.00003   0.00005   0.00003   2.01395
   A10        1.90843   0.00000   0.00001  -0.00003  -0.00002   1.90841
   A11        1.89023   0.00000   0.00001  -0.00000   0.00001   1.89024
   A12        1.88240  -0.00000   0.00000  -0.00001  -0.00000   1.88240
   A13        1.91819   0.00002  -0.00005   0.00007   0.00001   1.91820
   A14        1.91374   0.00002   0.00001   0.00004   0.00005   1.91379
   A15        1.86873   0.00001  -0.00003   0.00005   0.00002   1.86875
   A16        1.89084  -0.00002   0.00001  -0.00009  -0.00008   1.89076
   A17        1.92493  -0.00001   0.00008  -0.00006   0.00002   1.92495
   A18        1.94751  -0.00001  -0.00002  -0.00000  -0.00002   1.94749
   A19        2.11929  -0.00003   0.00001  -0.00004  -0.00003   2.11926
   A20        2.00689  -0.00001  -0.00002  -0.00001  -0.00003   2.00685
   A21        1.84139  -0.00000  -0.00005   0.00002  -0.00003   1.84136
   A22        1.92401   0.00001  -0.00007   0.00009   0.00003   1.92404
   A23        1.92798   0.00001  -0.00008   0.00002  -0.00006   1.92792
   A24        1.90561  -0.00000   0.00008  -0.00006   0.00002   1.90564
   A25        1.85106   0.00000   0.00014  -0.00006   0.00008   1.85115
   A26        2.10394  -0.00003   0.00026  -0.00021   0.00005   2.10399
   A27        2.01033  -0.00001  -0.00003  -0.00005  -0.00009   2.01024
   A28        2.16850   0.00004  -0.00021   0.00026   0.00005   2.16855
   A29        1.93417   0.00002   0.00027  -0.00018   0.00009   1.93426
   A30        1.94121   0.00001  -0.00002   0.00002  -0.00000   1.94121
   A31        1.92067  -0.00001   0.00002  -0.00002  -0.00000   1.92066
   A32        1.89611  -0.00001   0.00002  -0.00004  -0.00002   1.89609
   A33        1.90584  -0.00000   0.00001  -0.00000   0.00001   1.90585
   A34        1.90303   0.00000  -0.00002   0.00003   0.00001   1.90304
   A35        1.89636   0.00000  -0.00002   0.00002  -0.00000   1.89636
    D1       -1.06707   0.00000   0.00005  -0.00020  -0.00015  -1.06721
    D2        0.99362  -0.00000   0.00007  -0.00025  -0.00018   0.99344
    D3        3.09956  -0.00000   0.00005  -0.00023  -0.00018   3.09939
    D4        1.01907   0.00000   0.00006  -0.00021  -0.00015   1.01892
    D5        3.07976  -0.00000   0.00007  -0.00025  -0.00018   3.07958
    D6       -1.09748  -0.00000   0.00006  -0.00023  -0.00018  -1.09766
    D7        3.13261   0.00000   0.00005  -0.00018  -0.00013   3.13249
    D8       -1.08988  -0.00000   0.00006  -0.00022  -0.00016  -1.09004
    D9        1.01606   0.00000   0.00005  -0.00020  -0.00016   1.01590
   D10        0.99181   0.00000  -0.00001   0.00008   0.00007   0.99188
   D11       -1.08484   0.00000   0.00001   0.00012   0.00013  -1.08472
   D12        3.08274   0.00000   0.00005   0.00007   0.00011   3.08285
   D13       -1.12136   0.00000  -0.00001   0.00005   0.00005  -1.12131
   D14        3.08517   0.00000   0.00001   0.00009   0.00010   3.08527
   D15        0.96957  -0.00000   0.00005   0.00004   0.00009   0.96966
   D16        3.09823  -0.00000  -0.00003   0.00009   0.00006   3.09830
   D17        1.02158   0.00000  -0.00001   0.00013   0.00012   1.02169
   D18       -1.09403  -0.00000   0.00002   0.00008   0.00010  -1.09392
   D19        2.36285   0.00001   0.00041   0.00032   0.00073   2.36358
   D20       -1.83374   0.00003   0.00037   0.00040   0.00077  -1.83297
   D21        0.26873  -0.00001   0.00043   0.00024   0.00067   0.26940
   D22        0.81298  -0.00001  -0.00030  -0.00010  -0.00040   0.81258
   D23        2.94188  -0.00001  -0.00045  -0.00007  -0.00052   2.94136
   D24       -1.35001  -0.00001  -0.00034  -0.00008  -0.00042  -1.35044
   D25        0.80430  -0.00002  -0.00052   0.00002  -0.00051   0.80379
   D26       -2.36721   0.00001  -0.00021   0.00012  -0.00010  -2.36731
   D27       -1.27708  -0.00001  -0.00038  -0.00002  -0.00040  -1.27747
   D28        1.83460   0.00001  -0.00007   0.00009   0.00001   1.83461
   D29        2.97699  -0.00002  -0.00056   0.00008  -0.00048   2.97651
   D30       -0.19452   0.00000  -0.00025   0.00018  -0.00007  -0.19459
   D31       -1.04087   0.00001   0.00001   0.00024   0.00025  -1.04061
   D32        1.07347   0.00001   0.00003   0.00024   0.00027   1.07374
   D33       -3.13553   0.00000   0.00003   0.00022   0.00025  -3.13528
   D34        1.13814   0.00000  -0.00010   0.00025   0.00016   1.13830
   D35       -3.03070  -0.00000  -0.00008   0.00025   0.00017  -3.03053
   D36       -0.95652  -0.00000  -0.00008   0.00023   0.00015  -0.95637
   D37       -3.08224   0.00000   0.00005   0.00016   0.00020  -3.08204
   D38       -0.96790   0.00000   0.00006   0.00015   0.00021  -0.96768
   D39        1.10628  -0.00000   0.00007   0.00013   0.00020   1.10648
   D40        0.07325  -0.00001  -0.00009  -0.00013  -0.00022   0.07303
   D41       -3.09951   0.00001   0.00024  -0.00004   0.00021  -3.09931
         Item               Value     Threshold  Converged?
 Maximum Force            0.000088     0.000450     YES
 RMS     Force            0.000016     0.000300     YES
 Maximum Displacement     0.001790     0.001800     YES
 RMS     Displacement     0.000452     0.001200     YES
 Predicted change in Energy=-6.071206D-08
 Optimization completed.
    -- Stationary point found.
                           ----------------------------
                           !   Optimized Parameters   !
                           ! (Angstroms and Degrees)  !
 --------------------------                            --------------------------
 ! Name  Definition              Value          Derivative Info.                !
 --------------------------------------------------------------------------------
 ! R1    R(1,2)                  1.3265         -DE/DX =    0.0                 !
 ! R2    R(1,3)                  1.3249         -DE/DX =    0.0                 !
 ! R3    R(1,4)                  1.3274         -DE/DX =    0.0                 !
 ! R4    R(1,5)                  1.5537         -DE/DX =    0.0                 !
 ! R5    R(5,6)                  1.3372         -DE/DX =    0.0                 !
 ! R6    R(5,7)                  1.3388         -DE/DX =    0.0                 !
 ! R7    R(5,10)                 1.5547         -DE/DX =    0.0                 !
 ! R8    R(8,10)                 1.3277         -DE/DX =    0.0                 !
 ! R9    R(9,10)                 1.3408         -DE/DX =    0.0                 !
 ! R10   R(10,11)                1.3736         -DE/DX =    0.0                 !
 ! R11   R(11,12)                1.3728         -DE/DX =    0.0                 !
 ! R12   R(12,13)                1.5583         -DE/DX =    0.0                 !
 ! R13   R(12,17)                1.551          -DE/DX =    0.0                 !
 ! R14   R(12,18)                1.3732         -DE/DX =    0.0                 !
 ! R15   R(13,14)                1.1873         -DE/DX =    0.0                 !
 ! R16   R(13,15)                1.3251         -DE/DX =    0.0001              !
 ! R17   R(15,16)                0.9631         -DE/DX =    0.0001              !
 ! R18   R(17,19)                1.3198         -DE/DX =    0.0                 !
 ! R19   R(17,20)                1.3252         -DE/DX =    0.0                 !
 ! R20   R(17,21)                1.3341         -DE/DX =    0.0                 !
 ! A1    A(2,1,3)              108.8516         -DE/DX =    0.0                 !
 ! A2    A(2,1,4)              108.8145         -DE/DX =    0.0                 !
 ! A3    A(2,1,5)              108.6435         -DE/DX =    0.0                 !
 ! A4    A(3,1,4)              109.0877         -DE/DX =    0.0                 !
 ! A5    A(3,1,5)              110.7876         -DE/DX =    0.0                 !
 ! A6    A(4,1,5)              110.6121         -DE/DX =    0.0                 !
 ! A7    A(1,5,6)              107.9437         -DE/DX =    0.0                 !
 ! A8    A(1,5,7)              107.9041         -DE/DX =    0.0                 !
 ! A9    A(1,5,10)             115.3893         -DE/DX =    0.0                 !
 ! A10   A(6,5,7)              109.3449         -DE/DX =    0.0                 !
 ! A11   A(6,5,10)             108.3021         -DE/DX =    0.0                 !
 ! A12   A(7,5,10)             107.8537         -DE/DX =    0.0                 !
 ! A13   A(5,10,8)             109.9041         -DE/DX =    0.0                 !
 ! A14   A(5,10,9)             109.6492         -DE/DX =    0.0                 !
 ! A15   A(5,10,11)            107.0704         -DE/DX =    0.0                 !
 ! A16   A(8,10,9)             108.3369         -DE/DX =    0.0                 !
 ! A17   A(8,10,11)            110.2905         -DE/DX =    0.0                 !
 ! A18   A(9,10,11)            111.584          -DE/DX =    0.0                 !
 ! A19   A(10,11,12)           121.4262         -DE/DX =    0.0                 !
 ! A20   A(11,12,13)           114.9862         -DE/DX =    0.0                 !
 ! A21   A(11,12,17)           105.5039         -DE/DX =    0.0                 !
 ! A22   A(11,12,18)           110.2376         -DE/DX =    0.0                 !
 ! A23   A(13,12,17)           110.4653         -DE/DX =    0.0                 !
 ! A24   A(13,12,18)           109.1836         -DE/DX =    0.0                 !
 ! A25   A(17,12,18)           106.0581         -DE/DX =    0.0                 !
 ! A26   A(12,13,14)           120.5467         -DE/DX =    0.0                 !
 ! A27   A(12,13,15)           115.1833         -DE/DX =    0.0                 !
 ! A28   A(14,13,15)           124.2458         -DE/DX =    0.0                 !
 ! A29   A(13,15,16)           110.8195         -DE/DX =    0.0                 !
 ! A30   A(12,17,19)           111.2231         -DE/DX =    0.0                 !
 ! A31   A(12,17,20)           110.046          -DE/DX =    0.0                 !
 ! A32   A(12,17,21)           108.6393         -DE/DX =    0.0                 !
 ! A33   A(19,17,20)           109.1964         -DE/DX =    0.0                 !
 ! A34   A(19,17,21)           109.0354         -DE/DX =    0.0                 !
 ! A35   A(20,17,21)           108.6534         -DE/DX =    0.0                 !
 ! D1    D(2,1,5,6)            -61.1384         -DE/DX =    0.0                 !
 ! D2    D(2,1,5,7)             56.9303         -DE/DX =    0.0                 !
 ! D3    D(2,1,5,10)           177.592          -DE/DX =    0.0                 !
 ! D4    D(3,1,5,6)             58.3885         -DE/DX =    0.0                 !
 ! D5    D(3,1,5,7)            176.4573         -DE/DX =    0.0                 !
 ! D6    D(3,1,5,10)           -62.8811         -DE/DX =    0.0                 !
 ! D7    D(4,1,5,6)            179.4855         -DE/DX =    0.0                 !
 ! D8    D(4,1,5,7)            -62.4457         -DE/DX =    0.0                 !
 ! D9    D(4,1,5,10)            58.2159         -DE/DX =    0.0                 !
 ! D10   D(1,5,10,8)            56.8266         -DE/DX =    0.0                 !
 ! D11   D(1,5,10,9)           -62.157          -DE/DX =    0.0                 !
 ! D12   D(1,5,10,11)          176.6278         -DE/DX =    0.0                 !
 ! D13   D(6,5,10,8)           -64.2491         -DE/DX =    0.0                 !
 ! D14   D(6,5,10,9)           176.7672         -DE/DX =    0.0                 !
 ! D15   D(6,5,10,11)           55.5521         -DE/DX =    0.0                 !
 ! D16   D(7,5,10,8)           177.5156         -DE/DX =    0.0                 !
 ! D17   D(7,5,10,9)            58.532          -DE/DX =    0.0                 !
 ! D18   D(7,5,10,11)          -62.6831         -DE/DX =    0.0                 !
 ! D19   D(5,10,11,12)         135.3815         -DE/DX =    0.0                 !
 ! D20   D(8,10,11,12)        -105.0654         -DE/DX =    0.0                 !
 ! D21   D(9,10,11,12)          15.3972         -DE/DX =    0.0                 !
 ! D22   D(10,11,12,13)         46.5803         -DE/DX =    0.0                 !
 ! D23   D(10,11,12,17)        168.5573         -DE/DX =    0.0                 !
 ! D24   D(10,11,12,18)        -77.35           -DE/DX =    0.0                 !
 ! D25   D(11,12,13,14)         46.083          -DE/DX =    0.0                 !
 ! D26   D(11,12,13,15)       -135.6313         -DE/DX =    0.0                 !
 ! D27   D(17,12,13,14)        -73.1712         -DE/DX =    0.0                 !
 ! D28   D(17,12,13,15)        105.1146         -DE/DX =    0.0                 !
 ! D29   D(18,12,13,14)        170.5688         -DE/DX =    0.0                 !
 ! D30   D(18,12,13,15)        -11.1454         -DE/DX =    0.0                 !
 ! D31   D(11,12,17,19)        -59.6373         -DE/DX =    0.0                 !
 ! D32   D(11,12,17,20)         61.5055         -DE/DX =    0.0                 !
 ! D33   D(11,12,17,21)       -179.6529         -DE/DX =    0.0                 !
 ! D34   D(13,12,17,19)         65.2108         -DE/DX =    0.0                 !
 ! D35   D(13,12,17,20)       -173.6463         -DE/DX =    0.0                 !
 ! D36   D(13,12,17,21)        -54.8048         -DE/DX =    0.0                 !
 ! D37   D(18,12,17,19)       -176.5993         -DE/DX =    0.0                 !
 ! D38   D(18,12,17,20)        -55.4564         -DE/DX =    0.0                 !
 ! D39   D(18,12,17,21)         63.3851         -DE/DX =    0.0                 !
 ! D40   D(12,13,15,16)          4.197          -DE/DX =    0.0                 !
 ! D41   D(14,13,15,16)       -177.5889         -DE/DX =    0.0                 !
 --------------------------------------------------------------------------------
 GradGradGradGradGradGradGradGradGradGradGradGradGradGradGradGradGradGrad

                          Input orientation:                          
 ---------------------------------------------------------------------
 Center     Atomic      Atomic             Coordinates (Angstroms)
 Number     Number       Type             X           Y           Z
 ---------------------------------------------------------------------
      1          6           0        3.246063    0.051525    0.046305
      2          9           0        4.138048   -0.839058    0.459466
      3          9           0        3.556454    0.428666   -1.185221
      4          9           0        3.292686    1.108002    0.848556
      5          6           0        1.837141   -0.602273    0.084183
      6          9           0        1.846361   -1.649367   -0.747529
      7          9           0        1.615345   -1.030004    1.333253
      8          9           0        0.865009    0.820802   -1.532937
      9          9           0        0.581015    1.353941    0.544456
     10          6           0        0.658936    0.329405   -0.316864
     11          8           0       -0.482883   -0.433916   -0.298747
     12          6           0       -1.642639    0.026480    0.273554
     13          6           0       -2.037971    1.481659   -0.119361
     14          8           0       -1.998946    1.832353   -1.253040
     15          8           0       -2.440257    2.247248    0.884600
     16          1           0       -2.358526    1.782009    1.723954
     17          6           0       -2.745779   -0.972107   -0.164122
     18          9           0       -1.566891   -0.066779    1.641473
     19          9           0       -2.854492   -1.017940   -1.478624
     20          9           0       -2.468032   -2.184676    0.292668
     21          9           0       -3.909325   -0.576646    0.355198
 ---------------------------------------------------------------------
                    Distance matrix (angstroms):
                    1          2          3          4          5
     1  C    0.000000
     2  F    1.326453   0.000000
     3  F    1.324852   2.156472   0.000000
     4  F    1.327376   2.158025   2.160398   0.000000
     5  C    1.553688   2.343304   2.372816   2.372323   0.000000
     6  F    2.341446   2.713902   2.726575   3.498918   1.337249
     7  F    2.342047   2.676564   3.498333   2.760340   1.338777
     8  F    2.958921   4.175834   2.741998   3.412859   2.363316
     9  F    3.007811   4.179588   3.563868   2.739731   2.369911
    10  C    2.627230   3.751295   3.026468   2.983464   1.554680
    11  O    3.776209   4.700216   4.224468   4.236596   2.357434
    12  C    4.894045   5.848081   5.414826   5.085051   3.541195
    13  C    5.476655   6.622988   5.791584   5.430689   4.404622
    14  O    5.689443   6.908821   5.730393   5.739578   4.736152
    15  O    6.152900   7.278744   6.599390   5.845153   5.201594
    16  H    6.100861   7.118595   6.729177   5.758194   5.096790
    17  C    6.082292   6.913294   6.536279   6.466485   4.604519
    18  F    5.071793   5.877064   5.872336   5.062046   3.781447
    19  F    6.378553   7.258361   6.578676   6.908198   4.962517
    20  F    6.141024   6.743797   6.731132   6.658574   4.591512
    21  F    7.189548   8.052325   7.689044   7.412854   5.752911
                    6          7          8          9         10
     6  F    0.000000
     7  F    2.183262   0.000000
     8  F    2.771580   3.493356   0.000000
     9  F    3.505736   2.715739   2.163435   0.000000
    10  C    2.347549   2.342135   1.327694   1.340753   0.000000
    11  O    2.665352   2.724208   2.216835   2.244840   1.373586
    12  C    4.003022   3.585189   3.191027   2.603877   2.395329
    13  C    5.028514   4.665325   3.295789   2.704819   2.939388
    14  O    5.211938   5.286312   3.050216   3.180576   3.193683
    15  O    6.018517   5.233506   4.336360   3.168877   3.837530
    16  H    5.963525   4.883821   4.682140   3.196147   3.921743
    17  C    4.678332   4.611387   4.257461   4.120697   3.648198
    18  F    4.456703   3.339076   4.096195   2.799177   2.991045
    19  F    4.799085   5.280742   4.149532   4.639114   3.938172
    20  F    4.470185   4.369216   4.845090   4.677809   4.058332
    21  F    5.957739   5.628863   5.320920   4.891435   4.705486
                   11         12         13         14         15
    11  O    0.000000
    12  C    1.372780   0.000000
    13  C    2.473844   1.558273   0.000000
    14  O    2.888788   2.391364   1.187323   0.000000
    15  O    3.524240   2.437496   1.325103   2.221801   0.000000
    16  H    3.538316   2.387056   1.894934   2.999054   0.963142
    17  C    2.329908   1.551018   2.554206   3.099758   3.399620
    18  F    2.252625   1.373185   2.391675   3.488779   2.586570
    19  F    2.712512   2.372663   2.960118   2.984462   4.051897
    20  F    2.712148   2.360265   3.714396   4.329640   4.471366
    21  F    3.491206   2.346976   2.822020   3.469763   3.226888
                   16         17         18         19         20
    16  H    0.000000
    17  C    3.361540   0.000000
    18  F    2.012835   2.338711   0.000000
    19  F    4.282779   1.319786   3.506797   0.000000
    20  F    4.218431   1.325188   2.667737   2.155945   0.000000
    21  F    3.137152   1.334137   2.720563   2.161091   2.160323
                   21
    21  F    0.000000
 Stoichiometry    C6HF11O3
 Framework group  C1[X(C6HF11O3)]
 Deg. of freedom    57
 Full point group                 C1      NOp   1
 Largest Abelian subgroup         C1      NOp   1
 Largest concise Abelian subgroup C1      NOp   1
                         Standard orientation:                         
 ---------------------------------------------------------------------
 Center     Atomic      Atomic             Coordinates (Angstroms)
 Number     Number       Type             X           Y           Z
 ---------------------------------------------------------------------
      1          6           0       -3.245898    0.052239   -0.046582
      2          9           0       -4.137961   -0.837784   -0.460780
      3          9           0       -3.556334    0.428078    1.185330
      4          9           0       -3.292330    1.109594   -0.847687
      5          6           0       -1.837054   -0.601691   -0.085067
      6          9           0       -1.846465   -1.649689    0.745504
      7          9           0       -1.615217   -1.028091   -1.334585
      8          9           0       -0.864867    0.819503    1.533674
      9          9           0       -0.580651    1.354867   -0.543116
     10          6           0       -0.658763    0.329403    0.317083
     11          8           0        0.482963   -0.434039    0.298221
     12          6           0        1.642818    0.026837   -0.273492
     13          6           0        2.038301    1.481538    0.121035
     14          8           0        1.999234    1.831003    1.255092
     15          8           0        2.440757    2.248170   -0.882062
     16          1           0        2.359031    1.783854   -1.721927
     17          6           0        2.745802   -0.972363    0.163179
     18          9           0        1.567161   -0.064924   -1.641518
     19          9           0        2.854411   -1.019639    1.477638
     20          9           0        2.467939   -2.184400   -0.294951
     21          9           0        3.909436   -0.576481   -0.355624
 ---------------------------------------------------------------------
 Rotational constants (GHZ):           0.6821830           0.2189815           0.2031508

 **********************************************************************

            Population analysis using the SCF density.

 **********************************************************************

 Orbital symmetries:
       Occupied  (A) (A) (A) (A) (A) (A) (A) (A) (A) (A) (A) (A)
                 (A) (A) (A) (A) (A) (A) (A) (A) (A) (A) (A) (A)
                 (A) (A) (A) (A) (A) (A) (A) (A) (A) (A) (A) (A)
                 (A) (A) (A) (A) (A) (A) (A) (A) (A) (A) (A) (A)
                 (A) (A) (A) (A) (A) (A) (A) (A) (A) (A) (A) (A)
                 (A) (A) (A) (A) (A) (A) (A) (A) (A) (A) (A) (A)
                 (A) (A) (A) (A) (A) (A) (A) (A)
       Virtual   (A) (A) (A) (A) (A) (A) (A) (A) (A) (A) (A) (A)
                 (A) (A) (A) (A) (A) (A) (A) (A) (A) (A) (A) (A)
                 (A) (A) (A) (A) (A) (A) (A) (A) (A) (A) (A) (A)
                 (A) (A) (A) (A) (A) (A) (A) (A) (A) (A) (A) (A)
                 (A) (A) (A) (A) (A) (A) (A) (A) (A) (A) (A) (A)
                 (A) (A) (A) (A) (A) (A) (A) (A) (A) (A) (A) (A)
                 (A) (A) (A) (A) (A) (A) (A) (A) (A) (A) (A) (A)
                 (A) (A) (A) (A) (A) (A) (A) (A) (A) (A) (A) (A)
                 (A) (A) (A) (A) (A) (A) (A) (A) (A) (A) (A) (A)
                 (A) (A) (A) (A) (A) (A) (A) (A) (A) (A) (A) (A)
                 (A) (A) (A) (A) (A) (A) (A) (A) (A) (A) (A) (A)
                 (A) (A) (A) (A) (A) (A) (A) (A) (A) (A) (A) (A)
                 (A) (A) (A) (A) (A) (A) (A) (A) (A) (A) (A) (A)
                 (A) (A) (A) (A) (A) (A) (A) (A) (A) (A) (A) (A)
                 (A) (A) (A) (A) (A) (A) (A) (A) (A) (A) (A) (A)
                 (A) (A) (A) (A) (A) (A) (A) (A) (A) (A) (A) (A)
                 (A) (A) (A) (A) (A) (A) (A) (A) (A) (A) (A) (A)
                 (A) (A) (A) (A) (A) (A) (A) (A) (A) (A) (A) (A)
                 (A) (A) (A) (A) (A) (A) (A) (A) (A) (A) (A) (A)
                 (A) (A) (A) (A) (A) (A) (A) (A) (A) (A) (A) (A)
                 (A) (A) (A) (A) (A) (A) (A) (A) (A) (A) (A) (A)
                 (A) (A) (A) (A) (A) (A) (A) (A) (A) (A) (A) (A)
                 (A) (A) (A) (A) (A) (A) (A) (A) (A) (A) (A) (A)
                 (A) (A) (A) (A) (A) (A) (A) (A) (A) (A) (A) (A)
                 (A) (A) (A) (A) (A) (A) (A) (A) (A) (A) (A) (A)
                 (A) (A) (A) (A) (A) (A) (A) (A) (A) (A) (A) (A)
                 (A) (A) (A) (A) (A) (A) (A) (A) (A) (A) (A) (A)
                 (A) (A) (A) (A) (A) (A) (A) (A) (A) (A) (A) (A)
                 (A) (A) (A) (A) (A) (A) (A) (A) (A) (A) (A) (A)
                 (A) (A) (A) (A) (A) (A) (A) (A) (A) (A) (A) (A)
                 (A) (A) (A) (A) (A) (A) (A) (A) (A) (A) (A) (A)
                 (A) (A) (A) (A) (A) (A) (A) (A) (A) (A) (A) (A)
                 (A) (A) (A) (A) (A) (A) (A) (A) (A) (A) (A) (A)
                 (A) (A) (A) (A) (A) (A) (A) (A) (A) (A) (A) (A)
                 (A) (A) (A) (A) (A) (A) (A) (A) (A) (A) (A) (A)
                 (A) (A) (A) (A) (A) (A) (A) (A) (A) (A) (A) (A)
                 (A) (A) (A) (A) (A) (A) (A) (A) (A) (A) (A) (A)
                 (A) (A) (A) (A) (A) (A) (A) (A) (A) (A) (A) (A)
                 (A) (A) (A) (A) (A) (A) (A) (A) (A) (A) (A) (A)
                 (A)
 The electronic state is 1-A.
 Alpha  occ. eigenvalues --  -24.89512 -24.88505 -24.88477 -24.88418 -24.88348
 Alpha  occ. eigenvalues --  -24.88301 -24.88280 -24.88277 -24.88213 -24.88189
 Alpha  occ. eigenvalues --  -24.88167 -19.36855 -19.34475 -19.28453 -10.58878
 Alpha  occ. eigenvalues --  -10.58779 -10.58069 -10.53197 -10.51625 -10.47416
 Alpha  occ. eigenvalues --   -1.47944  -1.47528  -1.45908  -1.43342  -1.40482
 Alpha  occ. eigenvalues --   -1.38943  -1.38129  -1.38087  -1.38075  -1.37976
 Alpha  occ. eigenvalues --   -1.37203  -1.26949  -1.26110  -1.18434  -0.97412
 Alpha  occ. eigenvalues --   -0.93294  -0.86842  -0.82965  -0.81654  -0.78532
 Alpha  occ. eigenvalues --   -0.76978  -0.76182  -0.75258  -0.74786  -0.74328
 Alpha  occ. eigenvalues --   -0.74232  -0.73079  -0.72519  -0.71968  -0.70487
 Alpha  occ. eigenvalues --   -0.69758  -0.64448  -0.61782  -0.61688  -0.61084
 Alpha  occ. eigenvalues --   -0.60711  -0.60604  -0.60320  -0.60049  -0.59434
 Alpha  occ. eigenvalues --   -0.58963  -0.58828  -0.58289  -0.57558  -0.57111
 Alpha  occ. eigenvalues --   -0.56961  -0.56466  -0.56315  -0.55596  -0.55178
 Alpha  occ. eigenvalues --   -0.55029  -0.54301  -0.54260  -0.53773  -0.53021
 Alpha  occ. eigenvalues --   -0.50779  -0.49218  -0.47117  -0.45460  -0.41194
 Alpha virt. eigenvalues --    0.01875   0.05453   0.07440   0.08118   0.08502
 Alpha virt. eigenvalues --    0.09039   0.09314   0.10018   0.11233   0.11662
 Alpha virt. eigenvalues --    0.12038   0.12486   0.13105   0.13257   0.14150
 Alpha virt. eigenvalues --    0.14415   0.15082   0.15387   0.16190   0.16529
 Alpha virt. eigenvalues --    0.17471   0.17855   0.18946   0.19499   0.20007
 Alpha virt. eigenvalues --    0.20644   0.21079   0.21760   0.22999   0.23686
 Alpha virt. eigenvalues --    0.23950   0.24564   0.25249   0.26037   0.26389
 Alpha virt. eigenvalues --    0.26742   0.27243   0.27428   0.28811   0.28916
 Alpha virt. eigenvalues --    0.29998   0.30342   0.30817   0.31057   0.31325
 Alpha virt. eigenvalues --    0.32431   0.32576   0.33190   0.33427   0.34236
 Alpha virt. eigenvalues --    0.34960   0.35241   0.35547   0.35647   0.35987
 Alpha virt. eigenvalues --    0.36626   0.37285   0.37501   0.38466   0.38748
 Alpha virt. eigenvalues --    0.39388   0.39551   0.40315   0.40669   0.41129
 Alpha virt. eigenvalues --    0.41838   0.42049   0.42312   0.42483   0.43399
 Alpha virt. eigenvalues --    0.43811   0.44147   0.44319   0.44689   0.44910
 Alpha virt. eigenvalues --    0.45407   0.45893   0.46897   0.47615   0.47923
 Alpha virt. eigenvalues --    0.48285   0.48690   0.49296   0.49370   0.49999
 Alpha virt. eigenvalues --    0.50539   0.52188   0.52532   0.53057   0.53085
 Alpha virt. eigenvalues --    0.54278   0.54762   0.55826   0.56945   0.58280
 Alpha virt. eigenvalues --    0.59305   0.59958   0.62546   0.63842   0.64243
 Alpha virt. eigenvalues --    0.65676   0.66124   0.66878   0.67539   0.68289
 Alpha virt. eigenvalues --    0.70461   0.71053   0.71862   0.72865   0.74497
 Alpha virt. eigenvalues --    0.75455   0.75794   0.77060   0.78909   0.79595
 Alpha virt. eigenvalues --    0.80939   0.82163   0.82314   0.84368   0.85699
 Alpha virt. eigenvalues --    0.86185   0.89174   0.90202   0.91227   0.93835
 Alpha virt. eigenvalues --    0.96807   0.98972   1.00218   1.01392   1.02886
 Alpha virt. eigenvalues --    1.05072   1.07298   1.08440   1.09431   1.10901
 Alpha virt. eigenvalues --    1.11669   1.13023   1.14089   1.14249   1.15231
 Alpha virt. eigenvalues --    1.15737   1.17273   1.19366   1.19480   1.22061
 Alpha virt. eigenvalues --    1.22341   1.23332   1.26338   1.26513   1.27476
 Alpha virt. eigenvalues --    1.29333   1.30118   1.32843   1.34745   1.34964
 Alpha virt. eigenvalues --    1.36013   1.36649   1.37117   1.37848   1.39629
 Alpha virt. eigenvalues --    1.39989   1.42745   1.42924   1.43844   1.44457
 Alpha virt. eigenvalues --    1.45178   1.45331   1.45689   1.46684   1.47579
 Alpha virt. eigenvalues --    1.47820   1.48705   1.48758   1.49095   1.49980
 Alpha virt. eigenvalues --    1.50213   1.50622   1.50755   1.51252   1.52882
 Alpha virt. eigenvalues --    1.53459   1.53851   1.54608   1.55046   1.55709
 Alpha virt. eigenvalues --    1.56530   1.56943   1.57548   1.58107   1.59605
 Alpha virt. eigenvalues --    1.60284   1.62392   1.62527   1.64016   1.64616
 Alpha virt. eigenvalues --    1.66394   1.67513   1.69225   1.69562   1.72622
 Alpha virt. eigenvalues --    1.73117   1.75482   1.79055   1.81655   1.83586
 Alpha virt. eigenvalues --    1.86461   1.88961   1.90578   1.93276   1.93528
 Alpha virt. eigenvalues --    1.95897   1.98110   2.00488   2.01079   2.02533
 Alpha virt. eigenvalues --    2.03861   2.05217   2.05305   2.06622   2.07960
 Alpha virt. eigenvalues --    2.09533   2.09778   2.10536   2.11089   2.11412
 Alpha virt. eigenvalues --    2.12118   2.14006   2.15346   2.16865   2.16947
 Alpha virt. eigenvalues --    2.17605   2.18902   2.19991   2.20396   2.20882
 Alpha virt. eigenvalues --    2.21026   2.23490   2.25882   2.27858   2.29694
 Alpha virt. eigenvalues --    2.30864   2.32384   2.32425   2.35235   2.36285
 Alpha virt. eigenvalues --    2.37438   2.38452   2.40684   2.41648   2.46301
 Alpha virt. eigenvalues --    2.46474   2.47710   2.50255   2.51650   2.52248
 Alpha virt. eigenvalues --    2.53342   2.54658   2.57125   2.61042   2.62269
 Alpha virt. eigenvalues --    2.64560   2.65961   2.67431   2.69892   2.71179
 Alpha virt. eigenvalues --    2.71988   2.73442   2.73975   2.74194   2.75998
 Alpha virt. eigenvalues --    2.78218   2.78872   2.79574   2.83635   2.86027
 Alpha virt. eigenvalues --    2.87052   2.88090   2.91622   2.96812   3.00501
 Alpha virt. eigenvalues --    3.02223   3.07772   3.11523   3.14218   3.17765
 Alpha virt. eigenvalues --    3.20946   3.25002   3.27665   3.30036   3.39269
 Alpha virt. eigenvalues --    3.41667   3.43811   3.44996   3.45943   3.47794
 Alpha virt. eigenvalues --    3.48446   3.49625   3.50148   3.53425   3.54387
 Alpha virt. eigenvalues --    3.55391   3.56264   3.58515   3.59258   3.60029
 Alpha virt. eigenvalues --    3.62510   3.63757   3.64540   3.67322   3.67651
 Alpha virt. eigenvalues --    3.68890   3.71217   3.72756   3.73703   3.75913
 Alpha virt. eigenvalues --    3.77563   3.79679   3.84439   3.85525   3.89050
 Alpha virt. eigenvalues --    3.90185   3.92655   4.07164   4.13018   4.20280
 Alpha virt. eigenvalues --    4.28081   4.28707   4.30834   4.31863   4.32341
 Alpha virt. eigenvalues --    4.33045   4.35849   4.37308   4.37678   4.39095
 Alpha virt. eigenvalues --    4.44278   4.51250   5.12818   5.21002   5.30116
 Alpha virt. eigenvalues --    5.33880   5.50701   5.57503   5.92071   6.03343
 Alpha virt. eigenvalues --    6.36786   6.40263   6.42589   6.43393   6.44893
 Alpha virt. eigenvalues --    6.45636   6.46005   6.46577   6.46956   6.48179
 Alpha virt. eigenvalues --    6.48519   6.49773   6.50010   6.50191   6.51730
 Alpha virt. eigenvalues --    6.52175   6.53580   6.53696   6.54423   6.55246
 Alpha virt. eigenvalues --    6.57531   6.59231   6.61168   6.64159   6.65370
 Alpha virt. eigenvalues --    6.66333   6.72564   6.75869   6.82393   6.87325
 Alpha virt. eigenvalues --    6.88208   6.88605   6.89977   6.90934   6.94595
 Alpha virt. eigenvalues --    6.95582   6.96755   7.05832   7.11196   7.15270
 Alpha virt. eigenvalues --    7.16249   7.20377   7.24628   7.30370   7.32157
 Alpha virt. eigenvalues --    7.43702   7.48029   7.55691   7.63889   9.08300
 Alpha virt. eigenvalues --    9.08707   9.08979   9.10520   9.10869   9.11001
 Alpha virt. eigenvalues --    9.11664   9.12413   9.15216   9.16281   9.18370
 Alpha virt. eigenvalues --    9.18975   9.20694   9.20944   9.21032   9.21983
 Alpha virt. eigenvalues --    9.22738   9.23677   9.24253   9.25183   9.25622
 Alpha virt. eigenvalues --    9.26009   9.27177   9.27957   9.29274   9.29368
 Alpha virt. eigenvalues --    9.33948   9.34390   9.35242   9.36744   9.42412
 Alpha virt. eigenvalues --    9.44312   9.44471   9.45648   9.52036   9.52114
 Alpha virt. eigenvalues --    9.53964   9.64886   9.65800   9.68397   9.68770
 Alpha virt. eigenvalues --    9.69957   9.73167   9.74367   9.75480   9.76507
 Alpha virt. eigenvalues --    9.77060   9.78055   9.80377   9.81201   9.87801
 Alpha virt. eigenvalues --    9.90163   9.90270   9.90787   9.91919  23.94027
 Alpha virt. eigenvalues --   23.97765  24.02976  24.04656  24.12148  24.21836
 Alpha virt. eigenvalues --   50.08575  50.13503  50.19626  66.92724  66.93987
 Alpha virt. eigenvalues --   66.94908  66.95701  66.97206  66.97327  66.98488
 Alpha virt. eigenvalues --   67.00181  67.03028  67.03638  67.04650
          Condensed to atoms (all electrons):
               1          2          3          4          5          6
     1  C    5.252732   0.231631   0.266761   0.247550  -0.960172  -0.139982
     2  F    0.231631   9.119196  -0.006496  -0.004566  -0.161656   0.021502
     3  F    0.266761  -0.006496   9.051276   0.018391  -0.096099   0.017706
     4  F    0.247550  -0.004566   0.018391   9.065348  -0.115741  -0.000169
     5  C   -0.960172  -0.161656  -0.096099  -0.115741  10.069328   0.361341
     6  F   -0.139982   0.021502   0.017706  -0.000169   0.361341   9.063534
     7  F   -0.127415   0.023796  -0.001016   0.018013   0.300046   0.001678
     8  F   -0.010601   0.000803   0.006281  -0.007096  -0.070802   0.015815
     9  F    0.016030  -0.000024  -0.004745   0.002719  -0.108008  -0.000639
    10  C    0.303330   0.057633   0.018757   0.060794  -3.843143  -0.115326
    11  O    0.039368  -0.000836   0.001613   0.002268  -0.190129   0.043985
    12  C   -0.248832   0.003477   0.006041  -0.001163   0.720567  -0.012296
    13  C    0.005877  -0.000347   0.000523   0.001928  -0.495439   0.002155
    14  O    0.004860  -0.000008   0.000062  -0.000034   0.015218  -0.000048
    15  O    0.000513   0.000000   0.000006  -0.000018   0.002912  -0.000028
    16  H    0.000825  -0.000001  -0.000002   0.000016  -0.001798   0.000001
    17  C    0.035626   0.000011   0.000021  -0.000792   0.080662   0.006612
    18  F    0.003358  -0.000002   0.000026  -0.000174  -0.018651  -0.000829
    19  F   -0.000226  -0.000001   0.000003  -0.000001  -0.001579   0.000070
    20  F    0.000446   0.000000  -0.000000   0.000003  -0.008177  -0.000345
    21  F    0.000530  -0.000000   0.000000   0.000000   0.001427   0.000001
               7          8          9         10         11         12
     1  C   -0.127415  -0.010601   0.016030   0.303330   0.039368  -0.248832
     2  F    0.023796   0.000803  -0.000024   0.057633  -0.000836   0.003477
     3  F   -0.001016   0.006281  -0.004745   0.018757   0.001613   0.006041
     4  F    0.018013  -0.007096   0.002719   0.060794   0.002268  -0.001163
     5  C    0.300046  -0.070802  -0.108008  -3.843143  -0.190129   0.720567
     6  F    0.001678   0.015815  -0.000639  -0.115326   0.043985  -0.012296
     7  F    9.058747   0.001247   0.017585  -0.050528   0.039371  -0.029664
     8  F    0.001247   9.032006   0.037660   0.233177   0.006755   0.001013
     9  F    0.017585   0.037660   9.051646   0.320215  -0.050293  -0.093155
    10  C   -0.050528   0.233177   0.320215   9.621643   0.342159  -1.909289
    11  O    0.039371   0.006755  -0.050293   0.342159   8.327016  -0.068590
    12  C   -0.029664   0.001013  -0.093155  -1.909289  -0.068590  10.016436
    13  C    0.006885  -0.005800   0.023250   0.568703   0.030156  -1.102174
    14  O    0.000010   0.003183   0.000427   0.024327  -0.005267  -0.073034
    15  O   -0.000036  -0.000158   0.014969   0.006277   0.008053   0.019868
    16  H   -0.000005  -0.000034  -0.003022   0.003368   0.002000  -0.035795
    17  C    0.003057   0.010874   0.033682  -0.259408  -0.164191  -1.219883
    18  F    0.003410   0.001888   0.020200   0.035420  -0.058853   0.188313
    19  F    0.000052  -0.000153  -0.000140  -0.012615   0.023391   0.031308
    20  F   -0.000479  -0.000003  -0.000168   0.010766   0.029907  -0.113160
    21  F   -0.000016  -0.000132   0.000194   0.019719  -0.003746  -0.009745
              13         14         15         16         17         18
     1  C    0.005877   0.004860   0.000513   0.000825   0.035626   0.003358
     2  F   -0.000347  -0.000008   0.000000  -0.000001   0.000011  -0.000002
     3  F    0.000523   0.000062   0.000006  -0.000002   0.000021   0.000026
     4  F    0.001928  -0.000034  -0.000018   0.000016  -0.000792  -0.000174
     5  C   -0.495439   0.015218   0.002912  -0.001798   0.080662  -0.018651
     6  F    0.002155  -0.000048  -0.000028   0.000001   0.006612  -0.000829
     7  F    0.006885   0.000010  -0.000036  -0.000005   0.003057   0.003410
     8  F   -0.005800   0.003183  -0.000158  -0.000034   0.010874   0.001888
     9  F    0.023250   0.000427   0.014969  -0.003022   0.033682   0.020200
    10  C    0.568703   0.024327   0.006277   0.003368  -0.259408   0.035420
    11  O    0.030156  -0.005267   0.008053   0.002000  -0.164191  -0.058853
    12  C   -1.102174  -0.073034   0.019868  -0.035795  -1.219883   0.188313
    13  C    6.216027   0.382550   0.252800   0.040794  -0.274922  -0.069358
    14  O    0.382550   7.976068  -0.064800  -0.005180   0.020324   0.017136
    15  O    0.252800  -0.064800   7.871265   0.229997  -0.048122  -0.028512
    16  H    0.040794  -0.005180   0.229997   0.480430   0.007138   0.031390
    17  C   -0.274922   0.020324  -0.048122   0.007138   5.980109  -0.080498
    18  F   -0.069358   0.017136  -0.028512   0.031390  -0.080498   9.216394
    19  F   -0.006050  -0.005209  -0.001658  -0.000150   0.225847   0.004791
    20  F    0.044423   0.000647  -0.000440  -0.000514   0.231297   0.027741
    21  F    0.002895  -0.003797   0.008342  -0.003072   0.155445   0.031146
              19         20         21
     1  C   -0.000226   0.000446   0.000530
     2  F   -0.000001   0.000000  -0.000000
     3  F    0.000003  -0.000000   0.000000
     4  F   -0.000001   0.000003   0.000000
     5  C   -0.001579  -0.008177   0.001427
     6  F    0.000070  -0.000345   0.000001
     7  F    0.000052  -0.000479  -0.000016
     8  F   -0.000153  -0.000003  -0.000132
     9  F   -0.000140  -0.000168   0.000194
    10  C   -0.012615   0.010766   0.019719
    11  O    0.023391   0.029907  -0.003746
    12  C    0.031308  -0.113160  -0.009745
    13  C   -0.006050   0.044423   0.002895
    14  O   -0.005209   0.000647  -0.003797
    15  O   -0.001658  -0.000440   0.008342
    16  H   -0.000150  -0.000514  -0.003072
    17  C    0.225847   0.231297   0.155445
    18  F    0.004791   0.027741   0.031146
    19  F    9.000036  -0.004979   0.004648
    20  F   -0.004979   9.067075  -0.004351
    21  F    0.004648  -0.004351   9.089337
 Mulliken charges:
               1
     1  C    1.077792
     2  F   -0.284110
     3  F   -0.279108
     4  F   -0.287274
     5  C    0.519894
     6  F   -0.264734
     7  F   -0.264738
     8  F   -0.255924
     9  F   -0.278383
    10  C    0.564020
    11  O   -0.354140
    12  C   -0.070242
    13  C    0.375123
    14  O   -0.287437
    15  O   -0.271230
    16  H    0.253614
    17  C    1.257111
    18  F   -0.324337
    19  F   -0.257383
    20  F   -0.279691
    21  F   -0.288824
 Sum of Mulliken charges =  -0.00000
 Mulliken charges with hydrogens summed into heavy atoms:
               1
     1  C    1.077792
     2  F   -0.284110
     3  F   -0.279108
     4  F   -0.287274
     5  C    0.519894
     6  F   -0.264734
     7  F   -0.264738
     8  F   -0.255924
     9  F   -0.278383
    10  C    0.564020
    11  O   -0.354140
    12  C   -0.070242
    13  C    0.375123
    14  O   -0.287437
    15  O   -0.017617
    17  C    1.257111
    18  F   -0.324337
    19  F   -0.257383
    20  F   -0.279691
    21  F   -0.288824
 Electronic spatial extent (au):  <R**2>=           5015.3547
 Charge=             -0.0000 electrons
 Dipole moment (field-independent basis, Debye):
    X=             -0.0410    Y=             -0.3871    Z=             -2.4046  Tot=              2.4359
 Quadrupole moment (field-independent basis, Debye-Ang):
   XX=           -106.7534   YY=           -111.3748   ZZ=           -106.5226
   XY=             -1.9930   XZ=             -5.6924   YZ=             -5.3029
 Traceless Quadrupole moment (field-independent basis, Debye-Ang):
   XX=              1.4635   YY=             -3.1578   ZZ=              1.6943
   XY=             -1.9930   XZ=             -5.6924   YZ=             -5.3029
 Octapole moment (field-independent basis, Debye-Ang**2):
  XXX=            -16.0234  YYY=            -24.3898  ZZZ=            -14.7894  XYY=            -15.2896
  XXY=             -7.2661  XXZ=            -11.5123  XZZ=             -1.1693  YZZ=             -1.5107
  YYZ=             -8.3300  XYZ=            -11.1114
 Hexadecapole moment (field-independent basis, Debye-Ang**3):
 XXXX=          -3801.8014 YYYY=           -956.1752 ZZZZ=           -523.4614 XXXY=            -52.1893
 XXXZ=            -24.9078 YYYX=            -67.6098 YYYZ=            -12.8105 ZZZX=            -31.1710
 ZZZY=            -25.9362 XXYY=           -810.5996 XXZZ=           -713.9076 YYZZ=           -239.7437
 XXYZ=            -24.8371 YYXZ=            -16.7965 ZZXY=             -2.0894
 N-N= 2.039062127156D+03 E-N=-7.762229708960D+03  KE= 1.549206723480D+03
 1\1\GINC-CCLEARTI\FOpt\RwB97XD\6-311+G(2d,2p)\C6H1F11O3\RAPPE\05-Jul-2
 022\0\\# opt wb97xd/6-311+g(2d,2p) geom=connectivity freq\\Title Card 
 Required\\0,1\C,3.246063418,0.0515250025,0.0463045443\F,4.1380475982,-
 0.8390584683,0.4594663885\F,3.5564538943,0.4286660579,-1.1852209644\F,
 3.2926859201,1.1080023273,0.8485563977\C,1.837141437,-0.6022725327,0.0
 841829431\F,1.8463608996,-1.6493666251,-0.7475285595\F,1.6153448663,-1
 .030004037,1.3332531258\F,0.8650091742,0.8208024605,-1.5329371593\F,0.
 5810145537,1.3539412098,0.5444555677\C,0.6589355861,0.329404911,-0.316
 8641149\O,-0.4828833089,-0.4339163455,-0.2987474919\C,-1.642638563,0.0
 264800729,0.2735536543\C,-2.0379707792,1.4816592277,-0.1193609006\O,-1
 .9989458827,1.8323530075,-1.2530398111\O,-2.4402571309,2.247248329,0.8
 846000313\H,-2.3585258404,1.782008769,1.7239539618\C,-2.7457790123,-0.
 9721074467,-0.1641220703\F,-1.5668908482,-0.0667785534,1.6414728471\F,
 -2.8544921763,-1.0179396797,-1.4786238423\F,-2.4680318809,-2.184676262
 7,0.2926681036\F,-3.9093249246,-0.5766464239,0.3551983489\\Version=EM6
 4M-G16RevA.03\State=1-A\HF=-1553.2553033\RMSD=6.778e-09\RMSF=2.123e-05
 \Dipole=0.0161772,-0.1533224,0.9458799\Quadrupole=1.0878047,-2.3567105
 ,1.2689058,1.4862352,-4.2300758,3.9390236\PG=C01 [X(C6H1F11O3)]\\@


 It is also a good rule not to put too much confidence in
 experimental results until they have been confirmed by
 Theory.
                             -- Sir Arthur Eddington
 Job cpu time:       0 days  9 hours 41 minutes 12.7 seconds.
 Elapsed time:       0 days  0 hours 24 minutes 27.4 seconds.
 File lengths (MBytes):  RWF=    182 Int=      0 D2E=      0 Chk=     22 Scr=      1
 Normal termination of Gaussian 16 at Tue Jul  5 15:25:22 2022.
 Link1:  Proceeding to internal job step number  2.
 ----------------------------------------------------------------------
 #N Geom=AllCheck Guess=TCheck SCRF=Check GenChk RwB97XD/6-311+G(2d,2p)
  Freq
 ----------------------------------------------------------------------
 1/10=4,29=7,30=1,38=1,40=1/1,3;
 2/12=2,40=1/2;
 3/5=4,6=6,7=212,11=2,14=-4,25=1,30=1,70=2,71=2,74=-58,116=1,140=1/1,2,3;
 4/5=101/1;
 5/5=2,38=6,98=1/2;
 8/6=4,10=90,11=11/1;
 11/6=1,8=1,9=11,15=111,16=1/1,2,10;
 10/6=1/2;
 6/7=2,8=2,9=2,10=2,28=1/1;
 7/8=1,10=1,25=1/1,2,3,16;
 1/10=4,30=1/3;
 99//99;
 Structure from the checkpoint file:  "frd_903.chk"
 -------------------
 Title Card Required
 -------------------
 Charge =  0 Multiplicity = 1
 Redundant internal coordinates found in file.  (old form).
 C,0,3.246063418,0.0515250025,0.0463045443
 F,0,4.1380475982,-0.8390584683,0.4594663885
 F,0,3.5564538943,0.4286660579,-1.1852209644
 F,0,3.2926859201,1.1080023273,0.8485563977
 C,0,1.837141437,-0.6022725327,0.0841829431
 F,0,1.8463608996,-1.6493666251,-0.7475285595
 F,0,1.6153448663,-1.030004037,1.3332531258
 F,0,0.8650091742,0.8208024605,-1.5329371593
 F,0,0.5810145537,1.3539412098,0.5444555677
 C,0,0.6589355861,0.329404911,-0.3168641149
 O,0,-0.4828833089,-0.4339163455,-0.2987474919
 C,0,-1.642638563,0.0264800729,0.2735536543
 C,0,-2.0379707792,1.4816592277,-0.1193609006
 O,0,-1.9989458827,1.8323530075,-1.2530398111
 O,0,-2.4402571309,2.247248329,0.8846000313
 H,0,-2.3585258404,1.782008769,1.7239539618
 C,0,-2.7457790123,-0.9721074467,-0.1641220703
 F,0,-1.5668908482,-0.0667785534,1.6414728471
 F,0,-2.8544921763,-1.0179396797,-1.4786238423
 F,0,-2.4680318809,-2.1846762627,0.2926681036
 F,0,-3.9093249246,-0.5766464239,0.3551983489
 Recover connectivity data from disk.

 GradGradGradGradGradGradGradGradGradGradGradGradGradGradGradGradGradGrad
 Berny optimization.
 Initialization pass.
                           ----------------------------
                           !    Initial Parameters    !
                           ! (Angstroms and Degrees)  !
 --------------------------                            --------------------------
 ! Name  Definition              Value          Derivative Info.                !
 --------------------------------------------------------------------------------
 ! R1    R(1,2)                  1.3265         calculate D2E/DX2 analytically  !
 ! R2    R(1,3)                  1.3249         calculate D2E/DX2 analytically  !
 ! R3    R(1,4)                  1.3274         calculate D2E/DX2 analytically  !
 ! R4    R(1,5)                  1.5537         calculate D2E/DX2 analytically  !
 ! R5    R(5,6)                  1.3372         calculate D2E/DX2 analytically  !
 ! R6    R(5,7)                  1.3388         calculate D2E/DX2 analytically  !
 ! R7    R(5,10)                 1.5547         calculate D2E/DX2 analytically  !
 ! R8    R(8,10)                 1.3277         calculate D2E/DX2 analytically  !
 ! R9    R(9,10)                 1.3408         calculate D2E/DX2 analytically  !
 ! R10   R(10,11)                1.3736         calculate D2E/DX2 analytically  !
 ! R11   R(11,12)                1.3728         calculate D2E/DX2 analytically  !
 ! R12   R(12,13)                1.5583         calculate D2E/DX2 analytically  !
 ! R13   R(12,17)                1.551          calculate D2E/DX2 analytically  !
 ! R14   R(12,18)                1.3732         calculate D2E/DX2 analytically  !
 ! R15   R(13,14)                1.1873         calculate D2E/DX2 analytically  !
 ! R16   R(13,15)                1.3251         calculate D2E/DX2 analytically  !
 ! R17   R(15,16)                0.9631         calculate D2E/DX2 analytically  !
 ! R18   R(17,19)                1.3198         calculate D2E/DX2 analytically  !
 ! R19   R(17,20)                1.3252         calculate D2E/DX2 analytically  !
 ! R20   R(17,21)                1.3341         calculate D2E/DX2 analytically  !
 ! A1    A(2,1,3)              108.8516         calculate D2E/DX2 analytically  !
 ! A2    A(2,1,4)              108.8145         calculate D2E/DX2 analytically  !
 ! A3    A(2,1,5)              108.6435         calculate D2E/DX2 analytically  !
 ! A4    A(3,1,4)              109.0877         calculate D2E/DX2 analytically  !
 ! A5    A(3,1,5)              110.7876         calculate D2E/DX2 analytically  !
 ! A6    A(4,1,5)              110.6121         calculate D2E/DX2 analytically  !
 ! A7    A(1,5,6)              107.9437         calculate D2E/DX2 analytically  !
 ! A8    A(1,5,7)              107.9041         calculate D2E/DX2 analytically  !
 ! A9    A(1,5,10)             115.3893         calculate D2E/DX2 analytically  !
 ! A10   A(6,5,7)              109.3449         calculate D2E/DX2 analytically  !
 ! A11   A(6,5,10)             108.3021         calculate D2E/DX2 analytically  !
 ! A12   A(7,5,10)             107.8537         calculate D2E/DX2 analytically  !
 ! A13   A(5,10,8)             109.9041         calculate D2E/DX2 analytically  !
 ! A14   A(5,10,9)             109.6492         calculate D2E/DX2 analytically  !
 ! A15   A(5,10,11)            107.0704         calculate D2E/DX2 analytically  !
 ! A16   A(8,10,9)             108.3369         calculate D2E/DX2 analytically  !
 ! A17   A(8,10,11)            110.2905         calculate D2E/DX2 analytically  !
 ! A18   A(9,10,11)            111.584          calculate D2E/DX2 analytically  !
 ! A19   A(10,11,12)           121.4262         calculate D2E/DX2 analytically  !
 ! A20   A(11,12,13)           114.9862         calculate D2E/DX2 analytically  !
 ! A21   A(11,12,17)           105.5039         calculate D2E/DX2 analytically  !
 ! A22   A(11,12,18)           110.2376         calculate D2E/DX2 analytically  !
 ! A23   A(13,12,17)           110.4653         calculate D2E/DX2 analytically  !
 ! A24   A(13,12,18)           109.1836         calculate D2E/DX2 analytically  !
 ! A25   A(17,12,18)           106.0581         calculate D2E/DX2 analytically  !
 ! A26   A(12,13,14)           120.5467         calculate D2E/DX2 analytically  !
 ! A27   A(12,13,15)           115.1833         calculate D2E/DX2 analytically  !
 ! A28   A(14,13,15)           124.2458         calculate D2E/DX2 analytically  !
 ! A29   A(13,15,16)           110.8195         calculate D2E/DX2 analytically  !
 ! A30   A(12,17,19)           111.2231         calculate D2E/DX2 analytically  !
 ! A31   A(12,17,20)           110.046          calculate D2E/DX2 analytically  !
 ! A32   A(12,17,21)           108.6393         calculate D2E/DX2 analytically  !
 ! A33   A(19,17,20)           109.1964         calculate D2E/DX2 analytically  !
 ! A34   A(19,17,21)           109.0354         calculate D2E/DX2 analytically  !
 ! A35   A(20,17,21)           108.6534         calculate D2E/DX2 analytically  !
 ! D1    D(2,1,5,6)            -61.1384         calculate D2E/DX2 analytically  !
 ! D2    D(2,1,5,7)             56.9303         calculate D2E/DX2 analytically  !
 ! D3    D(2,1,5,10)           177.592          calculate D2E/DX2 analytically  !
 ! D4    D(3,1,5,6)             58.3885         calculate D2E/DX2 analytically  !
 ! D5    D(3,1,5,7)            176.4573         calculate D2E/DX2 analytically  !
 ! D6    D(3,1,5,10)           -62.8811         calculate D2E/DX2 analytically  !
 ! D7    D(4,1,5,6)            179.4855         calculate D2E/DX2 analytically  !
 ! D8    D(4,1,5,7)            -62.4457         calculate D2E/DX2 analytically  !
 ! D9    D(4,1,5,10)            58.2159         calculate D2E/DX2 analytically  !
 ! D10   D(1,5,10,8)            56.8266         calculate D2E/DX2 analytically  !
 ! D11   D(1,5,10,9)           -62.157          calculate D2E/DX2 analytically  !
 ! D12   D(1,5,10,11)          176.6278         calculate D2E/DX2 analytically  !
 ! D13   D(6,5,10,8)           -64.2491         calculate D2E/DX2 analytically  !
 ! D14   D(6,5,10,9)           176.7672         calculate D2E/DX2 analytically  !
 ! D15   D(6,5,10,11)           55.5521         calculate D2E/DX2 analytically  !
 ! D16   D(7,5,10,8)           177.5156         calculate D2E/DX2 analytically  !
 ! D17   D(7,5,10,9)            58.532          calculate D2E/DX2 analytically  !
 ! D18   D(7,5,10,11)          -62.6831         calculate D2E/DX2 analytically  !
 ! D19   D(5,10,11,12)         135.3815         calculate D2E/DX2 analytically  !
 ! D20   D(8,10,11,12)        -105.0654         calculate D2E/DX2 analytically  !
 ! D21   D(9,10,11,12)          15.3972         calculate D2E/DX2 analytically  !
 ! D22   D(10,11,12,13)         46.5803         calculate D2E/DX2 analytically  !
 ! D23   D(10,11,12,17)        168.5573         calculate D2E/DX2 analytically  !
 ! D24   D(10,11,12,18)        -77.35           calculate D2E/DX2 analytically  !
 ! D25   D(11,12,13,14)         46.083          calculate D2E/DX2 analytically  !
 ! D26   D(11,12,13,15)       -135.6313         calculate D2E/DX2 analytically  !
 ! D27   D(17,12,13,14)        -73.1712         calculate D2E/DX2 analytically  !
 ! D28   D(17,12,13,15)        105.1146         calculate D2E/DX2 analytically  !
 ! D29   D(18,12,13,14)        170.5688         calculate D2E/DX2 analytically  !
 ! D30   D(18,12,13,15)        -11.1454         calculate D2E/DX2 analytically  !
 ! D31   D(11,12,17,19)        -59.6373         calculate D2E/DX2 analytically  !
 ! D32   D(11,12,17,20)         61.5055         calculate D2E/DX2 analytically  !
 ! D33   D(11,12,17,21)       -179.6529         calculate D2E/DX2 analytically  !
 ! D34   D(13,12,17,19)         65.2108         calculate D2E/DX2 analytically  !
 ! D35   D(13,12,17,20)       -173.6463         calculate D2E/DX2 analytically  !
 ! D36   D(13,12,17,21)        -54.8048         calculate D2E/DX2 analytically  !
 ! D37   D(18,12,17,19)       -176.5993         calculate D2E/DX2 analytically  !
 ! D38   D(18,12,17,20)        -55.4564         calculate D2E/DX2 analytically  !
 ! D39   D(18,12,17,21)         63.3851         calculate D2E/DX2 analytically  !
 ! D40   D(12,13,15,16)          4.197          calculate D2E/DX2 analytically  !
 ! D41   D(14,13,15,16)       -177.5889         calculate D2E/DX2 analytically  !
 --------------------------------------------------------------------------------
 Trust Radius=3.00D-01 FncErr=1.00D-07 GrdErr=1.00D-07 EigMax=2.50D+02 EigMin=1.00D-04
 Number of steps in this run=      2 maximum allowed number of steps=      2.
 GradGradGradGradGradGradGradGradGradGradGradGradGradGradGradGradGradGrad

                          Input orientation:                          
 ---------------------------------------------------------------------
 Center     Atomic      Atomic             Coordinates (Angstroms)
 Number     Number       Type             X           Y           Z
 ---------------------------------------------------------------------
      1          6           0        3.246063    0.051525    0.046305
      2          9           0        4.138048   -0.839058    0.459466
      3          9           0        3.556454    0.428666   -1.185221
      4          9           0        3.292686    1.108002    0.848556
      5          6           0        1.837141   -0.602273    0.084183
      6          9           0        1.846361   -1.649367   -0.747529
      7          9           0        1.615345   -1.030004    1.333253
      8          9           0        0.865009    0.820802   -1.532937
      9          9           0        0.581015    1.353941    0.544456
     10          6           0        0.658936    0.329405   -0.316864
     11          8           0       -0.482883   -0.433916   -0.298747
     12          6           0       -1.642639    0.026480    0.273554
     13          6           0       -2.037971    1.481659   -0.119361
     14          8           0       -1.998946    1.832353   -1.253040
     15          8           0       -2.440257    2.247248    0.884600
     16          1           0       -2.358526    1.782009    1.723954
     17          6           0       -2.745779   -0.972107   -0.164122
     18          9           0       -1.566891   -0.066779    1.641473
     19          9           0       -2.854492   -1.017940   -1.478624
     20          9           0       -2.468032   -2.184676    0.292668
     21          9           0       -3.909325   -0.576646    0.355198
 ---------------------------------------------------------------------
                    Distance matrix (angstroms):
                    1          2          3          4          5
     1  C    0.000000
     2  F    1.326453   0.000000
     3  F    1.324852   2.156472   0.000000
     4  F    1.327376   2.158025   2.160398   0.000000
     5  C    1.553688   2.343304   2.372816   2.372323   0.000000
     6  F    2.341446   2.713902   2.726575   3.498918   1.337249
     7  F    2.342047   2.676564   3.498333   2.760340   1.338777
     8  F    2.958921   4.175834   2.741998   3.412859   2.363316
     9  F    3.007811   4.179588   3.563868   2.739731   2.369911
    10  C    2.627230   3.751295   3.026468   2.983464   1.554680
    11  O    3.776209   4.700216   4.224468   4.236596   2.357434
    12  C    4.894045   5.848081   5.414826   5.085051   3.541195
    13  C    5.476655   6.622988   5.791584   5.430689   4.404622
    14  O    5.689443   6.908821   5.730393   5.739578   4.736152
    15  O    6.152900   7.278744   6.599390   5.845153   5.201594
    16  H    6.100861   7.118595   6.729177   5.758194   5.096790
    17  C    6.082292   6.913294   6.536279   6.466485   4.604519
    18  F    5.071793   5.877064   5.872336   5.062046   3.781447
    19  F    6.378553   7.258361   6.578676   6.908198   4.962517
    20  F    6.141024   6.743797   6.731132   6.658574   4.591512
    21  F    7.189548   8.052325   7.689044   7.412854   5.752911
                    6          7          8          9         10
     6  F    0.000000
     7  F    2.183262   0.000000
     8  F    2.771580   3.493356   0.000000
     9  F    3.505736   2.715739   2.163435   0.000000
    10  C    2.347549   2.342135   1.327694   1.340753   0.000000
    11  O    2.665352   2.724208   2.216835   2.244840   1.373586
    12  C    4.003022   3.585189   3.191027   2.603877   2.395329
    13  C    5.028514   4.665325   3.295789   2.704819   2.939388
    14  O    5.211938   5.286312   3.050216   3.180576   3.193683
    15  O    6.018517   5.233506   4.336360   3.168877   3.837530
    16  H    5.963525   4.883821   4.682140   3.196147   3.921743
    17  C    4.678332   4.611387   4.257461   4.120697   3.648198
    18  F    4.456703   3.339076   4.096195   2.799177   2.991045
    19  F    4.799085   5.280742   4.149532   4.639114   3.938172
    20  F    4.470185   4.369216   4.845090   4.677809   4.058332
    21  F    5.957739   5.628863   5.320920   4.891435   4.705486
                   11         12         13         14         15
    11  O    0.000000
    12  C    1.372780   0.000000
    13  C    2.473844   1.558273   0.000000
    14  O    2.888788   2.391364   1.187323   0.000000
    15  O    3.524240   2.437496   1.325103   2.221801   0.000000
    16  H    3.538316   2.387056   1.894934   2.999054   0.963142
    17  C    2.329908   1.551018   2.554206   3.099758   3.399620
    18  F    2.252625   1.373185   2.391675   3.488779   2.586570
    19  F    2.712512   2.372663   2.960118   2.984462   4.051897
    20  F    2.712148   2.360265   3.714396   4.329640   4.471366
    21  F    3.491206   2.346976   2.822020   3.469763   3.226888
                   16         17         18         19         20
    16  H    0.000000
    17  C    3.361540   0.000000
    18  F    2.012835   2.338711   0.000000
    19  F    4.282779   1.319786   3.506797   0.000000
    20  F    4.218431   1.325188   2.667737   2.155945   0.000000
    21  F    3.137152   1.334137   2.720563   2.161091   2.160323
                   21
    21  F    0.000000
 Stoichiometry    C6HF11O3
 Framework group  C1[X(C6HF11O3)]
 Deg. of freedom    57
 Full point group                 C1      NOp   1
 Largest Abelian subgroup         C1      NOp   1
 Largest concise Abelian subgroup C1      NOp   1
                         Standard orientation:                         
 ---------------------------------------------------------------------
 Center     Atomic      Atomic             Coordinates (Angstroms)
 Number     Number       Type             X           Y           Z
 ---------------------------------------------------------------------
      1          6           0       -3.245898    0.052239   -0.046582
      2          9           0       -4.137961   -0.837784   -0.460780
      3          9           0       -3.556334    0.428078    1.185330
      4          9           0       -3.292330    1.109594   -0.847687
      5          6           0       -1.837054   -0.601691   -0.085067
      6          9           0       -1.846465   -1.649689    0.745504
      7          9           0       -1.615217   -1.028091   -1.334585
      8          9           0       -0.864867    0.819503    1.533674
      9          9           0       -0.580651    1.354867   -0.543116
     10          6           0       -0.658763    0.329403    0.317083
     11          8           0        0.482963   -0.434039    0.298221
     12          6           0        1.642818    0.026837   -0.273492
     13          6           0        2.038301    1.481538    0.121035
     14          8           0        1.999234    1.831003    1.255092
     15          8           0        2.440757    2.248170   -0.882062
     16          1           0        2.359031    1.783854   -1.721927
     17          6           0        2.745802   -0.972363    0.163179
     18          9           0        1.567161   -0.064924   -1.641518
     19          9           0        2.854411   -1.019639    1.477638
     20          9           0        2.467939   -2.184400   -0.294951
     21          9           0        3.909436   -0.576481   -0.355624
 ---------------------------------------------------------------------
 Rotational constants (GHZ):           0.6821830           0.2189815           0.2031508
 Standard basis: 6-311+G(2d,2p) (5D, 7F)
 There are   589 symmetry adapted cartesian basis functions of A   symmetry.
 There are   549 symmetry adapted basis functions of A   symmetry.
   549 basis functions,   851 primitive gaussians,   589 cartesian basis functions
    80 alpha electrons       80 beta electrons
       nuclear repulsion energy      2039.0763764636 Hartrees.
 NAtoms=   21 NActive=   21 NUniq=   21 SFac= 1.00D+00 NAtFMM=   60 NAOKFM=F Big=F
 Integral buffers will be    131072 words long.
 Raffenetti 2 integral format.
 Two-electron integral symmetry is turned on.
 Nuclear repulsion after empirical dispersion term =     2039.0621271558 Hartrees.
 One-electron integrals computed using PRISM.
 NBasis=   549 RedAO= T EigKep=  8.35D-06  NBF=   549
 NBsUse=   549 1.00D-06 EigRej= -1.00D+00 NBFU=   549
 Initial guess from the checkpoint file:  "frd_903.chk"
 B after Tr=    -0.000000    0.000000   -0.000000
         Rot=    1.000000    0.000000   -0.000000    0.000000 Ang=   0.00 deg.
 Requested convergence on RMS density matrix=1.00D-08 within 128 cycles.
 Requested convergence on MAX density matrix=1.00D-06.
 Requested convergence on             energy=1.00D-06.
 No special actions if energy rises.
 SCF Done:  E(RwB97XD) =  -1553.25530327     A.U. after    1 cycles
            NFock=  1  Conv=0.27D-08     -V/T= 2.0026
 DoSCS=F DFT=T ScalE2(SS,OS)=  1.000000  1.000000
 Range of M.O.s used for correlation:     1   549
 NBasis=   549 NAE=    80 NBE=    80 NFC=     0 NFV=     0
 NROrb=    549 NOA=    80 NOB=    80 NVA=   469 NVB=   469

 **** Warning!!: The largest alpha MO coefficient is  0.61131193D+02

 Symmetrizing basis deriv contribution to polar:
 IMax=3 JMax=2 DiffMx= 0.00D+00
 G2DrvN: will do    22 centers at a time, making    1 passes.
 Calling FoFCou, ICntrl=  3107 FMM=F I1Cent=   0 AccDes= 0.00D+00.
 End of G2Drv F.D. properties file   721 does not exist.
 End of G2Drv F.D. properties file   722 does not exist.
 End of G2Drv F.D. properties file   788 does not exist.
          IDoAtm=111111111111111111111
          Differentiating once with respect to electric field.
                with respect to dipole field.
          Differentiating once with respect to nuclear coordinates.
 CalDSu exits because no D1Ps are significant.
          There are    66 degrees of freedom in the 1st order CPHF.  IDoFFX=6 NUNeed=     3.
     63 vectors produced by pass  0 Test12= 5.68D-14 1.52D-09 XBig12= 3.27D+01 2.21D+00.
 AX will form    63 AO Fock derivatives at one time.
     63 vectors produced by pass  1 Test12= 5.68D-14 1.52D-09 XBig12= 7.11D+00 3.83D-01.
     63 vectors produced by pass  2 Test12= 5.68D-14 1.52D-09 XBig12= 2.24D-01 5.96D-02.
     63 vectors produced by pass  3 Test12= 5.68D-14 1.52D-09 XBig12= 5.86D-03 8.59D-03.
     63 vectors produced by pass  4 Test12= 5.68D-14 1.52D-09 XBig12= 6.55D-05 7.34D-04.
     63 vectors produced by pass  5 Test12= 5.68D-14 1.52D-09 XBig12= 5.49D-07 6.63D-05.
     63 vectors produced by pass  6 Test12= 5.68D-14 1.52D-09 XBig12= 4.18D-09 5.79D-06.
     39 vectors produced by pass  7 Test12= 5.68D-14 1.52D-09 XBig12= 2.70D-11 3.43D-07.
      6 vectors produced by pass  8 Test12= 5.68D-14 1.52D-09 XBig12= 1.67D-13 2.83D-08.
      3 vectors produced by pass  9 Test12= 5.68D-14 1.52D-09 XBig12= 1.21D-15 3.40D-09.
 InvSVY:  IOpt=1 It=  1 EMax= 6.22D-15
 Solved reduced A of dimension   489 with    66 vectors.
 Isotropic polarizability for W=    0.000000       88.24 Bohr**3.
 End of Minotr F.D. properties file   721 does not exist.
 End of Minotr F.D. properties file   722 does not exist.
 End of Minotr F.D. properties file   788 does not exist.

 **********************************************************************

            Population analysis using the SCF density.

 **********************************************************************

 Orbital symmetries:
       Occupied  (A) (A) (A) (A) (A) (A) (A) (A) (A) (A) (A) (A)
                 (A) (A) (A) (A) (A) (A) (A) (A) (A) (A) (A) (A)
                 (A) (A) (A) (A) (A) (A) (A) (A) (A) (A) (A) (A)
                 (A) (A) (A) (A) (A) (A) (A) (A) (A) (A) (A) (A)
                 (A) (A) (A) (A) (A) (A) (A) (A) (A) (A) (A) (A)
                 (A) (A) (A) (A) (A) (A) (A) (A) (A) (A) (A) (A)
                 (A) (A) (A) (A) (A) (A) (A) (A)
       Virtual   (A) (A) (A) (A) (A) (A) (A) (A) (A) (A) (A) (A)
                 (A) (A) (A) (A) (A) (A) (A) (A) (A) (A) (A) (A)
                 (A) (A) (A) (A) (A) (A) (A) (A) (A) (A) (A) (A)
                 (A) (A) (A) (A) (A) (A) (A) (A) (A) (A) (A) (A)
                 (A) (A) (A) (A) (A) (A) (A) (A) (A) (A) (A) (A)
                 (A) (A) (A) (A) (A) (A) (A) (A) (A) (A) (A) (A)
                 (A) (A) (A) (A) (A) (A) (A) (A) (A) (A) (A) (A)
                 (A) (A) (A) (A) (A) (A) (A) (A) (A) (A) (A) (A)
                 (A) (A) (A) (A) (A) (A) (A) (A) (A) (A) (A) (A)
                 (A) (A) (A) (A) (A) (A) (A) (A) (A) (A) (A) (A)
                 (A) (A) (A) (A) (A) (A) (A) (A) (A) (A) (A) (A)
                 (A) (A) (A) (A) (A) (A) (A) (A) (A) (A) (A) (A)
                 (A) (A) (A) (A) (A) (A) (A) (A) (A) (A) (A) (A)
                 (A) (A) (A) (A) (A) (A) (A) (A) (A) (A) (A) (A)
                 (A) (A) (A) (A) (A) (A) (A) (A) (A) (A) (A) (A)
                 (A) (A) (A) (A) (A) (A) (A) (A) (A) (A) (A) (A)
                 (A) (A) (A) (A) (A) (A) (A) (A) (A) (A) (A) (A)
                 (A) (A) (A) (A) (A) (A) (A) (A) (A) (A) (A) (A)
                 (A) (A) (A) (A) (A) (A) (A) (A) (A) (A) (A) (A)
                 (A) (A) (A) (A) (A) (A) (A) (A) (A) (A) (A) (A)
                 (A) (A) (A) (A) (A) (A) (A) (A) (A) (A) (A) (A)
                 (A) (A) (A) (A) (A) (A) (A) (A) (A) (A) (A) (A)
                 (A) (A) (A) (A) (A) (A) (A) (A) (A) (A) (A) (A)
                 (A) (A) (A) (A) (A) (A) (A) (A) (A) (A) (A) (A)
                 (A) (A) (A) (A) (A) (A) (A) (A) (A) (A) (A) (A)
                 (A) (A) (A) (A) (A) (A) (A) (A) (A) (A) (A) (A)
                 (A) (A) (A) (A) (A) (A) (A) (A) (A) (A) (A) (A)
                 (A) (A) (A) (A) (A) (A) (A) (A) (A) (A) (A) (A)
                 (A) (A) (A) (A) (A) (A) (A) (A) (A) (A) (A) (A)
                 (A) (A) (A) (A) (A) (A) (A) (A) (A) (A) (A) (A)
                 (A) (A) (A) (A) (A) (A) (A) (A) (A) (A) (A) (A)
                 (A) (A) (A) (A) (A) (A) (A) (A) (A) (A) (A) (A)
                 (A) (A) (A) (A) (A) (A) (A) (A) (A) (A) (A) (A)
                 (A) (A) (A) (A) (A) (A) (A) (A) (A) (A) (A) (A)
                 (A) (A) (A) (A) (A) (A) (A) (A) (A) (A) (A) (A)
                 (A) (A) (A) (A) (A) (A) (A) (A) (A) (A) (A) (A)
                 (A) (A) (A) (A) (A) (A) (A) (A) (A) (A) (A) (A)
                 (A) (A) (A) (A) (A) (A) (A) (A) (A) (A) (A) (A)
                 (A) (A) (A) (A) (A) (A) (A) (A) (A) (A) (A) (A)
                 (A)
 The electronic state is 1-A.
 Alpha  occ. eigenvalues --  -24.89512 -24.88505 -24.88477 -24.88418 -24.88348
 Alpha  occ. eigenvalues --  -24.88301 -24.88280 -24.88277 -24.88213 -24.88189
 Alpha  occ. eigenvalues --  -24.88167 -19.36855 -19.34475 -19.28453 -10.58878
 Alpha  occ. eigenvalues --  -10.58779 -10.58069 -10.53197 -10.51625 -10.47416
 Alpha  occ. eigenvalues --   -1.47944  -1.47528  -1.45908  -1.43342  -1.40482
 Alpha  occ. eigenvalues --   -1.38943  -1.38129  -1.38087  -1.38075  -1.37976
 Alpha  occ. eigenvalues --   -1.37203  -1.26949  -1.26110  -1.18434  -0.97412
 Alpha  occ. eigenvalues --   -0.93294  -0.86842  -0.82965  -0.81654  -0.78532
 Alpha  occ. eigenvalues --   -0.76978  -0.76182  -0.75258  -0.74786  -0.74328
 Alpha  occ. eigenvalues --   -0.74232  -0.73079  -0.72519  -0.71968  -0.70487
 Alpha  occ. eigenvalues --   -0.69758  -0.64448  -0.61782  -0.61688  -0.61084
 Alpha  occ. eigenvalues --   -0.60711  -0.60604  -0.60320  -0.60049  -0.59434
 Alpha  occ. eigenvalues --   -0.58963  -0.58828  -0.58289  -0.57558  -0.57111
 Alpha  occ. eigenvalues --   -0.56961  -0.56466  -0.56315  -0.55596  -0.55178
 Alpha  occ. eigenvalues --   -0.55029  -0.54301  -0.54260  -0.53773  -0.53021
 Alpha  occ. eigenvalues --   -0.50779  -0.49218  -0.47117  -0.45460  -0.41194
 Alpha virt. eigenvalues --    0.01875   0.05453   0.07440   0.08118   0.08502
 Alpha virt. eigenvalues --    0.09039   0.09314   0.10018   0.11233   0.11662
 Alpha virt. eigenvalues --    0.12038   0.12486   0.13105   0.13257   0.14150
 Alpha virt. eigenvalues --    0.14415   0.15082   0.15387   0.16190   0.16529
 Alpha virt. eigenvalues --    0.17471   0.17855   0.18946   0.19500   0.20007
 Alpha virt. eigenvalues --    0.20644   0.21079   0.21760   0.22999   0.23686
 Alpha virt. eigenvalues --    0.23950   0.24564   0.25249   0.26037   0.26389
 Alpha virt. eigenvalues --    0.26742   0.27243   0.27428   0.28811   0.28916
 Alpha virt. eigenvalues --    0.29998   0.30342   0.30817   0.31057   0.31325
 Alpha virt. eigenvalues --    0.32431   0.32576   0.33190   0.33427   0.34236
 Alpha virt. eigenvalues --    0.34960   0.35241   0.35547   0.35647   0.35987
 Alpha virt. eigenvalues --    0.36626   0.37285   0.37501   0.38466   0.38748
 Alpha virt. eigenvalues --    0.39388   0.39551   0.40315   0.40669   0.41129
 Alpha virt. eigenvalues --    0.41838   0.42049   0.42312   0.42483   0.43399
 Alpha virt. eigenvalues --    0.43811   0.44147   0.44319   0.44689   0.44910
 Alpha virt. eigenvalues --    0.45407   0.45893   0.46897   0.47615   0.47923
 Alpha virt. eigenvalues --    0.48285   0.48690   0.49296   0.49370   0.49999
 Alpha virt. eigenvalues --    0.50539   0.52188   0.52532   0.53057   0.53085
 Alpha virt. eigenvalues --    0.54278   0.54762   0.55826   0.56945   0.58280
 Alpha virt. eigenvalues --    0.59305   0.59958   0.62546   0.63842   0.64243
 Alpha virt. eigenvalues --    0.65676   0.66124   0.66878   0.67539   0.68289
 Alpha virt. eigenvalues --    0.70461   0.71053   0.71862   0.72865   0.74497
 Alpha virt. eigenvalues --    0.75455   0.75794   0.77060   0.78909   0.79595
 Alpha virt. eigenvalues --    0.80939   0.82163   0.82314   0.84368   0.85699
 Alpha virt. eigenvalues --    0.86185   0.89174   0.90202   0.91227   0.93835
 Alpha virt. eigenvalues --    0.96807   0.98972   1.00218   1.01392   1.02886
 Alpha virt. eigenvalues --    1.05072   1.07298   1.08440   1.09431   1.10901
 Alpha virt. eigenvalues --    1.11669   1.13023   1.14089   1.14249   1.15231
 Alpha virt. eigenvalues --    1.15737   1.17273   1.19366   1.19480   1.22061
 Alpha virt. eigenvalues --    1.22341   1.23332   1.26338   1.26513   1.27476
 Alpha virt. eigenvalues --    1.29333   1.30118   1.32843   1.34745   1.34964
 Alpha virt. eigenvalues --    1.36013   1.36649   1.37117   1.37848   1.39629
 Alpha virt. eigenvalues --    1.39989   1.42745   1.42924   1.43844   1.44457
 Alpha virt. eigenvalues --    1.45178   1.45331   1.45689   1.46684   1.47579
 Alpha virt. eigenvalues --    1.47820   1.48705   1.48758   1.49095   1.49980
 Alpha virt. eigenvalues --    1.50213   1.50622   1.50755   1.51252   1.52882
 Alpha virt. eigenvalues --    1.53459   1.53851   1.54608   1.55046   1.55709
 Alpha virt. eigenvalues --    1.56530   1.56943   1.57548   1.58107   1.59605
 Alpha virt. eigenvalues --    1.60284   1.62392   1.62527   1.64016   1.64616
 Alpha virt. eigenvalues --    1.66394   1.67513   1.69225   1.69562   1.72622
 Alpha virt. eigenvalues --    1.73117   1.75482   1.79055   1.81655   1.83586
 Alpha virt. eigenvalues --    1.86461   1.88961   1.90578   1.93276   1.93528
 Alpha virt. eigenvalues --    1.95897   1.98110   2.00488   2.01079   2.02533
 Alpha virt. eigenvalues --    2.03861   2.05217   2.05305   2.06622   2.07960
 Alpha virt. eigenvalues --    2.09533   2.09778   2.10536   2.11089   2.11412
 Alpha virt. eigenvalues --    2.12118   2.14006   2.15346   2.16865   2.16947
 Alpha virt. eigenvalues --    2.17605   2.18902   2.19991   2.20396   2.20882
 Alpha virt. eigenvalues --    2.21026   2.23490   2.25882   2.27858   2.29694
 Alpha virt. eigenvalues --    2.30864   2.32384   2.32425   2.35235   2.36285
 Alpha virt. eigenvalues --    2.37438   2.38452   2.40684   2.41648   2.46301
 Alpha virt. eigenvalues --    2.46474   2.47710   2.50255   2.51650   2.52248
 Alpha virt. eigenvalues --    2.53342   2.54658   2.57125   2.61042   2.62269
 Alpha virt. eigenvalues --    2.64560   2.65961   2.67431   2.69892   2.71179
 Alpha virt. eigenvalues --    2.71988   2.73442   2.73975   2.74194   2.75998
 Alpha virt. eigenvalues --    2.78218   2.78872   2.79574   2.83635   2.86027
 Alpha virt. eigenvalues --    2.87052   2.88090   2.91622   2.96812   3.00501
 Alpha virt. eigenvalues --    3.02223   3.07772   3.11523   3.14218   3.17765
 Alpha virt. eigenvalues --    3.20946   3.25002   3.27665   3.30036   3.39269
 Alpha virt. eigenvalues --    3.41667   3.43811   3.44996   3.45943   3.47794
 Alpha virt. eigenvalues --    3.48446   3.49625   3.50148   3.53425   3.54387
 Alpha virt. eigenvalues --    3.55391   3.56264   3.58515   3.59258   3.60029
 Alpha virt. eigenvalues --    3.62510   3.63757   3.64540   3.67322   3.67651
 Alpha virt. eigenvalues --    3.68890   3.71217   3.72756   3.73703   3.75913
 Alpha virt. eigenvalues --    3.77563   3.79679   3.84439   3.85525   3.89050
 Alpha virt. eigenvalues --    3.90185   3.92655   4.07164   4.13018   4.20280
 Alpha virt. eigenvalues --    4.28081   4.28707   4.30834   4.31863   4.32341
 Alpha virt. eigenvalues --    4.33045   4.35849   4.37308   4.37678   4.39095
 Alpha virt. eigenvalues --    4.44278   4.51250   5.12818   5.21002   5.30117
 Alpha virt. eigenvalues --    5.33880   5.50701   5.57503   5.92071   6.03343
 Alpha virt. eigenvalues --    6.36786   6.40263   6.42589   6.43393   6.44893
 Alpha virt. eigenvalues --    6.45636   6.46005   6.46577   6.46956   6.48179
 Alpha virt. eigenvalues --    6.48519   6.49773   6.50010   6.50191   6.51730
 Alpha virt. eigenvalues --    6.52175   6.53580   6.53696   6.54423   6.55246
 Alpha virt. eigenvalues --    6.57531   6.59231   6.61168   6.64159   6.65370
 Alpha virt. eigenvalues --    6.66333   6.72564   6.75869   6.82393   6.87325
 Alpha virt. eigenvalues --    6.88208   6.88605   6.89977   6.90934   6.94595
 Alpha virt. eigenvalues --    6.95582   6.96755   7.05832   7.11196   7.15270
 Alpha virt. eigenvalues --    7.16249   7.20377   7.24628   7.30370   7.32157
 Alpha virt. eigenvalues --    7.43702   7.48029   7.55691   7.63889   9.08300
 Alpha virt. eigenvalues --    9.08707   9.08979   9.10520   9.10869   9.11001
 Alpha virt. eigenvalues --    9.11664   9.12413   9.15216   9.16281   9.18370
 Alpha virt. eigenvalues --    9.18975   9.20694   9.20944   9.21032   9.21983
 Alpha virt. eigenvalues --    9.22738   9.23677   9.24253   9.25183   9.25622
 Alpha virt. eigenvalues --    9.26009   9.27177   9.27957   9.29274   9.29368
 Alpha virt. eigenvalues --    9.33948   9.34390   9.35242   9.36744   9.42412
 Alpha virt. eigenvalues --    9.44312   9.44471   9.45648   9.52036   9.52114
 Alpha virt. eigenvalues --    9.53964   9.64886   9.65800   9.68397   9.68770
 Alpha virt. eigenvalues --    9.69957   9.73167   9.74367   9.75480   9.76507
 Alpha virt. eigenvalues --    9.77060   9.78055   9.80377   9.81201   9.87801
 Alpha virt. eigenvalues --    9.90163   9.90270   9.90787   9.91919  23.94027
 Alpha virt. eigenvalues --   23.97765  24.02976  24.04656  24.12148  24.21836
 Alpha virt. eigenvalues --   50.08575  50.13503  50.19626  66.92724  66.93987
 Alpha virt. eigenvalues --   66.94908  66.95701  66.97206  66.97327  66.98488
 Alpha virt. eigenvalues --   67.00181  67.03028  67.03638  67.04650
          Condensed to atoms (all electrons):
               1          2          3          4          5          6
     1  C    5.252732   0.231630   0.266761   0.247550  -0.960172  -0.139982
     2  F    0.231630   9.119196  -0.006496  -0.004566  -0.161656   0.021502
     3  F    0.266761  -0.006496   9.051276   0.018391  -0.096099   0.017706
     4  F    0.247550  -0.004566   0.018391   9.065348  -0.115741  -0.000169
     5  C   -0.960172  -0.161656  -0.096099  -0.115741  10.069328   0.361341
     6  F   -0.139982   0.021502   0.017706  -0.000169   0.361341   9.063533
     7  F   -0.127415   0.023796  -0.001016   0.018013   0.300046   0.001678
     8  F   -0.010601   0.000803   0.006281  -0.007096  -0.070802   0.015815
     9  F    0.016030  -0.000024  -0.004745   0.002719  -0.108008  -0.000639
    10  C    0.303330   0.057633   0.018757   0.060794  -3.843142  -0.115326
    11  O    0.039368  -0.000836   0.001613   0.002268  -0.190129   0.043985
    12  C   -0.248832   0.003477   0.006041  -0.001163   0.720567  -0.012296
    13  C    0.005877  -0.000347   0.000523   0.001928  -0.495439   0.002155
    14  O    0.004860  -0.000008   0.000062  -0.000034   0.015218  -0.000048
    15  O    0.000513   0.000000   0.000006  -0.000018   0.002912  -0.000028
    16  H    0.000825  -0.000001  -0.000002   0.000016  -0.001798   0.000001
    17  C    0.035626   0.000011   0.000021  -0.000792   0.080662   0.006612
    18  F    0.003358  -0.000002   0.000026  -0.000174  -0.018651  -0.000829
    19  F   -0.000226  -0.000001   0.000003  -0.000001  -0.001579   0.000070
    20  F    0.000446   0.000000  -0.000000   0.000003  -0.008177  -0.000345
    21  F    0.000530  -0.000000   0.000000   0.000000   0.001427   0.000001
               7          8          9         10         11         12
     1  C   -0.127415  -0.010601   0.016030   0.303330   0.039368  -0.248832
     2  F    0.023796   0.000803  -0.000024   0.057633  -0.000836   0.003477
     3  F   -0.001016   0.006281  -0.004745   0.018757   0.001613   0.006041
     4  F    0.018013  -0.007096   0.002719   0.060794   0.002268  -0.001163
     5  C    0.300046  -0.070802  -0.108008  -3.843142  -0.190129   0.720567
     6  F    0.001678   0.015815  -0.000639  -0.115326   0.043985  -0.012296
     7  F    9.058747   0.001247   0.017585  -0.050528   0.039371  -0.029664
     8  F    0.001247   9.032006   0.037660   0.233177   0.006755   0.001013
     9  F    0.017585   0.037660   9.051646   0.320215  -0.050293  -0.093155
    10  C   -0.050528   0.233177   0.320215   9.621643   0.342159  -1.909289
    11  O    0.039371   0.006755  -0.050293   0.342159   8.327015  -0.068590
    12  C   -0.029664   0.001013  -0.093155  -1.909289  -0.068590  10.016435
    13  C    0.006885  -0.005800   0.023250   0.568703   0.030156  -1.102174
    14  O    0.000010   0.003183   0.000427   0.024327  -0.005267  -0.073034
    15  O   -0.000036  -0.000158   0.014969   0.006277   0.008053   0.019868
    16  H   -0.000005  -0.000034  -0.003022   0.003368   0.002000  -0.035795
    17  C    0.003057   0.010874   0.033682  -0.259408  -0.164191  -1.219883
    18  F    0.003410   0.001888   0.020200   0.035420  -0.058853   0.188313
    19  F    0.000052  -0.000153  -0.000140  -0.012615   0.023391   0.031308
    20  F   -0.000479  -0.000003  -0.000168   0.010766   0.029907  -0.113160
    21  F   -0.000016  -0.000132   0.000194   0.019719  -0.003746  -0.009745
              13         14         15         16         17         18
     1  C    0.005877   0.004860   0.000513   0.000825   0.035626   0.003358
     2  F   -0.000347  -0.000008   0.000000  -0.000001   0.000011  -0.000002
     3  F    0.000523   0.000062   0.000006  -0.000002   0.000021   0.000026
     4  F    0.001928  -0.000034  -0.000018   0.000016  -0.000792  -0.000174
     5  C   -0.495439   0.015218   0.002912  -0.001798   0.080662  -0.018651
     6  F    0.002155  -0.000048  -0.000028   0.000001   0.006612  -0.000829
     7  F    0.006885   0.000010  -0.000036  -0.000005   0.003057   0.003410
     8  F   -0.005800   0.003183  -0.000158  -0.000034   0.010874   0.001888
     9  F    0.023250   0.000427   0.014969  -0.003022   0.033682   0.020200
    10  C    0.568703   0.024327   0.006277   0.003368  -0.259408   0.035420
    11  O    0.030156  -0.005267   0.008053   0.002000  -0.164191  -0.058853
    12  C   -1.102174  -0.073034   0.019868  -0.035795  -1.219883   0.188313
    13  C    6.216028   0.382550   0.252799   0.040794  -0.274922  -0.069358
    14  O    0.382550   7.976067  -0.064800  -0.005180   0.020324   0.017136
    15  O    0.252799  -0.064800   7.871265   0.229997  -0.048122  -0.028512
    16  H    0.040794  -0.005180   0.229997   0.480430   0.007138   0.031390
    17  C   -0.274922   0.020324  -0.048122   0.007138   5.980109  -0.080498
    18  F   -0.069358   0.017136  -0.028512   0.031390  -0.080498   9.216394
    19  F   -0.006050  -0.005209  -0.001658  -0.000150   0.225847   0.004791
    20  F    0.044423   0.000647  -0.000440  -0.000514   0.231297   0.027741
    21  F    0.002895  -0.003797   0.008342  -0.003072   0.155445   0.031146
              19         20         21
     1  C   -0.000226   0.000446   0.000530
     2  F   -0.000001   0.000000  -0.000000
     3  F    0.000003  -0.000000   0.000000
     4  F   -0.000001   0.000003   0.000000
     5  C   -0.001579  -0.008177   0.001427
     6  F    0.000070  -0.000345   0.000001
     7  F    0.000052  -0.000479  -0.000016
     8  F   -0.000153  -0.000003  -0.000132
     9  F   -0.000140  -0.000168   0.000194
    10  C   -0.012615   0.010766   0.019719
    11  O    0.023391   0.029907  -0.003746
    12  C    0.031308  -0.113160  -0.009745
    13  C   -0.006050   0.044423   0.002895
    14  O   -0.005209   0.000647  -0.003797
    15  O   -0.001658  -0.000440   0.008342
    16  H   -0.000150  -0.000514  -0.003072
    17  C    0.225847   0.231297   0.155445
    18  F    0.004791   0.027741   0.031146
    19  F    9.000036  -0.004979   0.004648
    20  F   -0.004979   9.067075  -0.004351
    21  F    0.004648  -0.004351   9.089337
 Mulliken charges:
               1
     1  C    1.077792
     2  F   -0.284110
     3  F   -0.279108
     4  F   -0.287274
     5  C    0.519893
     6  F   -0.264734
     7  F   -0.264738
     8  F   -0.255924
     9  F   -0.278383
    10  C    0.564021
    11  O   -0.354140
    12  C   -0.070242
    13  C    0.375122
    14  O   -0.287436
    15  O   -0.271231
    16  H    0.253614
    17  C    1.257110
    18  F   -0.324337
    19  F   -0.257383
    20  F   -0.279691
    21  F   -0.288824
 Sum of Mulliken charges =  -0.00000
 Mulliken charges with hydrogens summed into heavy atoms:
               1
     1  C    1.077792
     2  F   -0.284110
     3  F   -0.279108
     4  F   -0.287274
     5  C    0.519893
     6  F   -0.264734
     7  F   -0.264738
     8  F   -0.255924
     9  F   -0.278383
    10  C    0.564021
    11  O   -0.354140
    12  C   -0.070242
    13  C    0.375122
    14  O   -0.287436
    15  O   -0.017617
    17  C    1.257110
    18  F   -0.324337
    19  F   -0.257383
    20  F   -0.279691
    21  F   -0.288824
 APT charges:
               1
     1  C    1.560339
     2  F   -0.543259
     3  F   -0.501060
     4  F   -0.504069
     5  C    0.909805
     6  F   -0.466992
     7  F   -0.466729
     8  F   -0.491394
     9  F   -0.493257
    10  C    1.458830
    11  O   -0.903655
    12  C    0.860067
    13  C    1.048029
    14  O   -0.644339
    15  O   -0.682038
    16  H    0.352710
    17  C    1.567804
    18  F   -0.521529
    19  F   -0.484266
    20  F   -0.522508
    21  F   -0.532490
 Sum of APT charges =  -0.00000
 APT charges with hydrogens summed into heavy atoms:
               1
     1  C    1.560339
     2  F   -0.543259
     3  F   -0.501060
     4  F   -0.504069
     5  C    0.909805
     6  F   -0.466992
     7  F   -0.466729
     8  F   -0.491394
     9  F   -0.493257
    10  C    1.458830
    11  O   -0.903655
    12  C    0.860067
    13  C    1.048029
    14  O   -0.644339
    15  O   -0.329328
    17  C    1.567804
    18  F   -0.521529
    19  F   -0.484266
    20  F   -0.522508
    21  F   -0.532490
 Electronic spatial extent (au):  <R**2>=           5015.3547
 Charge=             -0.0000 electrons
 Dipole moment (field-independent basis, Debye):
    X=             -0.0410    Y=             -0.3871    Z=             -2.4046  Tot=              2.4359
 Quadrupole moment (field-independent basis, Debye-Ang):
   XX=           -106.7535   YY=           -111.3748   ZZ=           -106.5226
   XY=             -1.9930   XZ=             -5.6924   YZ=             -5.3029
 Traceless Quadrupole moment (field-independent basis, Debye-Ang):
   XX=              1.4635   YY=             -3.1578   ZZ=              1.6943
   XY=             -1.9930   XZ=             -5.6924   YZ=             -5.3029
 Octapole moment (field-independent basis, Debye-Ang**2):
  XXX=            -16.0235  YYY=            -24.3898  ZZZ=            -14.7894  XYY=            -15.2896
  XXY=             -7.2662  XXZ=            -11.5122  XZZ=             -1.1693  YZZ=             -1.5107
  YYZ=             -8.3300  XYZ=            -11.1114
 Hexadecapole moment (field-independent basis, Debye-Ang**3):
 XXXX=          -3801.8015 YYYY=           -956.1752 ZZZZ=           -523.4614 XXXY=            -52.1893
 XXXZ=            -24.9077 YYYX=            -67.6098 YYYZ=            -12.8105 ZZZX=            -31.1710
 ZZZY=            -25.9362 XXYY=           -810.5997 XXZZ=           -713.9076 YYZZ=           -239.7437
 XXYZ=            -24.8371 YYXZ=            -16.7965 ZZXY=             -2.0894
 N-N= 2.039062127156D+03 E-N=-7.762229708852D+03  KE= 1.549206723914D+03
  Exact polarizability:  94.107   2.668  84.336  -2.762   0.503  86.275
 Approx polarizability:  88.994   2.699  93.764  -4.083   0.496 109.047
 Calling FoFJK, ICntrl=    100127 FMM=F ISym2X=0 I1Cent= 0 IOpClX= 0 NMat=1 NMatS=1 NMatT=0.
 Full mass-weighted force constant matrix:
 Low frequencies ---    0.0005    0.0006    0.0009    4.4246    5.5624    6.2134
 Low frequencies ---   21.2047   27.4062   45.2413
 Diagonal vibrational polarizability:
       85.7593083      40.6383710      26.7318707
 Harmonic frequencies (cm**-1), IR intensities (KM/Mole), Raman scattering
 activities (A**4/AMU), depolarization ratios for plane and unpolarized
 incident light, reduced masses (AMU), force constants (mDyne/A),
 and normal coordinates:
                      1                      2                      3
                      A                      A                      A
 Frequencies --     21.1394                27.3463                45.2380
 Red. masses --     17.6276                16.9299                14.3624
 Frc consts  --      0.0046                 0.0075                 0.0173
 IR Inten    --      0.1220                 0.1961                 0.4441
  Atom  AN      X      Y      Z        X      Y      Z        X      Y      Z
     1   6    -0.02  -0.02   0.12     0.03  -0.01  -0.10    -0.01  -0.11   0.00
     2   9    -0.01   0.09  -0.13     0.10  -0.00  -0.26     0.07  -0.17  -0.06
     3   9    -0.00  -0.41   0.25    -0.12  -0.11  -0.11    -0.08  -0.19   0.01
     4   9    -0.06   0.23   0.45     0.09   0.05  -0.03    -0.07  -0.08   0.05
     5   6    -0.00   0.03  -0.10     0.05   0.03   0.01     0.04   0.01   0.03
     6   9     0.10  -0.08  -0.23    -0.02  -0.04  -0.08     0.14   0.07   0.10
     7   9    -0.10   0.19  -0.17     0.20   0.14  -0.00     0.06  -0.06   0.06
     8   9    -0.03   0.08  -0.13    -0.12  -0.14   0.26    -0.10   0.29  -0.14
     9   9     0.04  -0.01  -0.14     0.02   0.11   0.34    -0.01   0.01  -0.19
    10   6     0.00   0.03  -0.10    -0.01   0.01   0.22    -0.02   0.13  -0.06
    11   8    -0.01   0.01  -0.04     0.02   0.05   0.25    -0.00   0.15   0.09
    12   6     0.02  -0.03  -0.02    -0.05  -0.01   0.05    -0.00   0.09   0.05
    13   6     0.00  -0.00  -0.11     0.01   0.01  -0.11     0.12   0.03   0.12
    14   8    -0.04   0.09  -0.14     0.06   0.13  -0.14     0.01   0.03   0.12
    15   8     0.04  -0.08  -0.16     0.01  -0.10  -0.20     0.36  -0.01   0.19
    16   1     0.07  -0.14  -0.12    -0.05  -0.18  -0.15     0.40   0.03   0.16
    17   6    -0.00   0.00   0.12    -0.01   0.00  -0.02    -0.08  -0.05  -0.06
    18   9     0.08  -0.14  -0.01    -0.23  -0.11   0.07    -0.06   0.17   0.05
    19   9    -0.07   0.11   0.13     0.22   0.16  -0.03     0.08  -0.03  -0.07
    20   9     0.02  -0.03   0.20    -0.12  -0.04   0.17    -0.29  -0.02   0.00
    21   9     0.02  -0.04   0.15    -0.09  -0.09  -0.27    -0.09  -0.21  -0.20
                      4                      5                      6
                      A                      A                      A
 Frequencies --     59.4948                67.0858                71.5695
 Red. masses --     12.2867                13.8200                12.7275
 Frc consts  --      0.0256                 0.0366                 0.0384
 IR Inten    --      2.6180                 0.5213                 2.1992
  Atom  AN      X      Y      Z        X      Y      Z        X      Y      Z
     1   6     0.01  -0.02  -0.03    -0.01  -0.06   0.02    -0.00  -0.05   0.01
     2   9     0.08   0.00  -0.22     0.04  -0.18   0.15     0.01  -0.16   0.23
     3   9    -0.12  -0.15  -0.03     0.02   0.02   0.00     0.12   0.08   0.01
     4   9     0.07   0.06   0.07    -0.13  -0.14  -0.07    -0.15  -0.15  -0.11
     5   6     0.03   0.01   0.07     0.04   0.05  -0.01     0.03   0.04  -0.09
     6   9     0.02   0.08   0.15     0.10  -0.01  -0.09     0.12  -0.05  -0.22
     7   9     0.09  -0.08   0.11     0.08   0.16  -0.04     0.03   0.20  -0.15
     8   9    -0.05   0.17  -0.02    -0.04  -0.02   0.11    -0.01   0.03  -0.02
     9   9     0.03  -0.01  -0.06    -0.05   0.15   0.15     0.00   0.09   0.01
    10   6     0.00   0.06   0.03    -0.02   0.09   0.08     0.00   0.06  -0.03
    11   8     0.01   0.07   0.14    -0.00   0.11   0.04    -0.00   0.06  -0.02
    12   6    -0.01   0.00   0.04    -0.02   0.03  -0.03     0.03   0.03   0.02
    13   6     0.05   0.00  -0.04     0.09   0.02  -0.12     0.06   0.02   0.02
    14   8     0.39  -0.05  -0.01    -0.04   0.16  -0.17     0.37  -0.09   0.07
    15   8    -0.32   0.07  -0.13     0.35  -0.15  -0.15    -0.32   0.14  -0.03
    16   1    -0.54   0.09  -0.12     0.41  -0.22  -0.11    -0.50   0.19  -0.04
    17   6    -0.02  -0.03  -0.01    -0.07  -0.02   0.01    -0.05  -0.04   0.06
    18   9    -0.11  -0.04   0.05    -0.06  -0.03  -0.02     0.05   0.02   0.02
    19   9    -0.14  -0.23  -0.01    -0.30  -0.21   0.02    -0.02   0.04   0.06
    20   9     0.04   0.03  -0.22     0.02   0.04  -0.22    -0.19  -0.04   0.16
    21   9     0.01   0.08   0.15     0.02   0.06   0.27    -0.03  -0.19  -0.00
                      7                      8                      9
                      A                      A                      A
 Frequencies --    104.1102               132.4915               149.0288
 Red. masses --     17.1927                16.3523                16.9817
 Frc consts  --      0.1098                 0.1691                 0.2222
 IR Inten    --      0.6754                 1.3456                 0.8169
  Atom  AN      X      Y      Z        X      Y      Z        X      Y      Z
     1   6    -0.01   0.03   0.02    -0.19  -0.01  -0.02     0.06  -0.02   0.00
     2   9    -0.07   0.02   0.17    -0.09  -0.09  -0.05    -0.18   0.21   0.05
     3   9     0.10   0.12   0.02    -0.28  -0.04  -0.03     0.24   0.03   0.04
     4   9    -0.05  -0.03  -0.05    -0.27  -0.01  -0.02     0.25   0.01   0.03
     5   6    -0.02   0.01  -0.08    -0.13   0.05   0.01    -0.03  -0.23  -0.06
     6   9    -0.02  -0.10  -0.21    -0.15   0.08   0.04    -0.09  -0.24  -0.08
     7   9    -0.03   0.16  -0.13    -0.18   0.02   0.01    -0.07  -0.26  -0.05
     8   9    -0.22   0.23  -0.13     0.01  -0.07   0.02    -0.22  -0.18  -0.04
     9   9     0.13  -0.17  -0.17    -0.09   0.07   0.05    -0.12  -0.15  -0.03
    10   6    -0.03  -0.01   0.01    -0.06   0.01  -0.02    -0.07  -0.15  -0.03
    11   8    -0.01  -0.02   0.35    -0.05  -0.00  -0.11     0.04   0.05   0.09
    12   6    -0.07  -0.09   0.18     0.01  -0.02  -0.04    -0.01   0.14   0.03
    13   6    -0.02  -0.08   0.09     0.24  -0.10   0.01     0.17   0.12  -0.01
    14   8    -0.02  -0.01   0.07     0.50  -0.21   0.05     0.38   0.16  -0.02
    15   8     0.02  -0.16   0.04     0.31  -0.12   0.03     0.23   0.02  -0.07
    16   1    -0.01  -0.20   0.07     0.14  -0.04   0.00     0.05   0.02  -0.06
    17   6     0.08   0.01   0.00     0.08   0.06   0.01    -0.06   0.09   0.02
    18   9    -0.26  -0.15   0.20     0.06  -0.01  -0.04    -0.10   0.18   0.04
    19   9     0.26  -0.12  -0.02     0.11   0.17   0.01    -0.12   0.09   0.02
    20   9     0.25   0.01  -0.10     0.25  -0.01   0.10    -0.16   0.12   0.00
    21   9    -0.04   0.27  -0.10     0.02   0.19  -0.03    -0.02   0.01   0.06
                     10                     11                     12
                      A                      A                      A
 Frequencies --    178.7942               217.9782               230.9985
 Red. masses --     16.8519                18.1044                18.6372
 Frc consts  --      0.3174                 0.5068                 0.5859
 IR Inten    --      1.2566                 1.7390                 0.1726
  Atom  AN      X      Y      Z        X      Y      Z        X      Y      Z
     1   6    -0.12   0.03   0.00     0.03   0.01  -0.11    -0.01  -0.06   0.12
     2   9    -0.08  -0.02  -0.01    -0.09   0.07   0.04    -0.07   0.06   0.00
     3   9    -0.18   0.02  -0.01     0.41  -0.14   0.03    -0.30   0.12  -0.03
     4   9    -0.18   0.02  -0.01    -0.21   0.10   0.02     0.43  -0.13  -0.02
     5   6    -0.08  -0.00  -0.00     0.03   0.04  -0.21    -0.00  -0.04   0.05
     6   9    -0.17  -0.01  -0.01     0.08   0.29   0.13     0.55  -0.05   0.04
     7   9    -0.17  -0.01  -0.02     0.11  -0.34  -0.05    -0.41   0.02  -0.05
     8   9    -0.04  -0.09   0.00    -0.37  -0.14  -0.05    -0.26  -0.06  -0.03
     9   9    -0.03  -0.05   0.00    -0.04   0.34   0.14    -0.01   0.19   0.08
    10   6     0.00  -0.05  -0.01    -0.09   0.14  -0.12    -0.06   0.09  -0.07
    11   8     0.09   0.03   0.03    -0.07   0.14  -0.03    -0.04   0.10  -0.04
    12   6     0.17   0.07   0.17     0.00  -0.04   0.02     0.01  -0.01  -0.01
    13   6     0.05   0.19   0.01    -0.01  -0.05  -0.00     0.00  -0.03  -0.02
    14   8    -0.00   0.44  -0.07    -0.05  -0.08   0.01    -0.03  -0.07  -0.00
    15   8    -0.08   0.05  -0.15    -0.05  -0.01   0.01    -0.02   0.01   0.01
    16   1    -0.02  -0.13  -0.06     0.02  -0.03   0.01     0.03   0.01  -0.00
    17   6     0.15  -0.06   0.06     0.02  -0.05   0.03     0.01  -0.02   0.02
    18   9     0.34   0.04   0.15     0.10  -0.14   0.01     0.10  -0.09  -0.01
    19   9     0.34  -0.33   0.04     0.13  -0.11   0.02     0.07  -0.06   0.01
    20   9    -0.09   0.05  -0.12     0.08  -0.05   0.01     0.04  -0.03   0.01
    21   9     0.15  -0.16  -0.01    -0.04   0.05  -0.04    -0.02   0.03  -0.02
                     13                     14                     15
                      A                      A                      A
 Frequencies --    245.3526               261.3567               287.3119
 Red. masses --     17.8254                13.5630                15.9521
 Frc consts  --      0.6322                 0.5459                 0.7758
 IR Inten    --      2.5406                 9.9334                 6.8354
  Atom  AN      X      Y      Z        X      Y      Z        X      Y      Z
     1   6    -0.00   0.07   0.01    -0.03   0.02   0.03    -0.10  -0.07  -0.05
     2   9     0.16  -0.12   0.03    -0.06   0.05   0.03    -0.32   0.12  -0.02
     3   9    -0.08   0.03  -0.01    -0.07   0.04   0.01     0.02  -0.10  -0.01
     4   9    -0.19   0.07   0.02    -0.00   0.01   0.02    -0.01  -0.07  -0.06
     5   6     0.02   0.08  -0.10    -0.00  -0.04   0.05    -0.03  -0.01  -0.03
     6   9     0.04   0.20   0.07    -0.12  -0.11  -0.04     0.16   0.02   0.01
     7   9    -0.30  -0.11  -0.08     0.09   0.03   0.04     0.05  -0.03  -0.01
     8   9    -0.17  -0.24  -0.06    -0.23   0.10   0.01     0.17   0.08   0.01
     9   9     0.53  -0.06   0.03    -0.25  -0.01  -0.01     0.00   0.10   0.04
    10   6     0.14  -0.11  -0.07    -0.04   0.04   0.06    -0.01   0.06  -0.01
    11   8     0.16  -0.09   0.17     0.12   0.21   0.15    -0.06  -0.05  -0.06
    12   6     0.04   0.02  -0.04     0.12   0.02  -0.15    -0.01  -0.04   0.06
    13   6     0.01   0.05  -0.01     0.06   0.01  -0.10     0.01   0.03   0.11
    14   8    -0.03   0.05  -0.01    -0.12  -0.18  -0.05     0.01   0.29   0.03
    15   8    -0.00   0.09   0.02     0.02   0.27   0.07    -0.09  -0.14  -0.06
    16   1    -0.04   0.15  -0.01     0.17   0.45  -0.04    -0.20  -0.28   0.03
    17   6     0.05   0.01  -0.06     0.16  -0.07  -0.08     0.04  -0.16  -0.05
    18   9    -0.29   0.13  -0.01    -0.08  -0.06  -0.11    -0.21   0.41   0.04
    19   9    -0.15   0.15  -0.04    -0.01   0.07  -0.06    -0.07  -0.03  -0.02
    20   9     0.02   0.00  -0.01     0.22  -0.11  -0.01     0.35  -0.30   0.12
    21   9     0.17  -0.17   0.08     0.32  -0.29   0.08     0.04  -0.14  -0.02
                     16                     17                     18
                      A                      A                      A
 Frequencies --    297.0889               322.7722               337.3257
 Red. masses --     17.2085                18.4652                16.6554
 Frc consts  --      0.8949                 1.1334                 1.1166
 IR Inten    --      1.3870                 1.1073                 1.5934
  Atom  AN      X      Y      Z        X      Y      Z        X      Y      Z
     1   6     0.21   0.12   0.05    -0.02  -0.03   0.09    -0.07   0.11   0.02
     2   9     0.58  -0.19  -0.03    -0.03  -0.05   0.15    -0.06   0.11   0.02
     3   9     0.09   0.15   0.01    -0.16   0.02   0.05    -0.21   0.23  -0.04
     4   9     0.06   0.14   0.08     0.14  -0.04   0.07    -0.27   0.18   0.10
     5   6     0.05   0.03   0.01    -0.01  -0.01   0.05     0.10   0.00   0.01
     6   9    -0.08   0.03   0.01    -0.24  -0.06  -0.01     0.43   0.03   0.04
     7   9    -0.17   0.04  -0.03     0.27   0.07   0.08     0.40   0.03   0.05
     8   9    -0.14  -0.09  -0.04    -0.39   0.04  -0.05    -0.15  -0.25  -0.01
     9   9    -0.38  -0.03  -0.07     0.35  -0.03   0.04    -0.15  -0.24  -0.16
    10   6    -0.08  -0.03  -0.05    -0.01  -0.00   0.03    -0.02  -0.12  -0.03
    11   8    -0.06   0.02  -0.07    -0.01  -0.00  -0.01     0.02  -0.08  -0.00
    12   6    -0.02  -0.03   0.04     0.03  -0.02  -0.03    -0.01  -0.01   0.03
    13   6     0.02  -0.01   0.06     0.04   0.01   0.01    -0.03  -0.07   0.04
    14   8     0.03   0.13   0.02     0.02   0.09  -0.01     0.02  -0.04   0.03
    15   8    -0.05  -0.11  -0.04    -0.04   0.00  -0.03    -0.04  -0.19  -0.05
    16   1    -0.10  -0.21   0.02     0.07  -0.08   0.01    -0.15  -0.28   0.01
    17   6    -0.02  -0.11  -0.00    -0.10  -0.07  -0.08     0.01   0.04  -0.01
    18   9    -0.05   0.21   0.02     0.44   0.11  -0.07     0.05   0.09   0.00
    19   9    -0.03  -0.08   0.01    -0.26   0.05  -0.07    -0.00   0.07  -0.01
    20   9     0.19  -0.20   0.10     0.15  -0.18   0.02    -0.06   0.07  -0.05
    21   9    -0.09   0.01  -0.05    -0.21   0.08  -0.20     0.04  -0.01   0.02
                     19                     20                     21
                      A                      A                      A
 Frequencies --    344.8578               369.3099               378.8400
 Red. masses --     10.3177                16.1137                18.0871
 Frc consts  --      0.7230                 1.2949                 1.5294
 IR Inten    --      4.8063                 1.2830                 0.4098
  Atom  AN      X      Y      Z        X      Y      Z        X      Y      Z
     1   6    -0.03   0.03  -0.02    -0.01  -0.01   0.07     0.02  -0.08  -0.03
     2   9    -0.03   0.04  -0.04    -0.01  -0.05   0.14    -0.12   0.04  -0.01
     3   9    -0.03   0.05  -0.03    -0.17   0.02   0.02     0.17  -0.24   0.05
     4   9    -0.14   0.06   0.00     0.14  -0.01   0.08     0.18  -0.18  -0.15
     5   6     0.03  -0.02  -0.01     0.01   0.01  -0.03    -0.04   0.13   0.04
     6   9     0.14  -0.03  -0.02    -0.13   0.02  -0.02    -0.04   0.37   0.34
     7   9    -0.00  -0.06  -0.00     0.22   0.00   0.01     0.00   0.51  -0.07
     8   9     0.13  -0.10   0.04    -0.05  -0.10  -0.09    -0.13  -0.25   0.03
     9   9    -0.01  -0.10  -0.05     0.12   0.07  -0.05    -0.10  -0.25  -0.18
    10   6     0.05  -0.05   0.01     0.00   0.01  -0.11    -0.06  -0.09  -0.01
    11   8     0.07   0.05   0.08    -0.04  -0.02  -0.18    -0.02  -0.06  -0.01
    12   6     0.02   0.01  -0.04    -0.04   0.04  -0.11    -0.02  -0.00  -0.02
    13   6     0.09   0.15  -0.05    -0.01  -0.01  -0.19     0.00   0.05  -0.01
    14   8     0.03   0.12  -0.05    -0.05  -0.19  -0.14     0.05   0.05  -0.01
    15   8     0.09   0.39   0.10     0.07   0.13  -0.07     0.04   0.10   0.03
    16   1     0.35   0.55  -0.01     0.02   0.29  -0.15     0.06   0.17  -0.01
    17   6    -0.09  -0.08   0.02     0.01  -0.02   0.13     0.00  -0.00  -0.00
    18   9    -0.04  -0.18  -0.00    -0.26   0.28  -0.13    -0.01  -0.04  -0.01
    19   9    -0.10  -0.17   0.02     0.32  -0.31   0.12     0.01  -0.01  -0.00
    20   9     0.08  -0.18   0.14    -0.11  -0.03   0.23     0.02  -0.01   0.00
    21   9    -0.23   0.13  -0.12    -0.03   0.14   0.19     0.01  -0.02   0.00
                     22                     23                     24
                      A                      A                      A
 Frequencies --    397.6610               444.2339               515.1327
 Red. masses --     16.8596                14.8857                14.0475
 Frc consts  --      1.5708                 1.7308                 2.1963
 IR Inten    --      0.4925                 6.7514                 7.6257
  Atom  AN      X      Y      Z        X      Y      Z        X      Y      Z
     1   6     0.00   0.01  -0.06     0.00   0.00  -0.00     0.01   0.01   0.13
     2   9    -0.02   0.09  -0.20    -0.07  -0.02   0.21     0.05   0.17  -0.20
     3   9     0.22  -0.02  -0.01    -0.19  -0.12  -0.01     0.04   0.05   0.18
     4   9    -0.21  -0.03  -0.12     0.16   0.01   0.00    -0.14  -0.21  -0.10
     5   6     0.00  -0.03   0.11     0.06   0.06  -0.15     0.04  -0.02   0.17
     6   9     0.11  -0.09   0.06    -0.12   0.19  -0.06    -0.08  -0.20   0.03
     7   9    -0.24   0.07   0.06     0.00  -0.10  -0.16     0.00   0.11   0.19
     8   9    -0.07   0.14   0.14     0.23  -0.20   0.01    -0.04  -0.20  -0.11
     9   9     0.04  -0.19   0.06    -0.15   0.07  -0.15     0.07   0.18  -0.15
    10   6     0.04  -0.03   0.20     0.12   0.06  -0.09     0.10   0.08  -0.15
    11   8     0.14   0.10   0.23     0.27   0.30   0.33     0.15   0.23  -0.07
    12   6     0.06   0.03  -0.06     0.16   0.04   0.08     0.13   0.03  -0.07
    13   6     0.03  -0.13  -0.19     0.10  -0.10   0.01     0.09  -0.01   0.17
    14   8    -0.12  -0.34  -0.14    -0.12  -0.17   0.02    -0.03   0.11   0.14
    15   8    -0.03  -0.05  -0.16    -0.10  -0.15  -0.08    -0.10  -0.17   0.04
    16   1     0.04  -0.07  -0.15     0.03  -0.35   0.01    -0.07  -0.40   0.16
    17   6    -0.02  -0.01   0.03    -0.00   0.00   0.00     0.04  -0.00  -0.08
    18   9     0.22   0.38  -0.11     0.04   0.07   0.10    -0.11  -0.11  -0.11
    19   9     0.02  -0.10   0.02    -0.14   0.01   0.01    -0.04  -0.06  -0.10
    20   9    -0.06  -0.03   0.12    -0.02   0.01   0.02    -0.11  -0.04   0.13
    21   9    -0.08   0.14   0.02    -0.07   0.08  -0.10     0.07   0.15   0.02
                     25                     26                     27
                      A                      A                      A
 Frequencies --    528.0687               542.4757               543.8330
 Red. masses --     16.0983                13.5362                 6.6408
 Frc consts  --      2.6449                 2.3470                 1.1572
 IR Inten    --      2.8860                 7.4726                 5.8162
  Atom  AN      X      Y      Z        X      Y      Z        X      Y      Z
     1   6    -0.03  -0.06   0.08    -0.11  -0.24  -0.05    -0.00  -0.04  -0.03
     2   9     0.01   0.00  -0.18    -0.19  -0.28  -0.19    -0.05  -0.04   0.00
     3   9     0.07   0.13   0.07     0.17   0.32  -0.21     0.01   0.04  -0.07
     4   9    -0.04  -0.12   0.06     0.06   0.01   0.40     0.00   0.03   0.07
     5   6    -0.04  -0.03   0.08    -0.08  -0.12  -0.02     0.02  -0.06  -0.02
     6   9    -0.04  -0.11   0.03    -0.05  -0.02   0.17    -0.00   0.01   0.09
     7   9     0.03   0.07   0.10     0.01   0.11  -0.12     0.00   0.04  -0.08
     8   9     0.05  -0.17  -0.06     0.07  -0.05  -0.01    -0.02   0.08  -0.08
     9   9     0.09   0.13  -0.13     0.05   0.05  -0.03    -0.04  -0.00   0.12
    10   6    -0.03   0.06  -0.12    -0.04   0.04  -0.04     0.03  -0.08   0.01
    11   8    -0.09   0.06  -0.07     0.03   0.12   0.08     0.08  -0.07  -0.02
    12   6    -0.02   0.10   0.17     0.02  -0.02  -0.01     0.04   0.06  -0.02
    13   6    -0.03   0.01  -0.15     0.08  -0.03   0.03    -0.08   0.05   0.02
    14   8    -0.06  -0.24  -0.09    -0.01   0.02   0.01    -0.00  -0.01   0.05
    15   8     0.07   0.07  -0.12    -0.07  -0.01   0.01     0.06  -0.07  -0.00
    16   1    -0.15   0.19  -0.16     0.45  -0.21   0.07    -0.80   0.15  -0.05
    17   6     0.00   0.09   0.21    -0.03  -0.06  -0.04     0.12   0.12  -0.02
    18   9    -0.04   0.07   0.29     0.01  -0.00  -0.03    -0.02  -0.04  -0.03
    19   9    -0.10  -0.03   0.29     0.06   0.07  -0.07    -0.17  -0.21  -0.01
    20   9     0.25   0.23  -0.13    -0.05  -0.09  -0.03    -0.00   0.13   0.22
    21   9    -0.12  -0.26  -0.27    -0.01   0.05   0.10     0.14   0.03  -0.19
                     28                     29                     30
                      A                      A                      A
 Frequencies --    557.8684               573.0238               604.8357
 Red. masses --      2.5656                 2.4701                15.6399
 Frc consts  --      0.4704                 0.4779                 3.3710
 IR Inten    --    103.3055                18.4143                 3.3345
  Atom  AN      X      Y      Z        X      Y      Z        X      Y      Z
     1   6     0.02   0.01   0.02    -0.01   0.00  -0.04     0.07   0.06  -0.22
     2   9     0.01   0.04  -0.00    -0.01  -0.04   0.03    -0.05  -0.05   0.26
     3   9    -0.02   0.00   0.02     0.02  -0.02  -0.04     0.02  -0.22  -0.32
     4   9    -0.02  -0.02  -0.01     0.02   0.05  -0.00    -0.04   0.34  -0.08
     5   6     0.03  -0.04  -0.01    -0.03   0.03   0.01     0.05  -0.13   0.16
     6   9    -0.01  -0.01   0.06     0.01   0.00  -0.05     0.01  -0.27   0.21
     7   9     0.02   0.03  -0.04    -0.02  -0.02   0.05    -0.08   0.18   0.10
     8   9    -0.01   0.05  -0.12    -0.02  -0.01   0.11    -0.03  -0.02  -0.13
     9   9    -0.05   0.03   0.11     0.04  -0.05  -0.07     0.03   0.06   0.04
    10   6     0.04  -0.07  -0.04    -0.03   0.05   0.04     0.09  -0.04  -0.05
    11   8     0.05  -0.10  -0.02    -0.05   0.05  -0.05     0.14   0.13  -0.11
    12   6     0.06  -0.04   0.03    -0.03   0.04  -0.02     0.11   0.03  -0.06
    13   6     0.08  -0.04  -0.02    -0.00   0.00   0.02     0.11   0.01   0.07
    14   8     0.00  -0.02  -0.03     0.03   0.00   0.03    -0.05   0.03   0.07
    15   8    -0.07   0.05  -0.02    -0.07  -0.02  -0.00    -0.03  -0.06  -0.00
    16   1     0.91  -0.25   0.06     0.86  -0.39   0.11    -0.31  -0.11   0.04
    17   6     0.02  -0.01   0.01     0.02   0.05   0.01    -0.06  -0.04   0.11
    18   9    -0.03   0.02   0.07    -0.02  -0.01  -0.04    -0.09  -0.04  -0.12
    19   9    -0.03   0.01   0.01    -0.03  -0.07   0.01     0.07   0.05   0.19
    20   9    -0.03   0.01  -0.01     0.03   0.07   0.07     0.06   0.03  -0.13
    21   9     0.01   0.03  -0.03     0.06  -0.02  -0.06    -0.18  -0.07   0.00
                     31                     32                     33
                      A                      A                      A
 Frequencies --    611.1439               656.6657               670.3760
 Red. masses --     13.3405                10.4702                14.6791
 Frc consts  --      2.9357                 2.6601                 3.8867
 IR Inten    --      2.4359                40.5664                 0.7903
  Atom  AN      X      Y      Z        X      Y      Z        X      Y      Z
     1   6    -0.02   0.02  -0.11    -0.01   0.04  -0.02    -0.13  -0.02  -0.03
     2   9    -0.03  -0.09   0.09     0.04   0.00   0.04    -0.12  -0.19  -0.07
     3   9     0.06  -0.09  -0.13     0.00  -0.05  -0.01     0.11   0.02  -0.00
     4   9     0.03   0.17  -0.04    -0.01   0.08  -0.06     0.11   0.04   0.02
     5   6    -0.06   0.05   0.11    -0.06  -0.05   0.04    -0.08   0.26   0.09
     6   9     0.03  -0.10  -0.04     0.02  -0.11   0.07     0.04   0.14  -0.29
     7   9    -0.04   0.05   0.21     0.01   0.06   0.06    -0.04   0.00   0.40
     8   9    -0.02  -0.08   0.03     0.12  -0.12  -0.20    -0.04  -0.05  -0.16
     9   9     0.02   0.09  -0.12    -0.00   0.17  -0.01    -0.12   0.06   0.03
    10   6    -0.03   0.07  -0.03    -0.09  -0.02  -0.12     0.07  -0.02  -0.05
    11   8    -0.13  -0.07  -0.10    -0.06  -0.05   0.36     0.14  -0.22   0.17
    12   6     0.07  -0.05   0.18    -0.27   0.01   0.01     0.08  -0.21  -0.06
    13   6     0.11  -0.05  -0.09    -0.41   0.07  -0.08     0.08  -0.19  -0.00
    14   8    -0.06  -0.10  -0.10     0.14  -0.01  -0.04     0.02   0.14  -0.12
    15   8     0.05   0.11  -0.07     0.04  -0.00   0.06    -0.04   0.00   0.16
    16   1    -0.31   0.36  -0.17     0.57  -0.03   0.03    -0.12   0.34  -0.01
    17   6     0.09  -0.05  -0.15    -0.05   0.08  -0.06     0.08  -0.04   0.08
    18   9     0.02   0.03   0.43     0.14   0.04  -0.06    -0.01   0.05  -0.18
    19   9    -0.10   0.04  -0.24     0.02  -0.05  -0.14    -0.04   0.01   0.19
    20   9    -0.15  -0.14   0.09     0.06   0.01   0.08    -0.05   0.08  -0.05
    21   9     0.21   0.17   0.01     0.03  -0.07   0.06    -0.00   0.04  -0.09
                     34                     35                     36
                      A                      A                      A
 Frequencies --    702.8599               748.3326               774.5324
 Red. masses --     10.3953                14.6064                13.6382
 Frc consts  --      3.0257                 4.8193                 4.8204
 IR Inten    --     20.5230                60.6395                 5.8620
  Atom  AN      X      Y      Z        X      Y      Z        X      Y      Z
     1   6    -0.09   0.02  -0.00    -0.30   0.17   0.02    -0.08   0.04   0.00
     2   9    -0.06  -0.11  -0.05     0.01  -0.25  -0.08    -0.02  -0.08  -0.03
     3   9     0.05   0.01   0.05     0.03   0.03   0.38     0.00   0.02   0.12
     4   9     0.06   0.03  -0.01     0.11   0.26  -0.28     0.03   0.08  -0.08
     5   6    -0.06   0.12   0.03    -0.27  -0.11  -0.06    -0.03  -0.04  -0.02
     6   9     0.03   0.11  -0.15     0.07  -0.08   0.12     0.01  -0.05   0.06
     7   9    -0.00   0.00   0.18     0.10  -0.01  -0.13     0.02  -0.01  -0.07
     8   9     0.01   0.00  -0.18     0.10  -0.00  -0.07    -0.02   0.01   0.09
     9   9    -0.03  -0.11   0.16     0.07  -0.08   0.10    -0.00   0.07  -0.08
    10   6     0.03  -0.14  -0.03    -0.23  -0.06  -0.05     0.01   0.03   0.01
    11   8     0.09   0.03  -0.06    -0.11   0.16   0.04     0.02  -0.07   0.03
    12   6     0.01   0.23   0.02    -0.02  -0.02   0.00     0.04  -0.01   0.01
    13   6    -0.01   0.34   0.06     0.33  -0.14   0.04    -0.33   0.30  -0.00
    14   8    -0.06  -0.17   0.25    -0.09   0.04  -0.04     0.06  -0.09   0.16
    15   8     0.06   0.02  -0.28    -0.05   0.01   0.02     0.10   0.04  -0.15
    16   1     0.01  -0.59   0.05    -0.26   0.11  -0.01     0.19  -0.36   0.05
    17   6    -0.11   0.04  -0.05    -0.01   0.01  -0.00     0.21  -0.20   0.09
    18   9    -0.01  -0.07   0.05     0.00  -0.00  -0.04    -0.02   0.01  -0.09
    19   9     0.05  -0.00  -0.12    -0.01  -0.01  -0.00    -0.06   0.08   0.34
    20   9     0.07  -0.06   0.02     0.00   0.06   0.02    -0.18  -0.29  -0.18
    21   9    -0.10  -0.06   0.10     0.05   0.00  -0.02     0.19   0.19  -0.17
                     37                     38                     39
                      A                      A                      A
 Frequencies --    789.6567               812.7221              1008.6350
 Red. masses --     12.1647                16.2876                13.5324
 Frc consts  --      4.4692                 6.3386                 8.1113
 IR Inten    --      8.8053                22.8950               148.0121
  Atom  AN      X      Y      Z        X      Y      Z        X      Y      Z
     1   6     0.05  -0.02  -0.00     0.13  -0.06  -0.00     0.24  -0.06   0.02
     2   9     0.05   0.08   0.03     0.14   0.20   0.09    -0.22  -0.15  -0.08
     3   9    -0.01  -0.01  -0.06    -0.01  -0.05  -0.22    -0.05   0.05   0.13
     4   9    -0.02  -0.04   0.03    -0.06  -0.16   0.14    -0.02   0.12  -0.08
     5   6    -0.03  -0.02  -0.01    -0.15   0.01  -0.01     0.66   0.07   0.10
     6   9    -0.00  -0.04   0.03     0.03   0.08  -0.08    -0.08  -0.02  -0.01
     7   9     0.00   0.00  -0.02     0.01   0.03   0.12    -0.08  -0.01  -0.02
     8   9     0.01  -0.02   0.07     0.15  -0.07  -0.24    -0.00  -0.07  -0.12
     9   9    -0.02   0.17  -0.14     0.09  -0.22   0.24    -0.03  -0.10   0.07
    10   6    -0.10   0.08  -0.01    -0.33  -0.08  -0.09     0.27   0.15   0.06
    11   8    -0.15  -0.35   0.24    -0.29   0.34   0.06    -0.25   0.09   0.02
    12   6    -0.07  -0.13   0.04    -0.17   0.01   0.03    -0.31  -0.06   0.05
    13   6     0.47   0.14   0.13     0.16  -0.04   0.03     0.10  -0.02   0.02
    14   8    -0.15  -0.05   0.20    -0.05   0.01   0.01    -0.02   0.01   0.02
    15   8     0.02   0.15  -0.27    -0.01   0.02  -0.02     0.00   0.04  -0.04
    16   1    -0.31  -0.33   0.01    -0.15  -0.00   0.00    -0.04   0.03  -0.03
    17   6    -0.03   0.03  -0.02     0.07  -0.08   0.04    -0.07   0.02  -0.01
    18   9     0.03   0.00  -0.20     0.03   0.00  -0.07     0.04   0.01  -0.03
    19   9    -0.00  -0.02  -0.01    -0.03   0.02   0.17     0.01  -0.01   0.04
    20   9     0.01   0.10   0.04    -0.08  -0.11  -0.07    -0.00  -0.02  -0.00
    21   9     0.02  -0.02  -0.01     0.23   0.10  -0.12     0.11   0.01  -0.03
                     40                     41                     42
                      A                      A                      A
 Frequencies --   1052.4116              1101.7239              1160.2790
 Red. masses --     13.3673                11.0441                13.3964
 Frc consts  --      8.7230                 7.8982                10.6258
 IR Inten    --     82.3445                80.7029               244.3578
  Atom  AN      X      Y      Z        X      Y      Z        X      Y      Z
     1   6    -0.01   0.03  -0.01     0.02  -0.04  -0.00    -0.41   0.13  -0.01
     2   9    -0.00  -0.00  -0.00    -0.00   0.00  -0.00     0.10   0.06   0.03
     3   9     0.00  -0.00  -0.00    -0.01   0.01   0.02     0.08  -0.05  -0.11
     4   9     0.00  -0.01   0.01    -0.00   0.02  -0.01     0.05  -0.11   0.07
     5   6    -0.02  -0.01  -0.01     0.05  -0.04  -0.05    -0.15   0.53   0.16
     6   9     0.01   0.01  -0.01    -0.01   0.00   0.00     0.01  -0.20   0.11
     7   9    -0.00   0.00   0.01    -0.01   0.01   0.03     0.05  -0.11  -0.20
     8   9    -0.01   0.02   0.01     0.00  -0.01   0.00    -0.03  -0.06  -0.10
     9   9    -0.01   0.12  -0.09     0.00  -0.04   0.02    -0.05  -0.11   0.06
    10   6     0.04  -0.17   0.10    -0.09   0.13  -0.03     0.31   0.30   0.07
    11   8     0.08  -0.17   0.04     0.07  -0.07  -0.06     0.08   0.00  -0.05
    12   6    -0.28   0.63  -0.18     0.05   0.24   0.73    -0.22  -0.06   0.12
    13   6     0.26  -0.04  -0.05     0.05   0.07  -0.13     0.02  -0.02   0.00
    14   8    -0.04  -0.01  -0.12     0.00  -0.07  -0.16    -0.00  -0.00   0.00
    15   8    -0.11  -0.14   0.16    -0.03  -0.02   0.15     0.01   0.03  -0.02
    16   1    -0.04   0.08   0.04    -0.12  -0.29   0.27    -0.05  -0.04   0.02
    17   6    -0.23   0.25  -0.03     0.11  -0.01  -0.00    -0.11   0.03  -0.04
    18   9     0.04  -0.06   0.07    -0.04  -0.05  -0.27     0.01  -0.00  -0.01
    19   9     0.04  -0.03   0.15    -0.03   0.02  -0.07     0.01  -0.00   0.03
    20   9    -0.00  -0.25  -0.07    -0.00  -0.05  -0.01     0.00  -0.01  -0.00
    21   9     0.14   0.02  -0.05    -0.04  -0.01   0.02     0.06   0.00  -0.01
                     43                     44                     45
                      A                      A                      A
 Frequencies --   1185.8700              1202.9811              1211.7666
 Red. masses --     12.2109                10.5942                11.4817
 Frc consts  --     10.1175                 9.0331                 9.9333
 IR Inten    --    263.9034                49.1280               129.6969
  Atom  AN      X      Y      Z        X      Y      Z        X      Y      Z
     1   6    -0.01  -0.37   0.01    -0.00  -0.25  -0.23     0.02   0.11  -0.38
     2   9     0.06   0.07   0.02     0.04   0.06   0.03     0.02   0.01   0.03
     3   9    -0.02   0.04   0.05    -0.03   0.04   0.10    -0.04   0.03   0.12
     4   9    -0.02   0.12  -0.07    -0.00   0.03  -0.00     0.01  -0.09   0.08
     5   6     0.02  -0.15  -0.07     0.07   0.17   0.04    -0.03  -0.12  -0.16
     6   9    -0.02   0.03  -0.02    -0.00  -0.05   0.03     0.02   0.03   0.00
     7   9    -0.02   0.03   0.06    -0.02  -0.03  -0.05    -0.03   0.03   0.07
     8   9     0.00  -0.02   0.01     0.04  -0.10  -0.21     0.01  -0.03  -0.14
     9   9     0.00  -0.13   0.09     0.01  -0.03  -0.01     0.02   0.12  -0.11
    10   6    -0.26   0.50  -0.15    -0.21   0.25   0.41    -0.04  -0.15   0.54
    11   8     0.37  -0.10  -0.07    -0.14  -0.10   0.06     0.18   0.10  -0.13
    12   6    -0.20  -0.08  -0.05     0.32   0.13  -0.23    -0.23  -0.14   0.19
    13   6    -0.04  -0.14   0.07     0.02   0.14  -0.07    -0.04  -0.16   0.07
    14   8    -0.00   0.03   0.07     0.01  -0.02  -0.06    -0.00   0.03   0.07
    15   8     0.03   0.05  -0.10    -0.03  -0.07   0.11     0.04   0.08  -0.12
    16   1     0.05   0.24  -0.20    -0.12  -0.35   0.27     0.13   0.27  -0.22
    17   6    -0.08   0.22  -0.10     0.16  -0.01   0.04    -0.05  -0.05  -0.13
    18   9     0.01  -0.00   0.08    -0.02  -0.00   0.05     0.01   0.00  -0.03
    19   9     0.01  -0.02   0.08    -0.01   0.00  -0.03     0.00   0.00   0.05
    20   9    -0.01  -0.08  -0.02    -0.01  -0.00  -0.00     0.01   0.04   0.02
    21   9     0.02  -0.01   0.00    -0.09  -0.01   0.02     0.03   0.00   0.00
                     46                     47                     48
                      A                      A                      A
 Frequencies --   1221.4604              1223.2204              1246.7204
 Red. masses --     12.2450                 5.5035                 2.4848
 Frc consts  --     10.7639                 4.8518                 2.2755
 IR Inten    --     53.1546               368.3084                42.7352
  Atom  AN      X      Y      Z        X      Y      Z        X      Y      Z
     1   6     0.03   0.08  -0.16     0.01   0.07   0.08    -0.05  -0.13  -0.00
     2   9    -0.01  -0.01   0.01    -0.02  -0.02  -0.01     0.03   0.03   0.01
     3   9     0.01  -0.01   0.02     0.00  -0.01  -0.03     0.00   0.01   0.01
     4   9    -0.01  -0.01   0.02     0.01  -0.02   0.00    -0.00   0.03  -0.02
     5   6    -0.07  -0.22   0.77     0.04   0.13  -0.18     0.00   0.02   0.05
     6   9     0.01   0.17  -0.16    -0.00  -0.07   0.05    -0.00   0.01  -0.01
     7   9     0.04  -0.06  -0.22    -0.00   0.00   0.04     0.00  -0.01  -0.02
     8   9    -0.01  -0.02  -0.02     0.01   0.00   0.00    -0.00  -0.00  -0.00
     9   9     0.02   0.03  -0.01    -0.00  -0.01   0.01    -0.00   0.01  -0.00
    10   6    -0.02   0.00  -0.03     0.01  -0.02  -0.00     0.03  -0.02  -0.00
    11   8    -0.00   0.00  -0.00    -0.08   0.00   0.02    -0.05  -0.02   0.02
    12   6    -0.05   0.03   0.05     0.01   0.11  -0.00     0.09   0.14   0.05
    13   6     0.00  -0.08   0.03    -0.01  -0.15   0.07    -0.04  -0.08   0.04
    14   8    -0.01   0.01   0.03    -0.01   0.03   0.07    -0.00   0.02   0.07
    15   8     0.00   0.01  -0.04     0.00  -0.00  -0.09    -0.00  -0.04  -0.07
    16   1     0.11   0.18  -0.14     0.30   0.60  -0.43     0.30   0.73  -0.50
    17   6     0.25   0.16  -0.14     0.38   0.21  -0.12    -0.11  -0.15   0.03
    18   9     0.00  -0.01  -0.01     0.00  -0.01  -0.02    -0.01  -0.01  -0.04
    19   9    -0.01  -0.01   0.04    -0.02  -0.01   0.03     0.00   0.01  -0.02
    20   9    -0.02  -0.06  -0.01    -0.03  -0.08  -0.01     0.02   0.04   0.01
    21   9    -0.10  -0.03   0.04    -0.15  -0.04   0.05     0.04   0.02  -0.02
                     49                     50                     51
                      A                      A                      A
 Frequencies --   1252.7725              1257.0057              1266.8840
 Red. masses --      9.6947                12.9711                12.8175
 Frc consts  --      8.9646                12.0754                12.1207
 IR Inten    --    307.7891                15.7344               802.4285
  Atom  AN      X      Y      Z        X      Y      Z        X      Y      Z
     1   6     0.24   0.50  -0.22    -0.13  -0.20  -0.38     0.04   0.07   0.59
     2   9    -0.11  -0.11  -0.03     0.09   0.08   0.05    -0.05  -0.05  -0.06
     3   9    -0.03  -0.02   0.05    -0.03   0.05   0.13     0.05  -0.06  -0.19
     4   9     0.00  -0.16   0.10     0.01  -0.01   0.04    -0.01   0.07  -0.09
     5   6     0.05   0.06   0.01    -0.01  -0.03  -0.03    -0.03  -0.05   0.09
     6   9     0.00  -0.07   0.03     0.00   0.00   0.00    -0.00   0.05  -0.04
     7   9    -0.00  -0.01  -0.01    -0.01   0.03   0.05     0.02  -0.04  -0.07
     8   9     0.02  -0.01   0.01    -0.02   0.03   0.07     0.02  -0.05  -0.14
     9   9     0.01  -0.07   0.05    -0.02   0.00   0.01     0.02   0.06  -0.07
    10   6    -0.26   0.24  -0.13     0.23  -0.12  -0.15    -0.16   0.02   0.42
    11   8     0.08  -0.10   0.02    -0.06   0.05   0.01     0.10   0.01  -0.06
    12   6     0.14   0.09  -0.05    -0.06  -0.10   0.02    -0.01  -0.07   0.03
    13   6    -0.04  -0.05   0.02     0.03  -0.03   0.01    -0.02  -0.08   0.02
    14   8     0.00   0.01   0.05    -0.01   0.02   0.02    -0.00   0.02   0.05
    15   8     0.00  -0.03  -0.04     0.00   0.01  -0.02     0.02   0.03  -0.05
    16   1     0.13   0.42  -0.28     0.02   0.06  -0.05     0.06   0.12  -0.10
    17   6    -0.15  -0.00   0.22     0.09   0.34   0.64    -0.01   0.15   0.45
    18   9    -0.01  -0.01  -0.00    -0.01   0.02  -0.05    -0.02   0.01  -0.03
    19   9     0.00   0.00  -0.07    -0.03  -0.01  -0.24    -0.02   0.00  -0.17
    20   9     0.01  -0.02  -0.02    -0.03  -0.16  -0.09    -0.01  -0.08  -0.05
    21   9     0.05   0.02  -0.03     0.02  -0.02  -0.04     0.03  -0.00  -0.04
                     52                     53                     54
                      A                      A                      A
 Frequencies --   1329.6212              1346.9805              1377.9066
 Red. masses --      7.7178                12.2719                10.1332
 Frc consts  --      8.0389                13.1185                11.3354
 IR Inten    --    251.8931               149.5384                35.3822
  Atom  AN      X      Y      Z        X      Y      Z        X      Y      Z
     1   6     0.10   0.02   0.02    -0.46   0.05  -0.02     0.42  -0.25  -0.03
     2   9    -0.01  -0.01  -0.01     0.06   0.04   0.02    -0.08  -0.02  -0.02
     3   9    -0.01   0.00   0.00     0.05  -0.02  -0.05    -0.05   0.04   0.07
     4   9    -0.01   0.00  -0.01     0.04  -0.04   0.03    -0.03   0.07  -0.04
     5   6    -0.16  -0.09  -0.05     0.56   0.11   0.09    -0.17   0.48   0.12
     6   9     0.01   0.02  -0.01    -0.04  -0.01  -0.00     0.01  -0.10   0.05
     7   9     0.01   0.01   0.02    -0.04  -0.01  -0.01     0.03  -0.06  -0.09
     8   9    -0.00  -0.02  -0.04     0.03   0.04   0.05     0.00   0.04   0.05
     9   9    -0.01  -0.02   0.01     0.04   0.06  -0.03     0.02   0.06  -0.03
    10   6     0.16   0.07   0.08    -0.43  -0.28  -0.07    -0.17  -0.29  -0.07
    11   8    -0.14   0.03   0.02     0.02   0.03  -0.01     0.09   0.04  -0.02
    12   6     0.29  -0.22   0.11     0.19  -0.14   0.06     0.05  -0.05   0.09
    13   6    -0.00   0.17  -0.05    -0.04   0.01   0.01    -0.07  -0.14   0.06
    14   8     0.00  -0.02   0.01     0.01  -0.00  -0.00     0.01   0.02  -0.02
    15   8    -0.03  -0.09   0.03     0.01   0.01  -0.01     0.04   0.10  -0.04
    16   1     0.23   0.52  -0.31     0.01  -0.01   0.00    -0.15  -0.38   0.22
    17   6    -0.28   0.39  -0.17    -0.17   0.22  -0.09    -0.11   0.11  -0.04
    18   9    -0.02   0.01  -0.04    -0.01   0.01  -0.02    -0.01  -0.00  -0.02
    19   9     0.03  -0.03   0.10     0.02  -0.02   0.05     0.01  -0.01   0.02
    20   9     0.00  -0.10  -0.02     0.00  -0.05  -0.01     0.00  -0.03  -0.01
    21   9     0.06  -0.02  -0.00     0.03  -0.01  -0.00     0.03  -0.00  -0.01
                     55                     56                     57
                      A                      A                      A
 Frequencies --   1394.9850              1915.5859              3848.2629
 Red. masses --      3.9845                11.1555                 1.0652
 Frc consts  --      4.5684                24.1180                 9.2945
 IR Inten    --    171.5522               266.5632               119.0948
  Atom  AN      X      Y      Z        X      Y      Z        X      Y      Z
     1   6     0.05  -0.04  -0.01    -0.00   0.00   0.00     0.00   0.00   0.00
     2   9    -0.01  -0.00  -0.00     0.00  -0.00  -0.00    -0.00  -0.00  -0.00
     3   9    -0.01   0.01   0.01     0.00  -0.00  -0.00    -0.00  -0.00  -0.00
     4   9    -0.00   0.01  -0.00     0.00  -0.00  -0.00    -0.00   0.00  -0.00
     5   6     0.00   0.10   0.03    -0.00  -0.00   0.00     0.00   0.00   0.00
     6   9    -0.00  -0.02   0.01     0.00   0.00  -0.00    -0.00  -0.00  -0.00
     7   9     0.00  -0.01  -0.02     0.00  -0.00  -0.00     0.00  -0.00  -0.00
     8   9     0.00   0.01   0.02     0.00  -0.00  -0.01    -0.00  -0.00  -0.00
     9   9     0.01   0.01  -0.01     0.00  -0.00  -0.00    -0.00  -0.00  -0.00
    10   6    -0.10  -0.06  -0.02    -0.01   0.01   0.02     0.00   0.00   0.00
    11   8     0.10   0.02  -0.03     0.02   0.01  -0.01    -0.00  -0.00  -0.00
    12   6    -0.16  -0.13  -0.00    -0.02  -0.01  -0.01     0.00   0.00   0.00
    13   6     0.13   0.29  -0.11    -0.03   0.21   0.74     0.00  -0.00  -0.00
    14   8    -0.02  -0.03   0.03     0.01  -0.16  -0.46    -0.00   0.00   0.00
    15   8    -0.07  -0.16   0.08     0.00  -0.02  -0.06    -0.00  -0.03  -0.05
    16   1     0.29   0.71  -0.40     0.14   0.32  -0.20     0.07   0.46   0.88
    17   6     0.09  -0.06   0.03     0.02  -0.01   0.03    -0.00   0.00   0.00
    18   9     0.01   0.01   0.02    -0.00  -0.00  -0.01    -0.00  -0.00  -0.00
    19   9    -0.01   0.01  -0.02    -0.00  -0.00  -0.01    -0.00  -0.00  -0.00
    20   9    -0.01   0.03   0.00    -0.00   0.00  -0.00     0.00  -0.00  -0.00
    21   9    -0.02  -0.00   0.00    -0.00   0.00  -0.00     0.00  -0.00  -0.00

 -------------------
 - Thermochemistry -
 -------------------
 Temperature   298.150 Kelvin.  Pressure   1.00000 Atm.
 Atom     1 has atomic number  6 and mass  12.00000
 Atom     2 has atomic number  9 and mass  18.99840
 Atom     3 has atomic number  9 and mass  18.99840
 Atom     4 has atomic number  9 and mass  18.99840
 Atom     5 has atomic number  6 and mass  12.00000
 Atom     6 has atomic number  9 and mass  18.99840
 Atom     7 has atomic number  9 and mass  18.99840
 Atom     8 has atomic number  9 and mass  18.99840
 Atom     9 has atomic number  9 and mass  18.99840
 Atom    10 has atomic number  6 and mass  12.00000
 Atom    11 has atomic number  8 and mass  15.99491
 Atom    12 has atomic number  6 and mass  12.00000
 Atom    13 has atomic number  6 and mass  12.00000
 Atom    14 has atomic number  8 and mass  15.99491
 Atom    15 has atomic number  8 and mass  15.99491
 Atom    16 has atomic number  1 and mass   1.00783
 Atom    17 has atomic number  6 and mass  12.00000
 Atom    18 has atomic number  9 and mass  18.99840
 Atom    19 has atomic number  9 and mass  18.99840
 Atom    20 has atomic number  9 and mass  18.99840
 Atom    21 has atomic number  9 and mass  18.99840
 Molecular mass:   329.97500 amu.
 Principal axes and moments of inertia in atomic units:
                           1         2         3
     Eigenvalues --  2645.538238241.522978883.75075
           X            0.99996   0.00856  -0.00233
           Y           -0.00860   0.99981  -0.01758
           Z            0.00218   0.01760   0.99984
 This molecule is an asymmetric top.
 Rotational symmetry number  1.
 Warning -- assumption of classical behavior for rotation
           may cause significant error
 Rotational temperatures (Kelvin)      0.03274     0.01051     0.00975
 Rotational constants (GHZ):           0.68218     0.21898     0.20315
 Zero-point vibrational energy     246598.1 (Joules/Mol)
                                   58.93837 (Kcal/Mol)
 Warning -- explicit consideration of  31 degrees of freedom as
           vibrations may cause significant error
 Vibrational temperatures:     30.41    39.35    65.09    85.60    96.52
          (Kelvin)            102.97   149.79   190.63   214.42   257.24
                              313.62   332.36   353.01   376.03   413.38
                              427.44   464.40   485.34   496.17   531.35
                              545.07   572.15   639.15   741.16   759.77
                              780.50   782.45   802.65   824.45   870.22
                              879.30   944.80   964.52  1011.26  1076.68
                             1114.38  1136.14  1169.33  1451.20  1514.19
                             1585.13  1669.38  1706.20  1730.82  1743.46
                             1757.41  1759.94  1793.75  1802.46  1808.55
                             1822.76  1913.03  1938.00  1982.50  2007.07
                             2756.10  5536.79
 
 Zero-point correction=                           0.093924 (Hartree/Particle)
 Thermal correction to Energy=                    0.112147
 Thermal correction to Enthalpy=                  0.113091
 Thermal correction to Gibbs Free Energy=         0.045042
 Sum of electronic and zero-point Energies=          -1553.161379
 Sum of electronic and thermal Energies=             -1553.143156
 Sum of electronic and thermal Enthalpies=           -1553.142212
 Sum of electronic and thermal Free Energies=        -1553.210261
 
                     E (Thermal)             CV                S
                      KCal/Mol        Cal/Mol-Kelvin    Cal/Mol-Kelvin
 Total                   70.373             64.368            143.222
 Electronic               0.000              0.000              0.000
 Translational            0.889              2.981             43.277
 Rotational               0.889              2.981             33.626
 Vibrational             68.596             58.406             66.319
 Vibration     1          0.593              1.985              6.524
 Vibration     2          0.593              1.984              6.013
 Vibration     3          0.595              1.979              5.015
 Vibration     4          0.597              1.974              4.474
 Vibration     5          0.598              1.970              4.237
 Vibration     6          0.598              1.968              4.110
 Vibration     7          0.605              1.946              3.376
 Vibration     8          0.613              1.921              2.910
 Vibration     9          0.618              1.904              2.685
 Vibration    10          0.629              1.868              2.341
 Vibration    11          0.646              1.814              1.976
 Vibration    12          0.653              1.794              1.871
 Vibration    13          0.660              1.770              1.764
 Vibration    14          0.669              1.743              1.653
 Vibration    15          0.684              1.697              1.490
 Vibration    16          0.691              1.679              1.433
 Vibration    17          0.708              1.630              1.296
 Vibration    18          0.718              1.601              1.225
 Vibration    19          0.723              1.586              1.190
 Vibration    20          0.742              1.535              1.083
 Vibration    21          0.749              1.515              1.044
 Vibration    22          0.764              1.475              0.971
 Vibration    23          0.804              1.374              0.813
 Vibration    24          0.870              1.216              0.621
 Vibration    25          0.883              1.188              0.592
 Vibration    26          0.898              1.156              0.560
 Vibration    27          0.899              1.153              0.557
 Vibration    28          0.913              1.122              0.528
 Vibration    29          0.929              1.090              0.498
 Vibration    30          0.963              1.022              0.441
 Vibration    31          0.970              1.008              0.431
                       Q            Log10(Q)             Ln(Q)
 Total Bot       0.191484D-20        -20.717868        -47.704654
 Total V=0       0.304969D+23         22.484256         51.771913
 Vib (Bot)       0.163137D-35        -35.787448        -82.403645
 Vib (Bot)    1  0.979854D+01          0.991161          2.282233
 Vib (Bot)    2  0.757230D+01          0.879228          2.024496
 Vib (Bot)    3  0.457168D+01          0.660075          1.519880
 Vib (Bot)    4  0.347114D+01          0.540472          1.244483
 Vib (Bot)    5  0.307550D+01          0.487916          1.123468
 Vib (Bot)    6  0.288109D+01          0.459557          1.058169
 Vib (Bot)    7  0.196965D+01          0.294390          0.677858
 Vib (Bot)    8  0.153773D+01          0.186881          0.430310
 Vib (Bot)    9  0.136098D+01          0.133852          0.308206
 Vib (Bot)   10  0.112383D+01          0.050700          0.116740
 Vib (Bot)   11  0.908212D+00         -0.041813         -0.096277
 Vib (Bot)   12  0.852265D+00         -0.069425         -0.159858
 Vib (Bot)   13  0.797211D+00         -0.098427         -0.226636
 Vib (Bot)   14  0.742669D+00         -0.129205         -0.297505
 Vib (Bot)   15  0.666566D+00         -0.176157         -0.405616
 Vib (Bot)   16  0.641178D+00         -0.193021         -0.444448
 Vib (Bot)   17  0.581431D+00         -0.235502         -0.542263
 Vib (Bot)   18  0.551389D+00         -0.258542         -0.595314
 Vib (Bot)   19  0.536778D+00         -0.270206         -0.622172
 Vib (Bot)   20  0.493202D+00         -0.306975         -0.706836
 Vib (Bot)   21  0.477647D+00         -0.320893         -0.738883
 Vib (Bot)   22  0.448977D+00         -0.347776         -0.800783
 Vib (Bot)   23  0.387829D+00         -0.411359         -0.947190
 Vib (Bot)   24  0.314740D+00         -0.502048         -1.156009
 Vib (Bot)   25  0.303400D+00         -0.517984         -1.192702
 Vib (Bot)   26  0.291374D+00         -0.535549         -1.233147
 Vib (Bot)   27  0.290272D+00         -0.537194         -1.236935
 Vib (Bot)   28  0.279178D+00         -0.554119         -1.275905
 Vib (Bot)   29  0.267781D+00         -0.572220         -1.317584
 Vib (Bot)   30  0.245647D+00         -0.609688         -1.403858
 Vib (Bot)   31  0.241523D+00         -0.617041         -1.420789
 Vib (V=0)       0.259822D+08          7.414676         17.072922
 Vib (V=0)    1  0.103113D+02          1.013313          2.333239
 Vib (V=0)    2  0.808879D+01          0.907883          2.090479
 Vib (V=0)    3  0.509894D+01          0.707480          1.629032
 Vib (V=0)    4  0.400696D+01          0.602816          1.388034
 Vib (V=0)    5  0.361588D+01          0.558214          1.285335
 Vib (V=0)    6  0.342415D+01          0.534553          1.230855
 Vib (V=0)    7  0.253213D+01          0.403485          0.929059
 Vib (V=0)    8  0.211698D+01          0.325717          0.749991
 Vib (V=0)    9  0.194992D+01          0.290017          0.667789
 Vib (V=0)   10  0.173004D+01          0.238055          0.548142
 Vib (V=0)   11  0.153675D+01          0.186603          0.429669
 Vib (V=0)   12  0.148811D+01          0.172634          0.397505
 Vib (V=0)   13  0.144103D+01          0.158674          0.365361
 Vib (V=0)   14  0.139530D+01          0.144667          0.333108
 Vib (V=0)   15  0.133325D+01          0.124912          0.287622
 Vib (V=0)   16  0.131309D+01          0.118293          0.272380
 Vib (V=0)   17  0.126685D+01          0.102726          0.236535
 Vib (V=0)   18  0.124433D+01          0.094936          0.218599
 Vib (V=0)   19  0.123357D+01          0.091165          0.209915
 Vib (V=0)   20  0.120232D+01          0.080019          0.184250
 Vib (V=0)   21  0.119148D+01          0.076087          0.175198
 Vib (V=0)   22  0.117200D+01          0.068927          0.158709
 Vib (V=0)   23  0.113278D+01          0.054146          0.124675
 Vib (V=0)   24  0.109081D+01          0.037751          0.086924
 Vib (V=0)   25  0.108485D+01          0.035370          0.081443
 Vib (V=0)   26  0.107870D+01          0.032903          0.075761
 Vib (V=0)   27  0.107815D+01          0.032679          0.075247
 Vib (V=0)   28  0.107266D+01          0.030462          0.070142
 Vib (V=0)   29  0.106719D+01          0.028243          0.065031
 Vib (V=0)   30  0.105708D+01          0.024110          0.055514
 Vib (V=0)   31  0.105528D+01          0.023367          0.053804
 Electronic      0.100000D+01          0.000000          0.000000
 Translational   0.235600D+09          8.372175         19.277646
 Rotational      0.498201D+07          6.697405         15.421344
 ***** Axes restored to original set *****
 -------------------------------------------------------------------
 Center     Atomic                   Forces (Hartrees/Bohr)
 Number     Number              X              Y              Z
 -------------------------------------------------------------------
      1        6          -0.000000045   -0.000001037   -0.000003860
      2        9           0.000000204   -0.000001147   -0.000000029
      3        9           0.000002123   -0.000000468    0.000001520
      4        9          -0.000000553   -0.000000861    0.000001077
      5        6           0.000004682   -0.000003126   -0.000008744
      6        9           0.000001078    0.000000591   -0.000000647
      7        9           0.000001151   -0.000003885    0.000004062
      8        9          -0.000016516    0.000021853   -0.000003782
      9        9          -0.000009577    0.000012626   -0.000003912
     10        6          -0.000015112   -0.000038716    0.000001046
     11        8           0.000066116   -0.000013727   -0.000003648
     12        6          -0.000027291    0.000024612    0.000044832
     13        6          -0.000049146    0.000000191   -0.000026140
     14        8           0.000038839   -0.000013843   -0.000026348
     15        8           0.000000878    0.000047464   -0.000018908
     16        1           0.000003279   -0.000035617    0.000082925
     17        6          -0.000010420    0.000001761   -0.000021273
     18        9           0.000001095    0.000001369   -0.000022955
     19        9           0.000002646   -0.000006887    0.000005593
     20        9           0.000000523    0.000006164   -0.000001987
     21        9           0.000006045    0.000002681    0.000001180
 -------------------------------------------------------------------
 Cartesian Forces:  Max     0.000082925 RMS     0.000021228
 FormGI is forming the generalized inverse of G from B-inverse, IUseBI=4.

 GradGradGradGradGradGradGradGradGradGradGradGradGradGradGradGradGradGrad
 Berny optimization.
 Internal  Forces:  Max     0.000088034 RMS     0.000015885
 Search for a local minimum.
 Step number   1 out of a maximum of    2
 All quantities printed in internal units (Hartrees-Bohrs-Radians)
 Second derivative matrix not updated -- analytic derivatives used.
 ITU=  0
     Eigenvalues ---    0.00118   0.00216   0.00378   0.00561   0.00572
     Eigenvalues ---    0.01609   0.01814   0.04900   0.05304   0.06232
     Eigenvalues ---    0.08581   0.08848   0.08924   0.09662   0.10331
     Eigenvalues ---    0.10812   0.10938   0.11521   0.12015   0.14848
     Eigenvalues ---    0.15849   0.16919   0.17554   0.19385   0.20323
     Eigenvalues ---    0.20906   0.21603   0.22143   0.22463   0.22969
     Eigenvalues ---    0.23354   0.23824   0.24332   0.24930   0.25332
     Eigenvalues ---    0.26477   0.29162   0.31378   0.33189   0.33923
     Eigenvalues ---    0.36674   0.37279   0.37697   0.38297   0.38553
     Eigenvalues ---    0.39392   0.39543   0.41198   0.42208   0.46832
     Eigenvalues ---    0.47878   0.50051   0.53890   0.54889   0.56055
     Eigenvalues ---    0.56333   0.96622
 Angle between quadratic step and forces=  77.86 degrees.
 Linear search not attempted -- first point.
 Iteration  1 RMS(Cart)=  0.00181103 RMS(Int)=  0.00000119
 Iteration  2 RMS(Cart)=  0.00000269 RMS(Int)=  0.00000001
 Iteration  3 RMS(Cart)=  0.00000000 RMS(Int)=  0.00000001
 Variable       Old X    -DE/DX   Delta X   Delta X   Delta X     New X
                                 (Linear)    (Quad)   (Total)
    R1        2.50663   0.00000   0.00000   0.00001   0.00001   2.50664
    R2        2.50361  -0.00000   0.00000  -0.00001  -0.00001   2.50359
    R3        2.50838   0.00000   0.00000   0.00000   0.00000   2.50838
    R4        2.93605   0.00000   0.00000   0.00001   0.00001   2.93606
    R5        2.52703  -0.00000   0.00000  -0.00001  -0.00001   2.52703
    R6        2.52992   0.00001   0.00000   0.00001   0.00001   2.52993
    R7        2.93792   0.00001   0.00000  -0.00000  -0.00000   2.93792
    R8        2.50898   0.00001   0.00000   0.00009   0.00009   2.50906
    R9        2.53366   0.00001   0.00000   0.00008   0.00008   2.53373
   R10        2.59570  -0.00003   0.00000  -0.00019  -0.00019   2.59552
   R11        2.59418   0.00004   0.00000   0.00024   0.00024   2.59442
   R12        2.94471  -0.00000   0.00000   0.00005   0.00005   2.94476
   R13        2.93100   0.00000   0.00000   0.00001   0.00001   2.93101
   R14        2.59494  -0.00002   0.00000  -0.00012  -0.00012   2.59483
   R15        2.24372   0.00002   0.00000   0.00001   0.00001   2.24373
   R16        2.50408   0.00005   0.00000   0.00007   0.00007   2.50416
   R17        1.82007   0.00009   0.00000   0.00016   0.00016   1.82024
   R18        2.49403  -0.00001   0.00000  -0.00003  -0.00003   2.49400
   R19        2.50424  -0.00001   0.00000   0.00001   0.00001   2.50425
   R20        2.52115  -0.00000   0.00000   0.00000   0.00000   2.52116
    A1        1.89982  -0.00000   0.00000  -0.00000  -0.00000   1.89981
    A2        1.89917   0.00000   0.00000   0.00000   0.00000   1.89917
    A3        1.89619  -0.00000   0.00000  -0.00002  -0.00002   1.89617
    A4        1.90394  -0.00000   0.00000   0.00001   0.00001   1.90395
    A5        1.93361   0.00000   0.00000   0.00002   0.00002   1.93363
    A6        1.93055  -0.00000   0.00000  -0.00001  -0.00001   1.93054
    A7        1.88397  -0.00000   0.00000  -0.00001  -0.00001   1.88397
    A8        1.88328  -0.00000   0.00000  -0.00001  -0.00001   1.88327
    A9        2.01392   0.00000   0.00000  -0.00003  -0.00003   2.01389
   A10        1.90843   0.00000   0.00000   0.00000   0.00000   1.90843
   A11        1.89023   0.00000   0.00000   0.00004   0.00004   1.89027
   A12        1.88240  -0.00000   0.00000   0.00000   0.00000   1.88240
   A13        1.91819   0.00002   0.00000   0.00003   0.00003   1.91822
   A14        1.91374   0.00002   0.00000   0.00009   0.00009   1.91383
   A15        1.86873   0.00001   0.00000  -0.00014  -0.00014   1.86859
   A16        1.89084  -0.00002   0.00000  -0.00019  -0.00019   1.89065
   A17        1.92493  -0.00001   0.00000   0.00032   0.00032   1.92525
   A18        1.94751  -0.00001   0.00000  -0.00011  -0.00011   1.94740
   A19        2.11929  -0.00003   0.00000  -0.00008  -0.00008   2.11921
   A20        2.00689  -0.00001   0.00000   0.00018   0.00018   2.00707
   A21        1.84139  -0.00000   0.00000  -0.00002  -0.00002   1.84137
   A22        1.92401   0.00001   0.00000  -0.00021  -0.00021   1.92380
   A23        1.92798   0.00001   0.00000  -0.00004  -0.00004   1.92794
   A24        1.90561  -0.00000   0.00000   0.00001   0.00001   1.90562
   A25        1.85106   0.00000   0.00000   0.00007   0.00007   1.85113
   A26        2.10394  -0.00003   0.00000  -0.00007  -0.00007   2.10387
   A27        2.01033  -0.00001   0.00000  -0.00006  -0.00006   2.01027
   A28        2.16850   0.00004   0.00000   0.00013   0.00013   2.16863
   A29        1.93417   0.00002   0.00000   0.00004   0.00004   1.93421
   A30        1.94121   0.00001   0.00000   0.00004   0.00004   1.94125
   A31        1.92067  -0.00001   0.00000  -0.00003  -0.00003   1.92064
   A32        1.89611  -0.00001   0.00000  -0.00002  -0.00002   1.89609
   A33        1.90584  -0.00000   0.00000  -0.00002  -0.00002   1.90581
   A34        1.90303   0.00000   0.00000   0.00004   0.00004   1.90306
   A35        1.89636   0.00000   0.00000  -0.00000  -0.00000   1.89636
    D1       -1.06707   0.00000   0.00000  -0.00039  -0.00039  -1.06746
    D2        0.99362  -0.00000   0.00000  -0.00040  -0.00040   0.99322
    D3        3.09956  -0.00000   0.00000  -0.00042  -0.00042   3.09914
    D4        1.01907   0.00000   0.00000  -0.00040  -0.00040   1.01867
    D5        3.07976  -0.00000   0.00000  -0.00040  -0.00040   3.07936
    D6       -1.09748  -0.00000   0.00000  -0.00043  -0.00043  -1.09791
    D7        3.13261   0.00000   0.00000  -0.00038  -0.00038   3.13223
    D8       -1.08988  -0.00000   0.00000  -0.00038  -0.00038  -1.09027
    D9        1.01606   0.00000   0.00000  -0.00041  -0.00041   1.01565
   D10        0.99181   0.00000   0.00000  -0.00041  -0.00041   0.99140
   D11       -1.08484   0.00000   0.00000  -0.00025  -0.00025  -1.08510
   D12        3.08274   0.00000   0.00000  -0.00009  -0.00009   3.08265
   D13       -1.12136   0.00000   0.00000  -0.00041  -0.00041  -1.12177
   D14        3.08517   0.00000   0.00000  -0.00025  -0.00025   3.08492
   D15        0.96957  -0.00000   0.00000  -0.00009  -0.00009   0.96947
   D16        3.09823  -0.00000   0.00000  -0.00044  -0.00044   3.09780
   D17        1.02158   0.00000   0.00000  -0.00028  -0.00028   1.02130
   D18       -1.09403  -0.00000   0.00000  -0.00012  -0.00012  -1.09414
   D19        2.36285   0.00001   0.00000   0.00366   0.00366   2.36651
   D20       -1.83374   0.00003   0.00000   0.00379   0.00379  -1.82995
   D21        0.26873  -0.00001   0.00000   0.00370   0.00370   0.27243
   D22        0.81298  -0.00001   0.00000  -0.00220  -0.00220   0.81078
   D23        2.94188  -0.00001   0.00000  -0.00216  -0.00216   2.93972
   D24       -1.35001  -0.00001   0.00000  -0.00218  -0.00218  -1.35220
   D25        0.80430  -0.00002   0.00000   0.00066   0.00066   0.80496
   D26       -2.36721   0.00001   0.00000   0.00102   0.00102  -2.36619
   D27       -1.27708  -0.00001   0.00000   0.00059   0.00059  -1.27649
   D28        1.83460   0.00001   0.00000   0.00095   0.00095   1.83555
   D29        2.97699  -0.00002   0.00000   0.00052   0.00052   2.97751
   D30       -0.19452   0.00000   0.00000   0.00089   0.00089  -0.19364
   D31       -1.04087   0.00001   0.00000   0.00039   0.00039  -1.04048
   D32        1.07347   0.00001   0.00000   0.00037   0.00037   1.07384
   D33       -3.13553   0.00000   0.00000   0.00033   0.00033  -3.13520
   D34        1.13814   0.00000   0.00000   0.00057   0.00057   1.13872
   D35       -3.03070  -0.00000   0.00000   0.00055   0.00055  -3.03015
   D36       -0.95652  -0.00000   0.00000   0.00052   0.00052  -0.95601
   D37       -3.08224   0.00000   0.00000   0.00060   0.00060  -3.08164
   D38       -0.96790   0.00000   0.00000   0.00058   0.00058  -0.96732
   D39        1.10628  -0.00000   0.00000   0.00054   0.00054   1.10682
   D40        0.07325  -0.00001   0.00000  -0.00037  -0.00037   0.07288
   D41       -3.09951   0.00001   0.00000   0.00001   0.00001  -3.09950
         Item               Value     Threshold  Converged?
 Maximum Force            0.000088     0.000450     YES
 RMS     Force            0.000016     0.000300     YES
 Maximum Displacement     0.005624     0.001800     NO 
 RMS     Displacement     0.001811     0.001200     NO 
 Predicted change in Energy=-1.315533D-07
                           ----------------------------
                           ! Non-Optimized Parameters !
                           ! (Angstroms and Degrees)  !
 --------------------------                            --------------------------
 ! Name  Definition              Value          Derivative Info.                !
 --------------------------------------------------------------------------------
 ! R1    R(1,2)                  1.3265         -DE/DX =    0.0                 !
 ! R2    R(1,3)                  1.3248         -DE/DX =    0.0                 !
 ! R3    R(1,4)                  1.3274         -DE/DX =    0.0                 !
 ! R4    R(1,5)                  1.5537         -DE/DX =    0.0                 !
 ! R5    R(5,6)                  1.3372         -DE/DX =    0.0                 !
 ! R6    R(5,7)                  1.3388         -DE/DX =    0.0                 !
 ! R7    R(5,10)                 1.5547         -DE/DX =    0.0                 !
 ! R8    R(8,10)                 1.3277         -DE/DX =    0.0                 !
 ! R9    R(9,10)                 1.3408         -DE/DX =    0.0                 !
 ! R10   R(10,11)                1.3735         -DE/DX =    0.0                 !
 ! R11   R(11,12)                1.3729         -DE/DX =    0.0                 !
 ! R12   R(12,13)                1.5583         -DE/DX =    0.0                 !
 ! R13   R(12,17)                1.551          -DE/DX =    0.0                 !
 ! R14   R(12,18)                1.3731         -DE/DX =    0.0                 !
 ! R15   R(13,14)                1.1873         -DE/DX =    0.0                 !
 ! R16   R(13,15)                1.3251         -DE/DX =    0.0001              !
 ! R17   R(15,16)                0.9632         -DE/DX =    0.0001              !
 ! R18   R(17,19)                1.3198         -DE/DX =    0.0                 !
 ! R19   R(17,20)                1.3252         -DE/DX =    0.0                 !
 ! R20   R(17,21)                1.3341         -DE/DX =    0.0                 !
 ! A1    A(2,1,3)              108.8513         -DE/DX =    0.0                 !
 ! A2    A(2,1,4)              108.8145         -DE/DX =    0.0                 !
 ! A3    A(2,1,5)              108.6426         -DE/DX =    0.0                 !
 ! A4    A(3,1,4)              109.0883         -DE/DX =    0.0                 !
 ! A5    A(3,1,5)              110.7886         -DE/DX =    0.0                 !
 ! A6    A(4,1,5)              110.6117         -DE/DX =    0.0                 !
 ! A7    A(1,5,6)              107.9434         -DE/DX =    0.0                 !
 ! A8    A(1,5,7)              107.9037         -DE/DX =    0.0                 !
 ! A9    A(1,5,10)             115.3875         -DE/DX =    0.0                 !
 ! A10   A(6,5,7)              109.3449         -DE/DX =    0.0                 !
 ! A11   A(6,5,10)             108.3045         -DE/DX =    0.0                 !
 ! A12   A(7,5,10)             107.8538         -DE/DX =    0.0                 !
 ! A13   A(5,10,8)             109.9059         -DE/DX =    0.0                 !
 ! A14   A(5,10,9)             109.6542         -DE/DX =    0.0                 !
 ! A15   A(5,10,11)            107.0622         -DE/DX =    0.0                 !
 ! A16   A(8,10,9)             108.3262         -DE/DX =    0.0                 !
 ! A17   A(8,10,11)            110.3089         -DE/DX =    0.0                 !
 ! A18   A(9,10,11)            111.578          -DE/DX =    0.0                 !
 ! A19   A(10,11,12)           121.4218         -DE/DX =    0.0                 !
 ! A20   A(11,12,13)           114.9965         -DE/DX =    0.0                 !
 ! A21   A(11,12,17)           105.5029         -DE/DX =    0.0                 !
 ! A22   A(11,12,18)           110.2257         -DE/DX =    0.0                 !
 ! A23   A(13,12,17)           110.4628         -DE/DX =    0.0                 !
 ! A24   A(13,12,18)           109.184          -DE/DX =    0.0                 !
 ! A25   A(17,12,18)           106.0622         -DE/DX =    0.0                 !
 ! A26   A(12,13,14)           120.5427         -DE/DX =    0.0                 !
 ! A27   A(12,13,15)           115.1801         -DE/DX =    0.0                 !
 ! A28   A(14,13,15)           124.2536         -DE/DX =    0.0                 !
 ! A29   A(13,15,16)           110.822          -DE/DX =    0.0                 !
 ! A30   A(12,17,19)           111.2253         -DE/DX =    0.0                 !
 ! A31   A(12,17,20)           110.0443         -DE/DX =    0.0                 !
 ! A32   A(12,17,21)           108.638          -DE/DX =    0.0                 !
 ! A33   A(19,17,20)           109.1951         -DE/DX =    0.0                 !
 ! A34   A(19,17,21)           109.0375         -DE/DX =    0.0                 !
 ! A35   A(20,17,21)           108.6532         -DE/DX =    0.0                 !
 ! D1    D(2,1,5,6)            -61.1609         -DE/DX =    0.0                 !
 ! D2    D(2,1,5,7)             56.9075         -DE/DX =    0.0                 !
 ! D3    D(2,1,5,10)           177.5678         -DE/DX =    0.0                 !
 ! D4    D(3,1,5,6)             58.3657         -DE/DX =    0.0                 !
 ! D5    D(3,1,5,7)            176.4341         -DE/DX =    0.0                 !
 ! D6    D(3,1,5,10)           -62.9055         -DE/DX =    0.0                 !
 ! D7    D(4,1,5,6)            179.4638         -DE/DX =    0.0                 !
 ! D8    D(4,1,5,7)            -62.4677         -DE/DX =    0.0                 !
 ! D9    D(4,1,5,10)            58.1926         -DE/DX =    0.0                 !
 ! D10   D(1,5,10,8)            56.8032         -DE/DX =    0.0                 !
 ! D11   D(1,5,10,9)           -62.1714         -DE/DX =    0.0                 !
 ! D12   D(1,5,10,11)          176.6227         -DE/DX =    0.0                 !
 ! D13   D(6,5,10,8)           -64.2727         -DE/DX =    0.0                 !
 ! D14   D(6,5,10,9)           176.7527         -DE/DX =    0.0                 !
 ! D15   D(6,5,10,11)           55.5468         -DE/DX =    0.0                 !
 ! D16   D(7,5,10,8)           177.4907         -DE/DX =    0.0                 !
 ! D17   D(7,5,10,9)            58.516          -DE/DX =    0.0                 !
 ! D18   D(7,5,10,11)          -62.6898         -DE/DX =    0.0                 !
 ! D19   D(5,10,11,12)         135.5911         -DE/DX =    0.0                 !
 ! D20   D(8,10,11,12)        -104.8482         -DE/DX =    0.0                 !
 ! D21   D(9,10,11,12)          15.6093         -DE/DX =    0.0                 !
 ! D22   D(10,11,12,13)         46.454          -DE/DX =    0.0                 !
 ! D23   D(10,11,12,17)        168.4335         -DE/DX =    0.0                 !
 ! D24   D(10,11,12,18)        -77.4751         -DE/DX =    0.0                 !
 ! D25   D(11,12,13,14)         46.1206         -DE/DX =    0.0                 !
 ! D26   D(11,12,13,15)       -135.5727         -DE/DX =    0.0                 !
 ! D27   D(17,12,13,14)        -73.1375         -DE/DX =    0.0                 !
 ! D28   D(17,12,13,15)        105.1692         -DE/DX =    0.0                 !
 ! D29   D(18,12,13,14)        170.5987         -DE/DX =    0.0                 !
 ! D30   D(18,12,13,15)        -11.0946         -DE/DX =    0.0                 !
 ! D31   D(11,12,17,19)        -59.6151         -DE/DX =    0.0                 !
 ! D32   D(11,12,17,20)         61.5265         -DE/DX =    0.0                 !
 ! D33   D(11,12,17,21)       -179.6339         -DE/DX =    0.0                 !
 ! D34   D(13,12,17,19)         65.2436         -DE/DX =    0.0                 !
 ! D35   D(13,12,17,20)       -173.6148         -DE/DX =    0.0                 !
 ! D36   D(13,12,17,21)        -54.7752         -DE/DX =    0.0                 !
 ! D37   D(18,12,17,19)       -176.565          -DE/DX =    0.0                 !
 ! D38   D(18,12,17,20)        -55.4233         -DE/DX =    0.0                 !
 ! D39   D(18,12,17,21)         63.4163         -DE/DX =    0.0                 !
 ! D40   D(12,13,15,16)          4.176          -DE/DX =    0.0                 !
 ! D41   D(14,13,15,16)       -177.5884         -DE/DX =    0.0                 !
 --------------------------------------------------------------------------------
 GradGradGradGradGradGradGradGradGradGradGradGradGradGradGradGradGradGrad


 ----------------------------------------------------------------------

 Electric dipole moment (input orientation):
 (Debye = 10**-18 statcoulomb cm , SI units = C m)
                  (au)            (Debye)         (10**-30 SI)
   Tot        0.958359D+00      0.243591D+01      0.812531D+01
   x          0.161779D-01      0.411201D-01      0.137162D+00
   y         -0.153322D+00     -0.389707D+00     -0.129992D+01
   z          0.945877D+00      0.240418D+01      0.801948D+01

 Dipole polarizability, Alpha (input orientation).
 (esu units = cm**3 , SI units = C**2 m**2 J**-1)
 Alpha(0;0):
               (au)            (10**-24 esu)      (10**-40 SI)
   iso        0.882394D+02      0.130757D+02      0.145487D+02
   aniso      0.111936D+02      0.165872D+01      0.184557D+01
   xx         0.941064D+02      0.139451D+02      0.155161D+02
   yx        -0.266650D+01     -0.395134D+00     -0.439646D+00
   yy         0.843376D+02      0.124975D+02      0.139054D+02
   zx        -0.276520D+01     -0.409761D+00     -0.455921D+00
   zy        -0.505002D+00     -0.748336D-01     -0.832636D-01
   zz         0.862744D+02      0.127845D+02      0.142247D+02

 ----------------------------------------------------------------------

 Dipole orientation:
     6          6.13194633          0.11845049          0.17433580
     9          7.80184300         -1.41562862          1.24263082
     9          6.75866976          0.45043756         -2.22671649
     9          6.19715903          2.33184808          1.35271201
     6          3.46696389         -1.09330001          0.39769886
     9          3.50822594         -3.29795728         -0.83667836
     9          3.00694505         -1.51412591          2.84959494
     9          1.68540519          1.06988563         -3.07965726
     9          1.08391028          2.69171580          0.62467299
     6          1.25598330          0.52036259         -0.66955505
     8         -0.90397075         -0.90098015         -0.44141736
     6         -3.11235022          0.12787896          0.44980234
     6         -3.84304104          2.72254267         -0.73557825
     8         -3.73223994          3.03408005         -2.95479649
     8         -4.63320316          4.45315108          0.89263114
     1         -4.50674605          3.83926973          2.60138248
     6         -5.18528751         -1.87002450         -0.09980300
     9         -3.01310471          0.36766882          3.03173688
     9         -5.34888104         -2.35320736         -2.54110876
     9         -4.67818293         -3.99311752          1.12761426
     9         -7.39930595         -0.97832205          0.71211244

 Electric dipole moment (dipole orientation):
 (Debye = 10**-18 statcoulomb cm , SI units = C m)
                  (au)            (Debye)         (10**-30 SI)
   Tot        0.958359D+00      0.243591D+01      0.812531D+01
   x          0.000000D+00      0.000000D+00      0.000000D+00
   y          0.000000D+00      0.000000D+00      0.000000D+00
   z          0.958359D+00      0.243591D+01      0.812531D+01

 Dipole polarizability, Alpha (dipole orientation).
 (esu units = cm**3 , SI units = C**2 m**2 J**-1)
 Alpha(0;0):
               (au)            (10**-24 esu)      (10**-40 SI)
   iso        0.882394D+02      0.130757D+02      0.145487D+02
   aniso      0.111936D+02      0.165872D+01      0.184557D+01
   xx         0.941903D+02      0.139576D+02      0.155299D+02
   yx        -0.305769D+01     -0.453103D+00     -0.504145D+00
   yy         0.842193D+02      0.124800D+02      0.138859D+02
   zx        -0.217096D+01     -0.321703D+00     -0.357943D+00
   zy        -0.228061D+00     -0.337951D-01     -0.376022D-01
   zz         0.863088D+02      0.127896D+02      0.142304D+02

 ----------------------------------------------------------------------
 1\1\GINC-CCLEARTI\Freq\RwB97XD\6-311+G(2d,2p)\C6H1F11O3\RAPPE\05-Jul-2
 022\0\\#N Geom=AllCheck Guess=TCheck SCRF=Check GenChk RwB97XD/6-311+G
 (2d,2p) Freq\\Title Card Required\\0,1\C,3.246063418,0.0515250025,0.04
 63045443\F,4.1380475982,-0.8390584683,0.4594663885\F,3.5564538943,0.42
 86660579,-1.1852209644\F,3.2926859201,1.1080023273,0.8485563977\C,1.83
 7141437,-0.6022725327,0.0841829431\F,1.8463608996,-1.6493666251,-0.747
 5285595\F,1.6153448663,-1.030004037,1.3332531258\F,0.8650091742,0.8208
 024605,-1.5329371593\F,0.5810145537,1.3539412098,0.5444555677\C,0.6589
 355861,0.329404911,-0.3168641149\O,-0.4828833089,-0.4339163455,-0.2987
 474919\C,-1.642638563,0.0264800729,0.2735536543\C,-2.0379707792,1.4816
 592277,-0.1193609006\O,-1.9989458827,1.8323530075,-1.2530398111\O,-2.4
 402571309,2.247248329,0.8846000313\H,-2.3585258404,1.782008769,1.72395
 39618\C,-2.7457790123,-0.9721074467,-0.1641220703\F,-1.5668908482,-0.0
 667785534,1.6414728471\F,-2.8544921763,-1.0179396797,-1.4786238423\F,-
 2.4680318809,-2.1846762627,0.2926681036\F,-3.9093249246,-0.5766464239,
 0.3551983489\\Version=EM64M-G16RevA.03\State=1-A\HF=-1553.2553033\RMSD
 =2.669e-09\RMSF=2.123e-05\ZeroPoint=0.0939243\Thermal=0.112147\Dipole=
 0.0161779,-0.1533225,0.9458766\DipoleDeriv=1.5867678,-0.206298,0.02618
 78,-0.0060984,1.5172954,-0.0022925,-0.0100596,-0.003597,1.5769538,-0.7
 78489,0.3306582,-0.1528955,0.2593889,-0.5366757,0.1222814,-0.1527423,0
 .1368083,-0.3146115,-0.4179578,-0.0726383,0.2033386,-0.0802081,-0.3152
 316,0.1838864,0.1318679,0.151119,-0.7699903,-0.3781374,-0.0895328,-0.0
 627633,-0.0427982,-0.6609564,-0.3021456,-0.0101314,-0.2848872,-0.47311
 28,0.6412727,0.0172601,-0.0774336,-0.0975281,0.945174,0.1089155,-0.045
 0441,0.0950499,1.1429677,-0.3239572,0.006089,-0.0036738,0.0497808,-0.6
 333401,-0.3318356,0.0115014,-0.2400842,-0.4436783,-0.3489088,-0.012764
 3,0.0867042,-0.0200093,-0.3211595,0.2358271,0.058436,0.1491453,-0.7301
 188,-0.429219,0.0235394,0.0609701,-0.0793549,-0.3311112,0.2491528,0.20
 26582,0.1923686,-0.7138504,-0.4667842,0.0808346,0.0392578,-0.0227411,-
 0.5877254,-0.2628615,-0.022417,-0.2321596,-0.4252625,1.8377713,0.0763,
 -0.1899366,0.3039336,1.2041621,-0.0915022,-0.1666518,-0.012246,1.33455
 71,-1.7840223,-0.0524756,0.2995072,-0.0876917,-0.4952287,0.0049741,0.2
 331025,0.0107033,-0.4317133,1.1970398,-0.1216056,-0.1362831,-0.2251888
 ,0.3326287,0.0068362,-0.4385506,-0.0217418,1.0505317,0.4293052,-0.3423
 117,-0.2708108,-0.3252134,1.0885114,0.2274973,-0.2024386,0.0667233,1.6
 262695,-0.3799152,0.0987643,0.0044816,0.0850632,-0.5794975,0.2397691,0
 .0532709,0.0990643,-0.9736057,-0.4164891,0.1621612,0.2717055,0.2381057
 ,-0.644996,-0.4821829,0.2153664,-0.2785416,-0.9846284,0.3420281,-0.021
 3054,-0.0320089,-0.0262292,0.3398593,0.0431891,-0.041785,0.0651953,0.3
 762424,1.5979794,0.0531233,-0.0748878,-0.0201591,1.6141027,-0.0704407,
 0.0046032,0.0281052,1.4913293,-0.352844,0.026609,-0.0640243,0.0468943,
 -0.3485843,0.0659459,0.1352884,0.0484563,-0.8631584,-0.3290006,-0.0592
 962,-0.1134351,-0.0599659,-0.3051202,-0.0906831,-0.0802381,-0.0535073,
 -0.8186757,-0.3388191,-0.0018106,-0.0340807,0.060108,-0.9131475,0.2028
 391,-0.0573258,0.1657862,-0.315556,-0.8876207,0.1046993,0.2200807,0.04
 9912,-0.3689593,-0.05717,0.1812895,-0.0817602,-0.3408893\Polar=94.1064
 039,-2.6664968,84.3375506,-2.7652045,-0.5050022,86.2743642\Quadrupole=
 1.0877969,-2.3567081,1.2689113,1.4862342,-4.230068,3.9390173\PG=C01 [X
 (C6H1F11O3)]\NImag=0\\0.59310060,0.01870663,0.55983800,-0.00291714,-0.
 00029910,0.55967209,-0.20644918,0.08660460,-0.04584438,0.22896549,0.09
 521066,-0.14818209,0.03699077,-0.15696686,0.23269311,-0.04901154,0.035
 89404,-0.09275251,0.07112468,-0.07126797,0.11465712,-0.11200323,-0.029
 24712,0.06312086,0.01515064,0.01783230,-0.03109227,0.09427596,-0.02921
 640,-0.09880017,0.05957278,0.00976913,-0.02035239,0.04860708,0.0184134
 0,0.10752275,0.07254139,0.06492611,-0.24508171,-0.01844265,0.04228373,
 -0.04203987,-0.07490024,-0.09214084,0.38050405,-0.09111923,-0.03014264
 ,-0.01694733,0.00449527,0.04256058,0.01546109,0.01375204,0.00991854,0.
 01354659,0.07838268,-0.03651500,-0.21566658,-0.09658913,0.03016545,-0.
 06652168,-0.01915788,0.00585376,0.01234899,-0.02422072,0.00537009,0.29
 569851,-0.02358370,-0.10069548,-0.14413380,0.00952151,-0.01029885,0.01
 505774,0.00677711,-0.03857768,-0.07270773,0.00851065,0.16454769,0.2053
 0723,-0.17141000,-0.02722246,-0.00699918,-0.04164368,0.00457595,-0.007
 22709,0.00289268,-0.00455558,0.00210900,0.00947482,0.00365605,0.005069
 78,0.54594307,-0.05988674,-0.07800878,0.00554786,0.04395652,-0.0063582
 6,0.00883411,-0.00573427,0.00149863,0.00177454,-0.02058538,-0.01961575
 ,-0.01244696,0.00663686,0.57531085,0.00293591,0.00932287,-0.03884938,-
 0.01953252,0.00363772,-0.00165048,0.03369677,0.01844496,-0.02552230,-0
 .01856606,-0.02594862,-0.01009366,-0.00195603,-0.01010882,0.53716483,0
 .00585790,-0.02498851,-0.01770571,0.00231709,-0.00151512,0.00040775,-0
 .00051276,0.00006749,0.00013578,-0.00692358,-0.00760132,-0.00370124,-0
 .08022542,-0.00128887,-0.00257951,0.06847043,0.00937654,-0.03106858,-0
 .02697490,-0.00365932,0.00544982,0.00154499,-0.00197563,0.00145350,0.0
 0284941,-0.00813214,-0.00543597,-0.00195795,-0.00298379,-0.24003794,-0
 .09568929,-0.00038846,0.28676030,0.00234337,-0.01549440,-0.01324724,-0
 .00034185,0.00098812,0.00179584,-0.00211251,0.00078493,0.00604176,-0.0
 0319048,-0.00233009,0.00034740,-0.00430344,-0.10990637,-0.13150139,-0.
 00214595,0.16880530,0.20374301,0.00009740,-0.01178150,0.03483178,0.001
 70666,-0.00157240,0.00095317,-0.00906027,-0.00489370,0.00576880,-0.000
 74069,-0.00106114,-0.00211144,-0.08692665,-0.01811969,0.03302980,0.010
 10619,0.00387389,0.00763389,0.07903282,0.00270064,-0.00641466,0.025506
 75,-0.00191485,0.00289480,-0.00317076,-0.00608141,-0.00213941,0.002567
 23,-0.00056299,0.00114653,-0.00018370,-0.01535802,-0.11330845,0.081737
 55,0.00570005,0.01866508,-0.03479059,0.01862545,0.10903287,0.00001360,
 0.00828771,-0.03223759,0.00148133,-0.00209677,0.00482999,0.00579617,0.
 00292758,-0.00063888,0.00143220,0.00293111,0.00621321,0.03393632,0.095
 82039,-0.24604321,0.00894916,-0.02166783,-0.06841637,-0.05330534,-0.10
 444302,0.36918291,0.00206606,-0.00176768,0.00460399,-0.00032787,0.0005
 9967,-0.00061529,-0.00622976,0.00184728,-0.00267415,-0.00033468,-0.000
 61915,-0.00103240,0.01102548,0.00464705,-0.01611192,-0.00025503,0.0014
 2484,0.00026662,-0.00289862,0.00536588,-0.00577682,0.08646990,-0.00208
 129,-0.00532503,0.00237806,0.00114829,0.00068938,-0.00024322,0.0017017
 1,0.00201005,-0.00201761,0.00037789,0.00124826,0.00005354,-0.00494267,
 -0.00171499,0.02786259,-0.00005255,0.00109693,-0.00041735,0.00482473,-
 0.00504610,0.00610077,0.02114667,0.12033651,0.00355520,0.00337787,-0.0
 0774228,-0.00124263,-0.00058134,0.00088736,-0.00106568,-0.00194210,0.0
 0530347,-0.00114617,0.00029753,0.00134343,0.00966617,0.00646914,-0.031
 66353,-0.00171112,0.00357758,0.00578456,-0.00569998,0.00551222,-0.0041
 0849,-0.04681878,-0.11389065,0.36677304,0.00339993,-0.00244810,-0.0010
 3738,-0.00072201,0.00063097,-0.00013928,-0.00063647,-0.00002784,0.0005
 7449,-0.00908404,0.00157796,-0.00044562,0.00838970,0.01634595,0.019449
 51,-0.00526047,0.00873079,0.00096510,-0.00002172,0.00104636,-0.0022725
 9,0.01083134,0.00270207,0.01263905,0.08655144,-0.00234431,-0.00799537,
 -0.00259177,0.00136234,0.00112387,0.00044047,0.00064337,0.00087001,0.0
 0054543,0.00061675,0.00478827,0.00236871,-0.00092967,-0.02351123,-0.03
 018390,0.00731100,-0.00809394,-0.00041171,0.00021379,0.00086221,0.0025
 4598,0.00177066,0.01700692,-0.01684598,-0.00872371,0.26316008,-0.00044
 140,-0.00379550,-0.00493992,0.00049665,0.00046767,0.00059365,0.0002493
 7,-0.00005084,0.00187656,-0.00154650,0.00275386,0.00247817,-0.00072960
 ,-0.00696632,-0.00813492,0.00154386,-0.00061400,0.00148412,-0.00048548
 ,0.00059778,0.00597547,0.01329273,-0.03355465,-0.07450287,-0.01330691,
 0.15561666,0.20970728,-0.03035072,0.01147974,-0.00983968,0.00336967,-0
 .00216963,0.00147596,0.00357872,-0.00032739,0.00045406,0.00278085,0.00
 119036,0.00195821,-0.14344328,0.06727087,-0.03448521,0.00511716,-0.008
 32057,0.00092345,0.00584191,-0.01158837,0.01182836,-0.08012805,0.00659
 215,-0.00031432,-0.08923425,0.02432709,0.01531775,0.56708097,0.0036233
 6,0.03542148,-0.00449728,-0.01086224,-0.00212493,-0.00134778,-0.001280
 31,-0.00513218,0.00417661,0.00088802,-0.00914000,-0.00311111,0.0365834
 0,-0.09758828,0.01969418,0.02042969,-0.03195963,-0.00789702,0.00771214
 ,-0.00720519,0.00996389,-0.00008245,-0.11442522,0.08809481,0.02299114,
 -0.20260852,-0.09091508,-0.03978013,0.54532651,-0.00628977,-0.00259280
 ,0.02147745,0.00344493,-0.00010363,-0.00164678,-0.00033502,0.00278696,
 -0.00871106,0.00269207,-0.00238922,-0.00416270,-0.02370238,0.02256954,
 -0.04583003,0.01633035,-0.03231644,-0.00779442,-0.01808523,0.02874783,
 -0.03776226,0.01213949,0.08369074,-0.24976446,0.00926597,-0.08252964,-
 0.13213812,-0.00448658,-0.00916420,0.53786990,0.00939485,0.01108231,-0
 .00125218,-0.00815101,0.00118974,-0.00159603,-0.00193956,-0.00117956,0
 .00110382,-0.00153003,-0.00227851,-0.00114263,-0.04903807,-0.03193806,
 0.00533236,-0.00088137,0.00333770,-0.00001873,0.00156123,0.00219536,-0
 .00303695,-0.02357228,-0.03769270,0.03805401,-0.00224756,-0.03192146,-
 0.01833562,-0.18325109,-0.04072389,-0.00713886,0.53142149,-0.00039421,
 -0.00501898,0.00088031,0.00106633,0.00064190,-0.00000736,0.00010961,0.
 00089735,-0.00084805,-0.00019115,0.00153324,0.00049382,0.00540345,0.00
 614541,0.00154479,0.00196616,0.00249568,0.00016804,0.00251388,0.001408
 57,0.00005052,-0.03140525,-0.00965289,0.02113271,-0.04005080,-0.042830
 54,-0.02321548,-0.03659576,-0.12834087,-0.01658668,0.04797207,0.287105
 55,-0.00060373,-0.00109583,-0.00208724,0.00088305,-0.00024058,0.000601
 12,0.00015943,-0.00021325,0.00092363,0.00001574,0.00063423,0.00065851,
 -0.00109034,0.00329540,-0.00054701,0.00035173,0.00215824,0.00185262,-0
 .00315560,-0.00240884,0.00419962,0.04092318,0.02702053,-0.01181616,-0.
 02298859,-0.02697768,0.00199732,0.01486657,-0.00974758,-0.06827874,-0.
 12732337,0.06288146,0.18723320,-0.00363783,-0.00116202,-0.00023829,0.0
 0192498,-0.00043090,0.00040103,0.00103604,0.00032320,-0.00027397,0.000
 98349,0.00061111,0.00037910,-0.00545975,-0.00029811,-0.00083452,0.0023
 6681,-0.00133030,-0.00006306,0.00203350,-0.00027687,0.00082306,0.00779
 567,0.00791639,-0.00740413,0.00310322,0.01159353,0.00591711,-0.0668005
 9,-0.01418866,0.01159707,-0.19928903,0.04260955,0.05639616,0.53315467,
 0.00117358,0.00175908,0.00012791,-0.00092840,0.00003933,-0.00017437,-0
 .00036738,-0.00026552,0.00015715,-0.00016688,-0.00056644,-0.00027879,-
 0.00081869,-0.00334350,-0.00040608,0.00032552,0.00071114,0.00054509,-0
 .00065451,0.00010145,-0.00037136,-0.00517507,-0.00761573,0.00597402,-0
 .00017690,-0.00439143,-0.00284717,-0.01180872,0.02364713,0.01136863,0.
 05427506,-0.11813967,-0.04204621,-0.01466646,0.50512249,0.00316648,0.0
 0404439,0.00073761,-0.00300866,0.00046703,-0.00078966,-0.00054307,-0.0
 0026669,-0.00030077,-0.00061896,-0.00124291,-0.00089319,-0.00553883,-0
 .00871177,0.00774204,-0.00048418,0.00020862,-0.00100916,0.00099675,0.0
 0129920,-0.00431238,-0.00198999,-0.00123299,0.00173636,-0.00149341,-0.
 00885294,-0.00863842,0.01694530,0.02747209,0.00147588,0.03622825,-0.03
 156935,-0.07598981,0.00449604,0.00934759,0.46667389,-0.00095483,0.0002
 9639,-0.00011783,0.00040686,-0.00021437,0.00012161,0.00021978,-0.00002
 911,0.00001187,0.00031714,-0.00007343,0.00002335,-0.00076564,0.0009159
 0,-0.00042030,0.00023597,-0.00081191,-0.00021017,0.00023458,-0.0004000
 8,0.00040068,0.00001678,-0.00040050,-0.00020516,-0.00158317,-0.0026714
 2,-0.00178899,-0.00145598,0.00865984,0.00129131,-0.01585625,0.03219744
 ,0.00201046,-0.09881477,-0.00026842,-0.01158808,0.26464522,0.00178150,
 0.00205533,0.00005813,-0.00101864,-0.00005930,-0.00017673,-0.00051350,
 -0.00039399,0.00027928,-0.00045546,-0.00079819,-0.00038836,0.00016939,
 -0.00163802,0.00046534,-0.00046754,-0.00011141,-0.00004432,-0.00053804
 ,0.00001166,-0.00022823,-0.00137004,-0.00256212,0.00228771,-0.00171050
 ,-0.00460342,-0.00156804,0.01189886,0.01157265,-0.00133655,-0.00385789
 ,-0.00666046,0.00088360,0.02277469,-0.14703577,0.02062279,-0.08574568,
 0.54981687,-0.00001291,-0.00047318,0.00190704,0.00001866,0.00014996,-0
 .00027356,0.00010599,0.00033352,-0.00095001,0.00002099,-0.00022407,-0.
 00048876,0.00035737,-0.00000319,0.00106880,0.00014957,-0.00021748,-0.0
 0055138,0.00011875,0.00066527,-0.00138886,-0.00101898,0.00416624,-0.00
 691207,-0.00122301,-0.00024923,-0.00448770,-0.00206943,-0.00858865,0.0
 1413278,0.02009669,-0.01487934,-0.00374683,-0.01316726,-0.00832390,-0.
 04995427,-0.07531402,-0.13135624,1.07342405,0.00070368,-0.00014896,0.0
 0023113,-0.00035262,0.00016753,-0.00011247,-0.00017268,0.00004341,-0.0
 0007153,-0.00017394,0.00001078,-0.00005643,0.00047184,-0.00066737,0.00
 024870,-0.00015839,0.00036621,0.00006258,-0.00014678,0.00029686,-0.000
 36518,-0.00251299,0.00153595,-0.00072719,-0.00152560,0.00098840,-0.001
 25908,0.00059228,-0.00308833,0.00229377,0.00328693,-0.00268432,-0.0020
 5181,0.01846734,0.00877435,-0.00300606,-0.07758638,0.00418561,0.017759
 86,0.04337585,-0.00075820,-0.00096017,0.00030082,0.00039905,0.00007676
 ,0.00001075,0.00026005,0.00023582,-0.00030097,0.00020135,0.00032315,0.
 00008643,-0.00021409,0.00040551,0.00016666,0.00023332,0.00004177,-0.00
 007152,0.00030850,0.00016150,-0.00024817,0.00121914,0.00170583,-0.0020
 3250,0.00035681,0.00213869,0.00006797,-0.00523326,-0.00614670,0.002231
 12,0.00528032,0.00001504,-0.00091583,-0.00085231,-0.00090277,0.0342805
 6,0.00614512,-0.18487163,0.22519462,-0.01165265,0.16677406,0.00019883,
 0.00037486,-0.00109308,-0.00008016,-0.00008336,0.00015106,-0.00013044,
 -0.00022653,0.00058126,-0.00006038,0.00008025,0.00025839,-0.00007845,-
 0.00015959,-0.00088005,-0.00010985,0.00020774,0.00038010,-0.00016591,-
 0.00039320,0.00090695,0.00060135,-0.00248100,0.00405216,-0.00026186,0.
 00003538,0.00184939,0.00211608,0.00445486,-0.00758626,-0.00559789,-0.0
 0084743,0.00551139,0.00749166,0.01994649,-0.02854925,0.01579363,0.2290
 6308,-0.73914562,-0.03675456,-0.23872171,0.86851704,0.00066572,-0.0000
 0785,0.00000645,-0.00034019,0.00012874,-0.00008616,-0.00015355,-0.0000
 1631,0.00003186,-0.00017303,-0.00000203,-0.00001003,0.00040166,-0.0004
 9007,0.00028192,-0.00020682,0.00029769,0.00005654,-0.00014705,0.000152
 66,-0.00020853,-0.00029871,-0.00006535,0.00043760,-0.00110963,0.001097
 89,0.00083230,0.00102253,-0.00055234,-0.00060067,-0.00243219,0.0004927
 2,-0.00038545,0.01469009,0.01567505,0.01234553,-0.08099556,0.07171536,
 0.04258524,0.01288104,-0.00340478,0.01907589,0.07858970,-0.00116178,-0
 .00119643,-0.00042655,0.00066603,-0.00000335,0.00017384,0.00030933,0.0
 0018019,0.00001564,0.00030216,0.00054873,0.00035077,-0.00038326,0.0008
 5627,-0.00058558,0.00035548,0.00014431,0.00016024,0.00035398,-0.000112
 85,0.00043044,0.00152195,0.00094378,-0.00051820,0.00058747,0.00305540,
 0.00193678,-0.00783348,-0.00605007,-0.00239536,0.01113417,-0.00731579,
 -0.00019042,0.01139332,-0.01923168,-0.02775947,0.06631969,-0.21272627,
 -0.06608322,-0.00550740,0.03418931,-0.01017085,-0.11913212,0.37580900,
 -0.00062794,-0.00041743,-0.00095772,0.00038293,-0.00008449,0.00021502,
 0.00010400,-0.00004751,0.00039413,0.00015367,0.00035257,0.00037109,-0.
 00027605,0.00058696,-0.00107102,0.00016543,0.00012682,0.00033415,0.000
 08653,-0.00037273,0.00091548,0.00114078,-0.00095595,0.00206680,0.00017
 397,0.00152886,0.00230447,-0.00292990,-0.00018704,-0.00581425,0.000755
 31,-0.00128170,0.00309885,0.00252023,-0.00080809,-0.01326034,0.0633683
 8,-0.12347240,-0.21005669,0.02573066,-0.02748329,-0.10070909,-0.046785
 11,-0.07863391,0.70025925,-0.00042546,0.00019578,0.00025748,0.00018887
 ,-0.00010298,0.00001290,0.00011629,0.00001832,-0.00013828,0.00010995,-
 0.00012439,-0.00010417,-0.00030291,0.00026436,0.00025271,0.00011289,-0
 .00032313,-0.00017341,0.00013133,-0.00004807,-0.00015728,0.00008385,0.
 00000984,-0.00062984,0.00023621,-0.00100326,-0.00108492,-0.00007878,0.
 00127098,0.00184830,-0.00014961,-0.00007366,-0.00077976,-0.00009308,0.
 00068415,0.00468174,-0.00392068,-0.01134312,0.01147956,0.00494276,0.00
 452867,0.00435589,-0.01917723,0.03619777,-0.04299622,0.01908644,0.0003
 2540,0.00045095,-0.00000672,-0.00014783,-0.00005074,-0.00001156,-0.000
 11357,-0.00010257,0.00008779,-0.00009363,-0.00018637,-0.00007890,0.000
 16846,-0.00004073,-0.00033880,-0.00009001,-0.00003884,0.00006061,-0.00
 021026,-0.00011839,0.00023818,-0.00023338,-0.00060724,0.00057669,-0.00
 016905,-0.00092991,-0.00019189,0.00185332,0.00240736,-0.00062224,-0.00
 284229,-0.00021662,0.00216797,0.00259111,-0.00243463,-0.01280237,-0.00
 724288,0.01879900,-0.02016250,0.00494498,-0.00311295,-0.00888760,0.030
 80696,-0.16185446,0.22657304,-0.02910938,0.14971441,0.00040118,0.00018
 421,0.00019653,-0.00023307,0.00005502,-0.00008021,-0.00007825,-0.00001
 298,-0.00005812,-0.00010905,-0.00010543,-0.00010726,0.00016968,-0.0003
 5507,0.00044324,-0.00013590,0.00007180,-0.00006089,-0.00007788,0.00012
 408,-0.00029276,-0.00032474,-0.00007165,0.00020467,-0.00048844,0.00000
 709,-0.00007424,0.00159972,0.00035995,-0.00003964,-0.00236367,0.001297
 07,-0.00046743,0.00231957,-0.00301868,0.00277132,-0.00198717,0.0172879
 4,-0.04070597,0.00242689,-0.00509018,0.00064544,-0.02549501,0.17984359
 ,-0.39047449,0.02630719,-0.19437727,0.43113402,-0.00231869,-0.00083429
 ,0.00010402,0.00115651,-0.00023961,0.00021469,0.00063535,0.00025912,-0
 .00032545,0.00059276,0.00036201,0.00016669,-0.00159737,0.00062419,-0.0
 0035860,0.00083650,-0.00022316,-0.00004207,0.00080915,-0.00004804,0.00
 016881,0.00161694,0.00137732,-0.00184739,0.00250970,0.00226382,0.00072
 450,-0.01093857,-0.00378926,0.00239041,-0.03594099,-0.01320235,0.00157
 926,-0.11291131,-0.03823629,-0.03300051,0.02551937,-0.01680714,0.00896
 183,-0.00617250,0.00598684,-0.00702746,-0.00974677,0.00828211,0.004140
 61,0.00367571,-0.00029861,-0.00114794,0.56220276,-0.00141235,0.0001208
 5,0.00013667,0.00119064,-0.00058154,0.00029576,0.00023628,-0.00011667,
 -0.00001089,0.00021176,-0.00033951,-0.00013295,0.00071257,0.00538622,-
 0.00067607,0.00004487,-0.00199104,-0.00063626,0.00009810,-0.00123031,0
 .00092702,0.00133238,0.00055280,-0.00138964,0.00087853,-0.00034646,-0.
 00004269,-0.00132428,-0.00445811,0.00047394,0.02108953,0.00872362,0.00
 107969,-0.07436949,-0.11453384,-0.02670654,-0.01650888,-0.03180950,-0.
 00459310,0.00269463,0.00425564,-0.00171833,0.00141320,0.00215033,0.001
 85097,-0.00093137,-0.00100291,-0.00174333,0.02140200,0.57485964,-0.000
 66286,-0.00059320,0.00098215,0.00041207,-0.00000784,-0.00008040,0.0002
 7385,0.00021681,-0.00059990,0.00011389,-0.00006511,-0.00022138,0.00031
 669,0.00173444,0.00176733,-0.00001174,-0.00079107,-0.00092076,0.000302
 02,0.00028750,-0.00095805,0.00007528,0.00080127,-0.00260056,0.00008921
 ,-0.00081807,-0.00111531,0.00208296,-0.00312171,0.00529546,0.02077592,
 0.00705125,-0.00350204,-0.02630688,-0.00910511,-0.04741298,0.00712291,
 -0.00271794,0.02441165,-0.00345038,0.00046954,-0.01166875,0.00030929,0
 .00228032,-0.00502039,-0.00072170,-0.00185272,-0.00091263,0.01225947,0
 .00796193,0.57302748,0.00091052,0.00005334,-0.00011215,-0.00033202,0.0
 0008735,-0.00004183,-0.00028707,-0.00010327,0.00018901,-0.00021719,-0.
 00004608,0.00000417,0.00145413,0.00015151,-0.00098108,-0.00035612,0.00
 042548,0.00024363,-0.00097182,0.00006021,0.00063739,-0.00171303,-0.002
 19141,0.00192264,-0.00211047,-0.00195441,0.00174850,0.00753492,0.00349
 430,-0.00037213,-0.00632562,0.00213921,0.04343870,-0.07095274,0.000785
 13,-0.02537321,0.00339423,0.00064818,-0.00588817,0.00039598,0.00220619
 ,-0.00253058,0.00070433,0.00231997,-0.00209114,-0.00161177,-0.00065221
 ,-0.00146627,-0.00027756,0.00741793,-0.02394753,0.07208520,-0.00022881
 ,-0.00054184,-0.00000641,0.00007546,0.00010262,-0.00000957,0.00011793,
 0.00013117,-0.00010539,0.00005297,0.00023116,0.00008862,-0.00031141,-0
 .00033105,0.00058374,0.00007948,0.00015658,-0.00004475,0.00041989,0.00
 024611,-0.00044713,0.00074480,0.00137176,-0.00086201,-0.00135534,0.001
 19197,0.00177167,-0.00302306,-0.00469530,-0.00043102,0.00647967,0.0082
 8696,-0.01608001,0.00525280,-0.07385863,0.01802148,0.00655508,0.002546
 91,0.02795292,0.00024648,-0.00942534,0.00812881,0.00149788,-0.00506781
 ,0.00460953,-0.00095003,-0.00125294,0.00343748,-0.00153765,0.00209008,
 -0.01942819,-0.00827545,0.07726889,-0.00129437,-0.00114284,-0.00094370
 ,0.00103482,-0.00022142,0.00038020,0.00017478,-0.00002064,0.00043919,0
 .00028386,0.00054481,0.00051907,-0.00002071,0.00235795,-0.00422778,0.0
 0056580,0.00011902,0.00092743,-0.00026057,-0.00083268,0.00271101,0.003
 68013,0.00359153,-0.00119768,0.00066543,0.00548975,0.00452762,-0.01574
 079,-0.01624577,-0.00746096,0.04947169,-0.00648137,-0.04569420,-0.0479
 8457,0.02307520,-0.21631272,0.00205905,-0.01221373,-0.04107255,-0.0028
 9500,0.01255013,-0.00280797,-0.00039607,0.00173644,0.01206230,-0.00302
 704,0.00728199,-0.00225615,0.00278988,0.00805533,-0.04553658,0.0207840
 8,-0.01951982,0.33977548,0.00056081,0.00019031,-0.00007564,-0.00029391
 ,0.00006504,-0.00004507,-0.00015398,-0.00006169,0.00010075,-0.00013284
 ,-0.00006158,-0.00001557,0.00032956,-0.00034184,-0.00000397,-0.0001650
 9,0.00015774,0.00007278,-0.00019493,0.00003537,0.00000904,-0.00045317,
 -0.00048755,0.00065962,-0.00050910,-0.00056542,-0.00008450,0.00292183,
 0.00162464,-0.00060741,-0.00160941,-0.00126858,-0.00219693,0.00395250,
 -0.00152584,-0.02219710,-0.00262403,0.00239464,-0.00094293,0.00094358,
 -0.00190444,0.00110038,0.00101469,-0.00094354,-0.00031230,-0.00060000,
 0.00040926,0.00010385,-0.08691163,-0.00978183,-0.03470157,-0.00332823,
 -0.00381353,-0.00614096,0.07870684,0.00031335,-0.00006325,-0.00008553,
 -0.00021009,0.00010095,-0.00003775,-0.00007020,0.00000832,0.00004852,-
 0.00005684,0.00007404,0.00004602,0.00011043,-0.00076050,-0.00014004,-0
 .00006007,0.00039013,0.00018401,-0.00010827,0.00015398,-0.00001942,-0.
 00038263,-0.00018224,0.00040187,-0.00025024,0.00017893,0.00014835,0.00
 121914,0.00033199,-0.00010441,-0.00278716,0.00018348,0.00003063,0.0012
 6734,0.00649583,-0.02021177,0.00000311,0.00157503,0.00212805,-0.001006
 71,-0.00253105,-0.00134304,0.00024288,-0.00048114,-0.00088879,-0.00001
 566,0.00029886,0.00023697,-0.01013993,-0.08369692,-0.02419750,-0.00433
 597,-0.00284269,-0.00557874,-0.00365020,0.07933629,0.00043056,0.000181
 66,-0.00054339,-0.00020251,0.00001358,0.00005242,-0.00017996,-0.000115
 33,0.00034377,-0.00009042,0.00006496,0.00013921,0.00025902,-0.00053160
 ,-0.00116977,-0.00007706,0.00042781,0.00050039,-0.00027771,-0.00017625
 ,0.00063437,-0.00047396,-0.00066909,0.00156500,-0.00031644,0.00038702,
 0.00068200,0.00122729,0.00097872,-0.00195234,-0.00300975,-0.00030597,0
 .00351472,0.00270427,-0.00205089,-0.03380282,-0.00212295,0.00425178,-0
 .00936018,0.00151279,-0.00099086,0.00651127,-0.00025302,-0.00075576,0.
 00265174,-0.00008422,0.00134357,0.00018728,-0.04364272,-0.03091825,-0.
 29494772,-0.00510743,-0.00522024,-0.00433219,0.02677235,0.01014043,0.4
 3435568,0.00049157,0.00022270,-0.00005965,-0.00022514,0.00002725,-0.00
 003405,-0.00014609,-0.00007276,0.00009798,-0.00013028,-0.00009219,-0.0
 0003826,0.00039434,0.00009853,-0.00005490,-0.00015624,-0.00002318,0.00
 001503,-0.00017168,-0.00007556,0.00005791,-0.00035570,-0.00032662,0.00
 047836,-0.00053895,-0.00041723,-0.00019515,0.00245588,0.00081644,-0.00
 054987,0.00052290,-0.00205152,0.00022641,0.00551972,-0.02124327,0.0055
 4009,-0.00528171,0.00223683,-0.00268674,0.00134274,-0.00085799,0.00155
 430,0.00181399,-0.00166957,-0.00053361,-0.00065745,0.00004859,0.000268
 97,-0.08169447,0.02148839,-0.00986379,0.00072837,-0.00062498,-0.000021
 73,0.01035117,0.01201688,-0.01410922,0.09143459,0.00056264,-0.00035846
 ,0.00004365,-0.00048593,0.00031236,-0.00015004,-0.00006073,0.00011976,
 -0.00008680,-0.00008664,0.00024281,0.00007563,-0.00009409,-0.00227780,
 0.00054149,-0.00006992,0.00097449,0.00020409,-0.00000219,0.00066622,-0
 .00056112,-0.00040833,0.00021269,0.00009685,-0.00081077,0.00076581,0.0
 0034411,0.00196523,0.00017148,-0.00093352,-0.00325951,0.00232783,-0.00
 010328,0.01113109,-0.05426638,0.01982318,-0.00881595,0.00610077,-0.004
 63391,0.00132045,-0.00214348,0.00217007,0.00224333,-0.00339066,-0.0015
 9023,0.00007921,0.00001647,0.00127370,0.01404574,-0.27272719,0.0561087
 4,-0.00090160,0.00385179,-0.00226187,0.00848884,-0.00766763,0.04081222
 ,-0.06988127,0.36456309,0.00002031,0.00013349,-0.00018734,0.00003786,-
 0.00005719,0.00004812,-0.00004768,-0.00006426,0.00013286,-0.00000526,-
 0.00002915,0.00003093,0.00008321,0.00025624,-0.00057988,0.00000337,-0.
 00002131,0.00014787,-0.00010005,-0.00022337,0.00036193,0.00001954,-0.0
 0018135,0.00039989,0.00011708,0.00003627,0.00018028,-0.00030437,0.0002
 6590,-0.00069416,-0.00087884,-0.00012452,0.00134252,-0.00208498,0.0017
 7429,0.00033390,0.00011757,-0.00056623,-0.00217019,0.00036434,0.000161
 97,0.00128184,-0.00012039,0.00018375,0.00099029,-0.00012704,0.00032490
 ,-0.00014389,-0.00726620,0.06033641,-0.09389998,0.00060028,-0.00304796
 ,0.00515215,-0.01466309,0.05721879,-0.05064316,0.02344065,-0.10858148,
 0.12236008,0.00142011,0.00091933,-0.00000915,-0.00084441,0.00013611,-0
 .00017180,-0.00036209,-0.00017628,0.00016087,-0.00032951,-0.00032276,-
 0.00016910,0.00003547,-0.00156136,0.00065695,-0.00031966,0.00018070,0.
 00001869,-0.00027454,0.00017540,-0.00041131,-0.00082614,-0.00109237,0.
 00139975,-0.00043811,-0.00165774,-0.00086465,0.00338458,0.00625366,-0.
 00112576,-0.01397336,-0.00855281,-0.00027511,-0.03706893,0.01434398,0.
 02444187,-0.00515093,0.00602248,0.00066897,0.00139786,-0.00224766,0.00
 050953,0.00299697,-0.00311226,-0.00217022,-0.00166732,0.00005503,0.000
 31034,-0.25104489,0.02411739,0.05553289,0.00127593,-0.00140217,-0.0037
 2768,-0.00180466,0.00790085,0.03704109,-0.02569756,0.04504041,0.000793
 70,0.32929117,0.00022478,-0.00004529,-0.00006632,-0.00020968,0.0001093
 8,-0.00004604,-0.00003361,0.00002635,0.00001982,-0.00002635,0.00008679
 ,0.00003949,-0.00020280,-0.00106762,0.00007532,0.00000930,0.00039763,0
 .00014395,-0.00000267,0.00022439,-0.00014051,-0.00017634,-0.00004332,0
 .00026341,-0.00012479,0.00016865,0.00005683,0.00020788,0.00099641,-0.0
 0036304,-0.00555490,-0.00158881,-0.00013224,-0.00988901,0.00870951,0.0
 0376988,0.00209006,0.00079186,-0.00080255,-0.00081992,-0.00022898,0.00
 057111,-0.00209350,-0.00044682,0.00059483,0.00077596,0.00026225,0.0005
 9570,0.03075318,-0.08530518,-0.01421334,-0.00132840,0.00053962,-0.0002
 8327,0.01104020,0.00909760,-0.01686751,0.06038056,-0.03749396,-0.00779
 519,-0.08501993,0.10480952,-0.00016146,-0.00012745,-0.00017599,0.00008
 995,-0.00001013,0.00004383,0.00002679,0.00000404,0.00006969,0.00004989
 ,0.00009530,0.00008410,-0.00004514,-0.00005688,-0.00042182,0.00005948,
 0.00015293,0.00016236,0.00000372,-0.00005028,0.00022790,0.00009392,0.0
 0005027,0.00019133,0.00003372,0.00045931,0.00037516,-0.00062542,-0.000
 63776,-0.00061532,-0.00012355,0.00064728,0.00119596,0.00331233,-0.0028
 8572,-0.00024522,0.00143386,-0.00113088,-0.00367967,0.00011896,0.00033
 448,0.00179377,-0.00162217,0.00040752,0.00170043,0.00082814,0.00067783
 ,0.00009121,0.06115817,-0.01254966,-0.09608666,-0.00165686,0.00060824,
 0.00534803,0.05316827,-0.01797665,-0.05438629,-0.00353273,-0.00259147,
 0.01555593,-0.11260986,0.03457968,0.12877125\\0.00000004,0.00000104,0.
 00000386,-0.00000020,0.00000115,0.00000003,-0.00000212,0.00000047,-0.0
 0000152,0.00000055,0.00000086,-0.00000108,-0.00000468,0.00000313,0.000
 00874,-0.00000108,-0.00000059,0.00000065,-0.00000115,0.00000388,-0.000
 00406,0.00001652,-0.00002185,0.00000378,0.00000958,-0.00001263,0.00000
 391,0.00001511,0.00003872,-0.00000105,-0.00006612,0.00001373,0.0000036
 5,0.00002729,-0.00002461,-0.00004483,0.00004915,-0.00000019,0.00002614
 ,-0.00003884,0.00001384,0.00002635,-0.00000088,-0.00004746,0.00001891,
 -0.00000328,0.00003562,-0.00008292,0.00001042,-0.00000176,0.00002127,-
 0.00000110,-0.00000137,0.00002296,-0.00000265,0.00000689,-0.00000559,-
 0.00000052,-0.00000616,0.00000199,-0.00000605,-0.00000268,-0.00000118\
 \\@


 ACCORDING TO HEN3RY, LIFE IS MUCH LIKE A SEWER........
 YOU GET OUT OF IT JUST WHAT YOU PUT INTO IT...........
                         TOM LEHRER - (THE 3 IS SILENT)
 Job cpu time:       1 days  2 hours 32 minutes 56.7 seconds.
 Elapsed time:       0 days  1 hours  7 minutes 11.0 seconds.
 File lengths (MBytes):  RWF=    626 Int=      0 D2E=      0 Chk=     25 Scr=      1
 Normal termination of Gaussian 16 at Tue Jul  5 16:32:35 2022.
